NAME          UNIT_COMMIT_Large
OBJSENSE
  MIN
ROWS
 N  TOTAL_COST
 E  DEMAND_T0
 G  RESERVE_T0
 L  PMAX_G0_T0
 G  PMIN_G0_T0
 L  PMAX_G1_T0
 G  PMIN_G1_T0
 L  PMAX_G2_T0
 G  PMIN_G2_T0
 L  PMAX_G3_T0
 G  PMIN_G3_T0
 L  PMAX_G4_T0
 G  PMIN_G4_T0
 L  PMAX_G5_T0
 G  PMIN_G5_T0
 L  PMAX_G6_T0
 G  PMIN_G6_T0
 L  PMAX_G7_T0
 G  PMIN_G7_T0
 L  PMAX_G8_T0
 G  PMIN_G8_T0
 L  PMAX_G9_T0
 G  PMIN_G9_T0
 L  PMAX_G10_T0
 G  PMIN_G10_T0
 L  PMAX_G11_T0
 G  PMIN_G11_T0
 L  PMAX_G12_T0
 G  PMIN_G12_T0
 L  PMAX_G13_T0
 G  PMIN_G13_T0
 L  PMAX_G14_T0
 G  PMIN_G14_T0
 L  PMAX_G15_T0
 G  PMIN_G15_T0
 L  PMAX_G16_T0
 G  PMIN_G16_T0
 L  PMAX_G17_T0
 G  PMIN_G17_T0
 L  PMAX_G18_T0
 G  PMIN_G18_T0
 L  PMAX_G19_T0
 G  PMIN_G19_T0
 E  DEMAND_T1
 G  RESERVE_T1
 L  PMAX_G0_T1
 G  PMIN_G0_T1
 L  PMAX_G1_T1
 G  PMIN_G1_T1
 L  PMAX_G2_T1
 G  PMIN_G2_T1
 L  PMAX_G3_T1
 G  PMIN_G3_T1
 L  PMAX_G4_T1
 G  PMIN_G4_T1
 L  PMAX_G5_T1
 G  PMIN_G5_T1
 L  PMAX_G6_T1
 G  PMIN_G6_T1
 L  PMAX_G7_T1
 G  PMIN_G7_T1
 L  PMAX_G8_T1
 G  PMIN_G8_T1
 L  PMAX_G9_T1
 G  PMIN_G9_T1
 L  PMAX_G10_T1
 G  PMIN_G10_T1
 L  PMAX_G11_T1
 G  PMIN_G11_T1
 L  PMAX_G12_T1
 G  PMIN_G12_T1
 L  PMAX_G13_T1
 G  PMIN_G13_T1
 L  PMAX_G14_T1
 G  PMIN_G14_T1
 L  PMAX_G15_T1
 G  PMIN_G15_T1
 L  PMAX_G16_T1
 G  PMIN_G16_T1
 L  PMAX_G17_T1
 G  PMIN_G17_T1
 L  PMAX_G18_T1
 G  PMIN_G18_T1
 L  PMAX_G19_T1
 G  PMIN_G19_T1
 L  RAMPUP_G0_T1
 L  RAMPDN_G0_T1
 L  RAMPUP_G1_T1
 L  RAMPDN_G1_T1
 L  RAMPUP_G2_T1
 L  RAMPDN_G2_T1
 L  RAMPUP_G3_T1
 L  RAMPDN_G3_T1
 L  RAMPUP_G4_T1
 L  RAMPDN_G4_T1
 L  RAMPUP_G5_T1
 L  RAMPDN_G5_T1
 L  RAMPUP_G6_T1
 L  RAMPDN_G6_T1
 L  RAMPUP_G7_T1
 L  RAMPDN_G7_T1
 L  RAMPUP_G8_T1
 L  RAMPDN_G8_T1
 L  RAMPUP_G9_T1
 L  RAMPDN_G9_T1
 L  RAMPUP_G10_T1
 L  RAMPDN_G10_T1
 L  RAMPUP_G11_T1
 L  RAMPDN_G11_T1
 L  RAMPUP_G12_T1
 L  RAMPDN_G12_T1
 L  RAMPUP_G13_T1
 L  RAMPDN_G13_T1
 L  RAMPUP_G14_T1
 L  RAMPDN_G14_T1
 L  RAMPUP_G15_T1
 L  RAMPDN_G15_T1
 L  RAMPUP_G16_T1
 L  RAMPDN_G16_T1
 L  RAMPUP_G17_T1
 L  RAMPDN_G17_T1
 L  RAMPUP_G18_T1
 L  RAMPDN_G18_T1
 L  RAMPUP_G19_T1
 L  RAMPDN_G19_T1
 E  DEMAND_T2
 G  RESERVE_T2
 L  PMAX_G0_T2
 G  PMIN_G0_T2
 L  PMAX_G1_T2
 G  PMIN_G1_T2
 L  PMAX_G2_T2
 G  PMIN_G2_T2
 L  PMAX_G3_T2
 G  PMIN_G3_T2
 L  PMAX_G4_T2
 G  PMIN_G4_T2
 L  PMAX_G5_T2
 G  PMIN_G5_T2
 L  PMAX_G6_T2
 G  PMIN_G6_T2
 L  PMAX_G7_T2
 G  PMIN_G7_T2
 L  PMAX_G8_T2
 G  PMIN_G8_T2
 L  PMAX_G9_T2
 G  PMIN_G9_T2
 L  PMAX_G10_T2
 G  PMIN_G10_T2
 L  PMAX_G11_T2
 G  PMIN_G11_T2
 L  PMAX_G12_T2
 G  PMIN_G12_T2
 L  PMAX_G13_T2
 G  PMIN_G13_T2
 L  PMAX_G14_T2
 G  PMIN_G14_T2
 L  PMAX_G15_T2
 G  PMIN_G15_T2
 L  PMAX_G16_T2
 G  PMIN_G16_T2
 L  PMAX_G17_T2
 G  PMIN_G17_T2
 L  PMAX_G18_T2
 G  PMIN_G18_T2
 L  PMAX_G19_T2
 G  PMIN_G19_T2
 L  RAMPUP_G0_T2
 L  RAMPDN_G0_T2
 L  RAMPUP_G1_T2
 L  RAMPDN_G1_T2
 L  RAMPUP_G2_T2
 L  RAMPDN_G2_T2
 L  RAMPUP_G3_T2
 L  RAMPDN_G3_T2
 L  RAMPUP_G4_T2
 L  RAMPDN_G4_T2
 L  RAMPUP_G5_T2
 L  RAMPDN_G5_T2
 L  RAMPUP_G6_T2
 L  RAMPDN_G6_T2
 L  RAMPUP_G7_T2
 L  RAMPDN_G7_T2
 L  RAMPUP_G8_T2
 L  RAMPDN_G8_T2
 L  RAMPUP_G9_T2
 L  RAMPDN_G9_T2
 L  RAMPUP_G10_T2
 L  RAMPDN_G10_T2
 L  RAMPUP_G11_T2
 L  RAMPDN_G11_T2
 L  RAMPUP_G12_T2
 L  RAMPDN_G12_T2
 L  RAMPUP_G13_T2
 L  RAMPDN_G13_T2
 L  RAMPUP_G14_T2
 L  RAMPDN_G14_T2
 L  RAMPUP_G15_T2
 L  RAMPDN_G15_T2
 L  RAMPUP_G16_T2
 L  RAMPDN_G16_T2
 L  RAMPUP_G17_T2
 L  RAMPDN_G17_T2
 L  RAMPUP_G18_T2
 L  RAMPDN_G18_T2
 L  RAMPUP_G19_T2
 L  RAMPDN_G19_T2
 E  DEMAND_T3
 G  RESERVE_T3
 L  PMAX_G0_T3
 G  PMIN_G0_T3
 L  PMAX_G1_T3
 G  PMIN_G1_T3
 L  PMAX_G2_T3
 G  PMIN_G2_T3
 L  PMAX_G3_T3
 G  PMIN_G3_T3
 L  PMAX_G4_T3
 G  PMIN_G4_T3
 L  PMAX_G5_T3
 G  PMIN_G5_T3
 L  PMAX_G6_T3
 G  PMIN_G6_T3
 L  PMAX_G7_T3
 G  PMIN_G7_T3
 L  PMAX_G8_T3
 G  PMIN_G8_T3
 L  PMAX_G9_T3
 G  PMIN_G9_T3
 L  PMAX_G10_T3
 G  PMIN_G10_T3
 L  PMAX_G11_T3
 G  PMIN_G11_T3
 L  PMAX_G12_T3
 G  PMIN_G12_T3
 L  PMAX_G13_T3
 G  PMIN_G13_T3
 L  PMAX_G14_T3
 G  PMIN_G14_T3
 L  PMAX_G15_T3
 G  PMIN_G15_T3
 L  PMAX_G16_T3
 G  PMIN_G16_T3
 L  PMAX_G17_T3
 G  PMIN_G17_T3
 L  PMAX_G18_T3
 G  PMIN_G18_T3
 L  PMAX_G19_T3
 G  PMIN_G19_T3
 L  RAMPUP_G0_T3
 L  RAMPDN_G0_T3
 L  RAMPUP_G1_T3
 L  RAMPDN_G1_T3
 L  RAMPUP_G2_T3
 L  RAMPDN_G2_T3
 L  RAMPUP_G3_T3
 L  RAMPDN_G3_T3
 L  RAMPUP_G4_T3
 L  RAMPDN_G4_T3
 L  RAMPUP_G5_T3
 L  RAMPDN_G5_T3
 L  RAMPUP_G6_T3
 L  RAMPDN_G6_T3
 L  RAMPUP_G7_T3
 L  RAMPDN_G7_T3
 L  RAMPUP_G8_T3
 L  RAMPDN_G8_T3
 L  RAMPUP_G9_T3
 L  RAMPDN_G9_T3
 L  RAMPUP_G10_T3
 L  RAMPDN_G10_T3
 L  RAMPUP_G11_T3
 L  RAMPDN_G11_T3
 L  RAMPUP_G12_T3
 L  RAMPDN_G12_T3
 L  RAMPUP_G13_T3
 L  RAMPDN_G13_T3
 L  RAMPUP_G14_T3
 L  RAMPDN_G14_T3
 L  RAMPUP_G15_T3
 L  RAMPDN_G15_T3
 L  RAMPUP_G16_T3
 L  RAMPDN_G16_T3
 L  RAMPUP_G17_T3
 L  RAMPDN_G17_T3
 L  RAMPUP_G18_T3
 L  RAMPDN_G18_T3
 L  RAMPUP_G19_T3
 L  RAMPDN_G19_T3
 E  DEMAND_T4
 G  RESERVE_T4
 L  PMAX_G0_T4
 G  PMIN_G0_T4
 L  PMAX_G1_T4
 G  PMIN_G1_T4
 L  PMAX_G2_T4
 G  PMIN_G2_T4
 L  PMAX_G3_T4
 G  PMIN_G3_T4
 L  PMAX_G4_T4
 G  PMIN_G4_T4
 L  PMAX_G5_T4
 G  PMIN_G5_T4
 L  PMAX_G6_T4
 G  PMIN_G6_T4
 L  PMAX_G7_T4
 G  PMIN_G7_T4
 L  PMAX_G8_T4
 G  PMIN_G8_T4
 L  PMAX_G9_T4
 G  PMIN_G9_T4
 L  PMAX_G10_T4
 G  PMIN_G10_T4
 L  PMAX_G11_T4
 G  PMIN_G11_T4
 L  PMAX_G12_T4
 G  PMIN_G12_T4
 L  PMAX_G13_T4
 G  PMIN_G13_T4
 L  PMAX_G14_T4
 G  PMIN_G14_T4
 L  PMAX_G15_T4
 G  PMIN_G15_T4
 L  PMAX_G16_T4
 G  PMIN_G16_T4
 L  PMAX_G17_T4
 G  PMIN_G17_T4
 L  PMAX_G18_T4
 G  PMIN_G18_T4
 L  PMAX_G19_T4
 G  PMIN_G19_T4
 L  RAMPUP_G0_T4
 L  RAMPDN_G0_T4
 L  RAMPUP_G1_T4
 L  RAMPDN_G1_T4
 L  RAMPUP_G2_T4
 L  RAMPDN_G2_T4
 L  RAMPUP_G3_T4
 L  RAMPDN_G3_T4
 L  RAMPUP_G4_T4
 L  RAMPDN_G4_T4
 L  RAMPUP_G5_T4
 L  RAMPDN_G5_T4
 L  RAMPUP_G6_T4
 L  RAMPDN_G6_T4
 L  RAMPUP_G7_T4
 L  RAMPDN_G7_T4
 L  RAMPUP_G8_T4
 L  RAMPDN_G8_T4
 L  RAMPUP_G9_T4
 L  RAMPDN_G9_T4
 L  RAMPUP_G10_T4
 L  RAMPDN_G10_T4
 L  RAMPUP_G11_T4
 L  RAMPDN_G11_T4
 L  RAMPUP_G12_T4
 L  RAMPDN_G12_T4
 L  RAMPUP_G13_T4
 L  RAMPDN_G13_T4
 L  RAMPUP_G14_T4
 L  RAMPDN_G14_T4
 L  RAMPUP_G15_T4
 L  RAMPDN_G15_T4
 L  RAMPUP_G16_T4
 L  RAMPDN_G16_T4
 L  RAMPUP_G17_T4
 L  RAMPDN_G17_T4
 L  RAMPUP_G18_T4
 L  RAMPDN_G18_T4
 L  RAMPUP_G19_T4
 L  RAMPDN_G19_T4
 E  DEMAND_T5
 G  RESERVE_T5
 L  PMAX_G0_T5
 G  PMIN_G0_T5
 L  PMAX_G1_T5
 G  PMIN_G1_T5
 L  PMAX_G2_T5
 G  PMIN_G2_T5
 L  PMAX_G3_T5
 G  PMIN_G3_T5
 L  PMAX_G4_T5
 G  PMIN_G4_T5
 L  PMAX_G5_T5
 G  PMIN_G5_T5
 L  PMAX_G6_T5
 G  PMIN_G6_T5
 L  PMAX_G7_T5
 G  PMIN_G7_T5
 L  PMAX_G8_T5
 G  PMIN_G8_T5
 L  PMAX_G9_T5
 G  PMIN_G9_T5
 L  PMAX_G10_T5
 G  PMIN_G10_T5
 L  PMAX_G11_T5
 G  PMIN_G11_T5
 L  PMAX_G12_T5
 G  PMIN_G12_T5
 L  PMAX_G13_T5
 G  PMIN_G13_T5
 L  PMAX_G14_T5
 G  PMIN_G14_T5
 L  PMAX_G15_T5
 G  PMIN_G15_T5
 L  PMAX_G16_T5
 G  PMIN_G16_T5
 L  PMAX_G17_T5
 G  PMIN_G17_T5
 L  PMAX_G18_T5
 G  PMIN_G18_T5
 L  PMAX_G19_T5
 G  PMIN_G19_T5
 L  RAMPUP_G0_T5
 L  RAMPDN_G0_T5
 L  RAMPUP_G1_T5
 L  RAMPDN_G1_T5
 L  RAMPUP_G2_T5
 L  RAMPDN_G2_T5
 L  RAMPUP_G3_T5
 L  RAMPDN_G3_T5
 L  RAMPUP_G4_T5
 L  RAMPDN_G4_T5
 L  RAMPUP_G5_T5
 L  RAMPDN_G5_T5
 L  RAMPUP_G6_T5
 L  RAMPDN_G6_T5
 L  RAMPUP_G7_T5
 L  RAMPDN_G7_T5
 L  RAMPUP_G8_T5
 L  RAMPDN_G8_T5
 L  RAMPUP_G9_T5
 L  RAMPDN_G9_T5
 L  RAMPUP_G10_T5
 L  RAMPDN_G10_T5
 L  RAMPUP_G11_T5
 L  RAMPDN_G11_T5
 L  RAMPUP_G12_T5
 L  RAMPDN_G12_T5
 L  RAMPUP_G13_T5
 L  RAMPDN_G13_T5
 L  RAMPUP_G14_T5
 L  RAMPDN_G14_T5
 L  RAMPUP_G15_T5
 L  RAMPDN_G15_T5
 L  RAMPUP_G16_T5
 L  RAMPDN_G16_T5
 L  RAMPUP_G17_T5
 L  RAMPDN_G17_T5
 L  RAMPUP_G18_T5
 L  RAMPDN_G18_T5
 L  RAMPUP_G19_T5
 L  RAMPDN_G19_T5
 E  DEMAND_T6
 G  RESERVE_T6
 L  PMAX_G0_T6
 G  PMIN_G0_T6
 L  PMAX_G1_T6
 G  PMIN_G1_T6
 L  PMAX_G2_T6
 G  PMIN_G2_T6
 L  PMAX_G3_T6
 G  PMIN_G3_T6
 L  PMAX_G4_T6
 G  PMIN_G4_T6
 L  PMAX_G5_T6
 G  PMIN_G5_T6
 L  PMAX_G6_T6
 G  PMIN_G6_T6
 L  PMAX_G7_T6
 G  PMIN_G7_T6
 L  PMAX_G8_T6
 G  PMIN_G8_T6
 L  PMAX_G9_T6
 G  PMIN_G9_T6
 L  PMAX_G10_T6
 G  PMIN_G10_T6
 L  PMAX_G11_T6
 G  PMIN_G11_T6
 L  PMAX_G12_T6
 G  PMIN_G12_T6
 L  PMAX_G13_T6
 G  PMIN_G13_T6
 L  PMAX_G14_T6
 G  PMIN_G14_T6
 L  PMAX_G15_T6
 G  PMIN_G15_T6
 L  PMAX_G16_T6
 G  PMIN_G16_T6
 L  PMAX_G17_T6
 G  PMIN_G17_T6
 L  PMAX_G18_T6
 G  PMIN_G18_T6
 L  PMAX_G19_T6
 G  PMIN_G19_T6
 L  RAMPUP_G0_T6
 L  RAMPDN_G0_T6
 L  RAMPUP_G1_T6
 L  RAMPDN_G1_T6
 L  RAMPUP_G2_T6
 L  RAMPDN_G2_T6
 L  RAMPUP_G3_T6
 L  RAMPDN_G3_T6
 L  RAMPUP_G4_T6
 L  RAMPDN_G4_T6
 L  RAMPUP_G5_T6
 L  RAMPDN_G5_T6
 L  RAMPUP_G6_T6
 L  RAMPDN_G6_T6
 L  RAMPUP_G7_T6
 L  RAMPDN_G7_T6
 L  RAMPUP_G8_T6
 L  RAMPDN_G8_T6
 L  RAMPUP_G9_T6
 L  RAMPDN_G9_T6
 L  RAMPUP_G10_T6
 L  RAMPDN_G10_T6
 L  RAMPUP_G11_T6
 L  RAMPDN_G11_T6
 L  RAMPUP_G12_T6
 L  RAMPDN_G12_T6
 L  RAMPUP_G13_T6
 L  RAMPDN_G13_T6
 L  RAMPUP_G14_T6
 L  RAMPDN_G14_T6
 L  RAMPUP_G15_T6
 L  RAMPDN_G15_T6
 L  RAMPUP_G16_T6
 L  RAMPDN_G16_T6
 L  RAMPUP_G17_T6
 L  RAMPDN_G17_T6
 L  RAMPUP_G18_T6
 L  RAMPDN_G18_T6
 L  RAMPUP_G19_T6
 L  RAMPDN_G19_T6
 E  DEMAND_T7
 G  RESERVE_T7
 L  PMAX_G0_T7
 G  PMIN_G0_T7
 L  PMAX_G1_T7
 G  PMIN_G1_T7
 L  PMAX_G2_T7
 G  PMIN_G2_T7
 L  PMAX_G3_T7
 G  PMIN_G3_T7
 L  PMAX_G4_T7
 G  PMIN_G4_T7
 L  PMAX_G5_T7
 G  PMIN_G5_T7
 L  PMAX_G6_T7
 G  PMIN_G6_T7
 L  PMAX_G7_T7
 G  PMIN_G7_T7
 L  PMAX_G8_T7
 G  PMIN_G8_T7
 L  PMAX_G9_T7
 G  PMIN_G9_T7
 L  PMAX_G10_T7
 G  PMIN_G10_T7
 L  PMAX_G11_T7
 G  PMIN_G11_T7
 L  PMAX_G12_T7
 G  PMIN_G12_T7
 L  PMAX_G13_T7
 G  PMIN_G13_T7
 L  PMAX_G14_T7
 G  PMIN_G14_T7
 L  PMAX_G15_T7
 G  PMIN_G15_T7
 L  PMAX_G16_T7
 G  PMIN_G16_T7
 L  PMAX_G17_T7
 G  PMIN_G17_T7
 L  PMAX_G18_T7
 G  PMIN_G18_T7
 L  PMAX_G19_T7
 G  PMIN_G19_T7
 L  RAMPUP_G0_T7
 L  RAMPDN_G0_T7
 L  RAMPUP_G1_T7
 L  RAMPDN_G1_T7
 L  RAMPUP_G2_T7
 L  RAMPDN_G2_T7
 L  RAMPUP_G3_T7
 L  RAMPDN_G3_T7
 L  RAMPUP_G4_T7
 L  RAMPDN_G4_T7
 L  RAMPUP_G5_T7
 L  RAMPDN_G5_T7
 L  RAMPUP_G6_T7
 L  RAMPDN_G6_T7
 L  RAMPUP_G7_T7
 L  RAMPDN_G7_T7
 L  RAMPUP_G8_T7
 L  RAMPDN_G8_T7
 L  RAMPUP_G9_T7
 L  RAMPDN_G9_T7
 L  RAMPUP_G10_T7
 L  RAMPDN_G10_T7
 L  RAMPUP_G11_T7
 L  RAMPDN_G11_T7
 L  RAMPUP_G12_T7
 L  RAMPDN_G12_T7
 L  RAMPUP_G13_T7
 L  RAMPDN_G13_T7
 L  RAMPUP_G14_T7
 L  RAMPDN_G14_T7
 L  RAMPUP_G15_T7
 L  RAMPDN_G15_T7
 L  RAMPUP_G16_T7
 L  RAMPDN_G16_T7
 L  RAMPUP_G17_T7
 L  RAMPDN_G17_T7
 L  RAMPUP_G18_T7
 L  RAMPDN_G18_T7
 L  RAMPUP_G19_T7
 L  RAMPDN_G19_T7
 E  DEMAND_T8
 G  RESERVE_T8
 L  PMAX_G0_T8
 G  PMIN_G0_T8
 L  PMAX_G1_T8
 G  PMIN_G1_T8
 L  PMAX_G2_T8
 G  PMIN_G2_T8
 L  PMAX_G3_T8
 G  PMIN_G3_T8
 L  PMAX_G4_T8
 G  PMIN_G4_T8
 L  PMAX_G5_T8
 G  PMIN_G5_T8
 L  PMAX_G6_T8
 G  PMIN_G6_T8
 L  PMAX_G7_T8
 G  PMIN_G7_T8
 L  PMAX_G8_T8
 G  PMIN_G8_T8
 L  PMAX_G9_T8
 G  PMIN_G9_T8
 L  PMAX_G10_T8
 G  PMIN_G10_T8
 L  PMAX_G11_T8
 G  PMIN_G11_T8
 L  PMAX_G12_T8
 G  PMIN_G12_T8
 L  PMAX_G13_T8
 G  PMIN_G13_T8
 L  PMAX_G14_T8
 G  PMIN_G14_T8
 L  PMAX_G15_T8
 G  PMIN_G15_T8
 L  PMAX_G16_T8
 G  PMIN_G16_T8
 L  PMAX_G17_T8
 G  PMIN_G17_T8
 L  PMAX_G18_T8
 G  PMIN_G18_T8
 L  PMAX_G19_T8
 G  PMIN_G19_T8
 L  RAMPUP_G0_T8
 L  RAMPDN_G0_T8
 L  RAMPUP_G1_T8
 L  RAMPDN_G1_T8
 L  RAMPUP_G2_T8
 L  RAMPDN_G2_T8
 L  RAMPUP_G3_T8
 L  RAMPDN_G3_T8
 L  RAMPUP_G4_T8
 L  RAMPDN_G4_T8
 L  RAMPUP_G5_T8
 L  RAMPDN_G5_T8
 L  RAMPUP_G6_T8
 L  RAMPDN_G6_T8
 L  RAMPUP_G7_T8
 L  RAMPDN_G7_T8
 L  RAMPUP_G8_T8
 L  RAMPDN_G8_T8
 L  RAMPUP_G9_T8
 L  RAMPDN_G9_T8
 L  RAMPUP_G10_T8
 L  RAMPDN_G10_T8
 L  RAMPUP_G11_T8
 L  RAMPDN_G11_T8
 L  RAMPUP_G12_T8
 L  RAMPDN_G12_T8
 L  RAMPUP_G13_T8
 L  RAMPDN_G13_T8
 L  RAMPUP_G14_T8
 L  RAMPDN_G14_T8
 L  RAMPUP_G15_T8
 L  RAMPDN_G15_T8
 L  RAMPUP_G16_T8
 L  RAMPDN_G16_T8
 L  RAMPUP_G17_T8
 L  RAMPDN_G17_T8
 L  RAMPUP_G18_T8
 L  RAMPDN_G18_T8
 L  RAMPUP_G19_T8
 L  RAMPDN_G19_T8
 E  DEMAND_T9
 G  RESERVE_T9
 L  PMAX_G0_T9
 G  PMIN_G0_T9
 L  PMAX_G1_T9
 G  PMIN_G1_T9
 L  PMAX_G2_T9
 G  PMIN_G2_T9
 L  PMAX_G3_T9
 G  PMIN_G3_T9
 L  PMAX_G4_T9
 G  PMIN_G4_T9
 L  PMAX_G5_T9
 G  PMIN_G5_T9
 L  PMAX_G6_T9
 G  PMIN_G6_T9
 L  PMAX_G7_T9
 G  PMIN_G7_T9
 L  PMAX_G8_T9
 G  PMIN_G8_T9
 L  PMAX_G9_T9
 G  PMIN_G9_T9
 L  PMAX_G10_T9
 G  PMIN_G10_T9
 L  PMAX_G11_T9
 G  PMIN_G11_T9
 L  PMAX_G12_T9
 G  PMIN_G12_T9
 L  PMAX_G13_T9
 G  PMIN_G13_T9
 L  PMAX_G14_T9
 G  PMIN_G14_T9
 L  PMAX_G15_T9
 G  PMIN_G15_T9
 L  PMAX_G16_T9
 G  PMIN_G16_T9
 L  PMAX_G17_T9
 G  PMIN_G17_T9
 L  PMAX_G18_T9
 G  PMIN_G18_T9
 L  PMAX_G19_T9
 G  PMIN_G19_T9
 L  RAMPUP_G0_T9
 L  RAMPDN_G0_T9
 L  RAMPUP_G1_T9
 L  RAMPDN_G1_T9
 L  RAMPUP_G2_T9
 L  RAMPDN_G2_T9
 L  RAMPUP_G3_T9
 L  RAMPDN_G3_T9
 L  RAMPUP_G4_T9
 L  RAMPDN_G4_T9
 L  RAMPUP_G5_T9
 L  RAMPDN_G5_T9
 L  RAMPUP_G6_T9
 L  RAMPDN_G6_T9
 L  RAMPUP_G7_T9
 L  RAMPDN_G7_T9
 L  RAMPUP_G8_T9
 L  RAMPDN_G8_T9
 L  RAMPUP_G9_T9
 L  RAMPDN_G9_T9
 L  RAMPUP_G10_T9
 L  RAMPDN_G10_T9
 L  RAMPUP_G11_T9
 L  RAMPDN_G11_T9
 L  RAMPUP_G12_T9
 L  RAMPDN_G12_T9
 L  RAMPUP_G13_T9
 L  RAMPDN_G13_T9
 L  RAMPUP_G14_T9
 L  RAMPDN_G14_T9
 L  RAMPUP_G15_T9
 L  RAMPDN_G15_T9
 L  RAMPUP_G16_T9
 L  RAMPDN_G16_T9
 L  RAMPUP_G17_T9
 L  RAMPDN_G17_T9
 L  RAMPUP_G18_T9
 L  RAMPDN_G18_T9
 L  RAMPUP_G19_T9
 L  RAMPDN_G19_T9
 E  DEMAND_T10
 G  RESERVE_T10
 L  PMAX_G0_T10
 G  PMIN_G0_T10
 L  PMAX_G1_T10
 G  PMIN_G1_T10
 L  PMAX_G2_T10
 G  PMIN_G2_T10
 L  PMAX_G3_T10
 G  PMIN_G3_T10
 L  PMAX_G4_T10
 G  PMIN_G4_T10
 L  PMAX_G5_T10
 G  PMIN_G5_T10
 L  PMAX_G6_T10
 G  PMIN_G6_T10
 L  PMAX_G7_T10
 G  PMIN_G7_T10
 L  PMAX_G8_T10
 G  PMIN_G8_T10
 L  PMAX_G9_T10
 G  PMIN_G9_T10
 L  PMAX_G10_T10
 G  PMIN_G10_T10
 L  PMAX_G11_T10
 G  PMIN_G11_T10
 L  PMAX_G12_T10
 G  PMIN_G12_T10
 L  PMAX_G13_T10
 G  PMIN_G13_T10
 L  PMAX_G14_T10
 G  PMIN_G14_T10
 L  PMAX_G15_T10
 G  PMIN_G15_T10
 L  PMAX_G16_T10
 G  PMIN_G16_T10
 L  PMAX_G17_T10
 G  PMIN_G17_T10
 L  PMAX_G18_T10
 G  PMIN_G18_T10
 L  PMAX_G19_T10
 G  PMIN_G19_T10
 L  RAMPUP_G0_T10
 L  RAMPDN_G0_T10
 L  RAMPUP_G1_T10
 L  RAMPDN_G1_T10
 L  RAMPUP_G2_T10
 L  RAMPDN_G2_T10
 L  RAMPUP_G3_T10
 L  RAMPDN_G3_T10
 L  RAMPUP_G4_T10
 L  RAMPDN_G4_T10
 L  RAMPUP_G5_T10
 L  RAMPDN_G5_T10
 L  RAMPUP_G6_T10
 L  RAMPDN_G6_T10
 L  RAMPUP_G7_T10
 L  RAMPDN_G7_T10
 L  RAMPUP_G8_T10
 L  RAMPDN_G8_T10
 L  RAMPUP_G9_T10
 L  RAMPDN_G9_T10
 L  RAMPUP_G10_T10
 L  RAMPDN_G10_T10
 L  RAMPUP_G11_T10
 L  RAMPDN_G11_T10
 L  RAMPUP_G12_T10
 L  RAMPDN_G12_T10
 L  RAMPUP_G13_T10
 L  RAMPDN_G13_T10
 L  RAMPUP_G14_T10
 L  RAMPDN_G14_T10
 L  RAMPUP_G15_T10
 L  RAMPDN_G15_T10
 L  RAMPUP_G16_T10
 L  RAMPDN_G16_T10
 L  RAMPUP_G17_T10
 L  RAMPDN_G17_T10
 L  RAMPUP_G18_T10
 L  RAMPDN_G18_T10
 L  RAMPUP_G19_T10
 L  RAMPDN_G19_T10
 E  DEMAND_T11
 G  RESERVE_T11
 L  PMAX_G0_T11
 G  PMIN_G0_T11
 L  PMAX_G1_T11
 G  PMIN_G1_T11
 L  PMAX_G2_T11
 G  PMIN_G2_T11
 L  PMAX_G3_T11
 G  PMIN_G3_T11
 L  PMAX_G4_T11
 G  PMIN_G4_T11
 L  PMAX_G5_T11
 G  PMIN_G5_T11
 L  PMAX_G6_T11
 G  PMIN_G6_T11
 L  PMAX_G7_T11
 G  PMIN_G7_T11
 L  PMAX_G8_T11
 G  PMIN_G8_T11
 L  PMAX_G9_T11
 G  PMIN_G9_T11
 L  PMAX_G10_T11
 G  PMIN_G10_T11
 L  PMAX_G11_T11
 G  PMIN_G11_T11
 L  PMAX_G12_T11
 G  PMIN_G12_T11
 L  PMAX_G13_T11
 G  PMIN_G13_T11
 L  PMAX_G14_T11
 G  PMIN_G14_T11
 L  PMAX_G15_T11
 G  PMIN_G15_T11
 L  PMAX_G16_T11
 G  PMIN_G16_T11
 L  PMAX_G17_T11
 G  PMIN_G17_T11
 L  PMAX_G18_T11
 G  PMIN_G18_T11
 L  PMAX_G19_T11
 G  PMIN_G19_T11
 L  RAMPUP_G0_T11
 L  RAMPDN_G0_T11
 L  RAMPUP_G1_T11
 L  RAMPDN_G1_T11
 L  RAMPUP_G2_T11
 L  RAMPDN_G2_T11
 L  RAMPUP_G3_T11
 L  RAMPDN_G3_T11
 L  RAMPUP_G4_T11
 L  RAMPDN_G4_T11
 L  RAMPUP_G5_T11
 L  RAMPDN_G5_T11
 L  RAMPUP_G6_T11
 L  RAMPDN_G6_T11
 L  RAMPUP_G7_T11
 L  RAMPDN_G7_T11
 L  RAMPUP_G8_T11
 L  RAMPDN_G8_T11
 L  RAMPUP_G9_T11
 L  RAMPDN_G9_T11
 L  RAMPUP_G10_T11
 L  RAMPDN_G10_T11
 L  RAMPUP_G11_T11
 L  RAMPDN_G11_T11
 L  RAMPUP_G12_T11
 L  RAMPDN_G12_T11
 L  RAMPUP_G13_T11
 L  RAMPDN_G13_T11
 L  RAMPUP_G14_T11
 L  RAMPDN_G14_T11
 L  RAMPUP_G15_T11
 L  RAMPDN_G15_T11
 L  RAMPUP_G16_T11
 L  RAMPDN_G16_T11
 L  RAMPUP_G17_T11
 L  RAMPDN_G17_T11
 L  RAMPUP_G18_T11
 L  RAMPDN_G18_T11
 L  RAMPUP_G19_T11
 L  RAMPDN_G19_T11
 E  DEMAND_T12
 G  RESERVE_T12
 L  PMAX_G0_T12
 G  PMIN_G0_T12
 L  PMAX_G1_T12
 G  PMIN_G1_T12
 L  PMAX_G2_T12
 G  PMIN_G2_T12
 L  PMAX_G3_T12
 G  PMIN_G3_T12
 L  PMAX_G4_T12
 G  PMIN_G4_T12
 L  PMAX_G5_T12
 G  PMIN_G5_T12
 L  PMAX_G6_T12
 G  PMIN_G6_T12
 L  PMAX_G7_T12
 G  PMIN_G7_T12
 L  PMAX_G8_T12
 G  PMIN_G8_T12
 L  PMAX_G9_T12
 G  PMIN_G9_T12
 L  PMAX_G10_T12
 G  PMIN_G10_T12
 L  PMAX_G11_T12
 G  PMIN_G11_T12
 L  PMAX_G12_T12
 G  PMIN_G12_T12
 L  PMAX_G13_T12
 G  PMIN_G13_T12
 L  PMAX_G14_T12
 G  PMIN_G14_T12
 L  PMAX_G15_T12
 G  PMIN_G15_T12
 L  PMAX_G16_T12
 G  PMIN_G16_T12
 L  PMAX_G17_T12
 G  PMIN_G17_T12
 L  PMAX_G18_T12
 G  PMIN_G18_T12
 L  PMAX_G19_T12
 G  PMIN_G19_T12
 L  RAMPUP_G0_T12
 L  RAMPDN_G0_T12
 L  RAMPUP_G1_T12
 L  RAMPDN_G1_T12
 L  RAMPUP_G2_T12
 L  RAMPDN_G2_T12
 L  RAMPUP_G3_T12
 L  RAMPDN_G3_T12
 L  RAMPUP_G4_T12
 L  RAMPDN_G4_T12
 L  RAMPUP_G5_T12
 L  RAMPDN_G5_T12
 L  RAMPUP_G6_T12
 L  RAMPDN_G6_T12
 L  RAMPUP_G7_T12
 L  RAMPDN_G7_T12
 L  RAMPUP_G8_T12
 L  RAMPDN_G8_T12
 L  RAMPUP_G9_T12
 L  RAMPDN_G9_T12
 L  RAMPUP_G10_T12
 L  RAMPDN_G10_T12
 L  RAMPUP_G11_T12
 L  RAMPDN_G11_T12
 L  RAMPUP_G12_T12
 L  RAMPDN_G12_T12
 L  RAMPUP_G13_T12
 L  RAMPDN_G13_T12
 L  RAMPUP_G14_T12
 L  RAMPDN_G14_T12
 L  RAMPUP_G15_T12
 L  RAMPDN_G15_T12
 L  RAMPUP_G16_T12
 L  RAMPDN_G16_T12
 L  RAMPUP_G17_T12
 L  RAMPDN_G17_T12
 L  RAMPUP_G18_T12
 L  RAMPDN_G18_T12
 L  RAMPUP_G19_T12
 L  RAMPDN_G19_T12
 E  DEMAND_T13
 G  RESERVE_T13
 L  PMAX_G0_T13
 G  PMIN_G0_T13
 L  PMAX_G1_T13
 G  PMIN_G1_T13
 L  PMAX_G2_T13
 G  PMIN_G2_T13
 L  PMAX_G3_T13
 G  PMIN_G3_T13
 L  PMAX_G4_T13
 G  PMIN_G4_T13
 L  PMAX_G5_T13
 G  PMIN_G5_T13
 L  PMAX_G6_T13
 G  PMIN_G6_T13
 L  PMAX_G7_T13
 G  PMIN_G7_T13
 L  PMAX_G8_T13
 G  PMIN_G8_T13
 L  PMAX_G9_T13
 G  PMIN_G9_T13
 L  PMAX_G10_T13
 G  PMIN_G10_T13
 L  PMAX_G11_T13
 G  PMIN_G11_T13
 L  PMAX_G12_T13
 G  PMIN_G12_T13
 L  PMAX_G13_T13
 G  PMIN_G13_T13
 L  PMAX_G14_T13
 G  PMIN_G14_T13
 L  PMAX_G15_T13
 G  PMIN_G15_T13
 L  PMAX_G16_T13
 G  PMIN_G16_T13
 L  PMAX_G17_T13
 G  PMIN_G17_T13
 L  PMAX_G18_T13
 G  PMIN_G18_T13
 L  PMAX_G19_T13
 G  PMIN_G19_T13
 L  RAMPUP_G0_T13
 L  RAMPDN_G0_T13
 L  RAMPUP_G1_T13
 L  RAMPDN_G1_T13
 L  RAMPUP_G2_T13
 L  RAMPDN_G2_T13
 L  RAMPUP_G3_T13
 L  RAMPDN_G3_T13
 L  RAMPUP_G4_T13
 L  RAMPDN_G4_T13
 L  RAMPUP_G5_T13
 L  RAMPDN_G5_T13
 L  RAMPUP_G6_T13
 L  RAMPDN_G6_T13
 L  RAMPUP_G7_T13
 L  RAMPDN_G7_T13
 L  RAMPUP_G8_T13
 L  RAMPDN_G8_T13
 L  RAMPUP_G9_T13
 L  RAMPDN_G9_T13
 L  RAMPUP_G10_T13
 L  RAMPDN_G10_T13
 L  RAMPUP_G11_T13
 L  RAMPDN_G11_T13
 L  RAMPUP_G12_T13
 L  RAMPDN_G12_T13
 L  RAMPUP_G13_T13
 L  RAMPDN_G13_T13
 L  RAMPUP_G14_T13
 L  RAMPDN_G14_T13
 L  RAMPUP_G15_T13
 L  RAMPDN_G15_T13
 L  RAMPUP_G16_T13
 L  RAMPDN_G16_T13
 L  RAMPUP_G17_T13
 L  RAMPDN_G17_T13
 L  RAMPUP_G18_T13
 L  RAMPDN_G18_T13
 L  RAMPUP_G19_T13
 L  RAMPDN_G19_T13
 E  DEMAND_T14
 G  RESERVE_T14
 L  PMAX_G0_T14
 G  PMIN_G0_T14
 L  PMAX_G1_T14
 G  PMIN_G1_T14
 L  PMAX_G2_T14
 G  PMIN_G2_T14
 L  PMAX_G3_T14
 G  PMIN_G3_T14
 L  PMAX_G4_T14
 G  PMIN_G4_T14
 L  PMAX_G5_T14
 G  PMIN_G5_T14
 L  PMAX_G6_T14
 G  PMIN_G6_T14
 L  PMAX_G7_T14
 G  PMIN_G7_T14
 L  PMAX_G8_T14
 G  PMIN_G8_T14
 L  PMAX_G9_T14
 G  PMIN_G9_T14
 L  PMAX_G10_T14
 G  PMIN_G10_T14
 L  PMAX_G11_T14
 G  PMIN_G11_T14
 L  PMAX_G12_T14
 G  PMIN_G12_T14
 L  PMAX_G13_T14
 G  PMIN_G13_T14
 L  PMAX_G14_T14
 G  PMIN_G14_T14
 L  PMAX_G15_T14
 G  PMIN_G15_T14
 L  PMAX_G16_T14
 G  PMIN_G16_T14
 L  PMAX_G17_T14
 G  PMIN_G17_T14
 L  PMAX_G18_T14
 G  PMIN_G18_T14
 L  PMAX_G19_T14
 G  PMIN_G19_T14
 L  RAMPUP_G0_T14
 L  RAMPDN_G0_T14
 L  RAMPUP_G1_T14
 L  RAMPDN_G1_T14
 L  RAMPUP_G2_T14
 L  RAMPDN_G2_T14
 L  RAMPUP_G3_T14
 L  RAMPDN_G3_T14
 L  RAMPUP_G4_T14
 L  RAMPDN_G4_T14
 L  RAMPUP_G5_T14
 L  RAMPDN_G5_T14
 L  RAMPUP_G6_T14
 L  RAMPDN_G6_T14
 L  RAMPUP_G7_T14
 L  RAMPDN_G7_T14
 L  RAMPUP_G8_T14
 L  RAMPDN_G8_T14
 L  RAMPUP_G9_T14
 L  RAMPDN_G9_T14
 L  RAMPUP_G10_T14
 L  RAMPDN_G10_T14
 L  RAMPUP_G11_T14
 L  RAMPDN_G11_T14
 L  RAMPUP_G12_T14
 L  RAMPDN_G12_T14
 L  RAMPUP_G13_T14
 L  RAMPDN_G13_T14
 L  RAMPUP_G14_T14
 L  RAMPDN_G14_T14
 L  RAMPUP_G15_T14
 L  RAMPDN_G15_T14
 L  RAMPUP_G16_T14
 L  RAMPDN_G16_T14
 L  RAMPUP_G17_T14
 L  RAMPDN_G17_T14
 L  RAMPUP_G18_T14
 L  RAMPDN_G18_T14
 L  RAMPUP_G19_T14
 L  RAMPDN_G19_T14
 E  DEMAND_T15
 G  RESERVE_T15
 L  PMAX_G0_T15
 G  PMIN_G0_T15
 L  PMAX_G1_T15
 G  PMIN_G1_T15
 L  PMAX_G2_T15
 G  PMIN_G2_T15
 L  PMAX_G3_T15
 G  PMIN_G3_T15
 L  PMAX_G4_T15
 G  PMIN_G4_T15
 L  PMAX_G5_T15
 G  PMIN_G5_T15
 L  PMAX_G6_T15
 G  PMIN_G6_T15
 L  PMAX_G7_T15
 G  PMIN_G7_T15
 L  PMAX_G8_T15
 G  PMIN_G8_T15
 L  PMAX_G9_T15
 G  PMIN_G9_T15
 L  PMAX_G10_T15
 G  PMIN_G10_T15
 L  PMAX_G11_T15
 G  PMIN_G11_T15
 L  PMAX_G12_T15
 G  PMIN_G12_T15
 L  PMAX_G13_T15
 G  PMIN_G13_T15
 L  PMAX_G14_T15
 G  PMIN_G14_T15
 L  PMAX_G15_T15
 G  PMIN_G15_T15
 L  PMAX_G16_T15
 G  PMIN_G16_T15
 L  PMAX_G17_T15
 G  PMIN_G17_T15
 L  PMAX_G18_T15
 G  PMIN_G18_T15
 L  PMAX_G19_T15
 G  PMIN_G19_T15
 L  RAMPUP_G0_T15
 L  RAMPDN_G0_T15
 L  RAMPUP_G1_T15
 L  RAMPDN_G1_T15
 L  RAMPUP_G2_T15
 L  RAMPDN_G2_T15
 L  RAMPUP_G3_T15
 L  RAMPDN_G3_T15
 L  RAMPUP_G4_T15
 L  RAMPDN_G4_T15
 L  RAMPUP_G5_T15
 L  RAMPDN_G5_T15
 L  RAMPUP_G6_T15
 L  RAMPDN_G6_T15
 L  RAMPUP_G7_T15
 L  RAMPDN_G7_T15
 L  RAMPUP_G8_T15
 L  RAMPDN_G8_T15
 L  RAMPUP_G9_T15
 L  RAMPDN_G9_T15
 L  RAMPUP_G10_T15
 L  RAMPDN_G10_T15
 L  RAMPUP_G11_T15
 L  RAMPDN_G11_T15
 L  RAMPUP_G12_T15
 L  RAMPDN_G12_T15
 L  RAMPUP_G13_T15
 L  RAMPDN_G13_T15
 L  RAMPUP_G14_T15
 L  RAMPDN_G14_T15
 L  RAMPUP_G15_T15
 L  RAMPDN_G15_T15
 L  RAMPUP_G16_T15
 L  RAMPDN_G16_T15
 L  RAMPUP_G17_T15
 L  RAMPDN_G17_T15
 L  RAMPUP_G18_T15
 L  RAMPDN_G18_T15
 L  RAMPUP_G19_T15
 L  RAMPDN_G19_T15
 E  DEMAND_T16
 G  RESERVE_T16
 L  PMAX_G0_T16
 G  PMIN_G0_T16
 L  PMAX_G1_T16
 G  PMIN_G1_T16
 L  PMAX_G2_T16
 G  PMIN_G2_T16
 L  PMAX_G3_T16
 G  PMIN_G3_T16
 L  PMAX_G4_T16
 G  PMIN_G4_T16
 L  PMAX_G5_T16
 G  PMIN_G5_T16
 L  PMAX_G6_T16
 G  PMIN_G6_T16
 L  PMAX_G7_T16
 G  PMIN_G7_T16
 L  PMAX_G8_T16
 G  PMIN_G8_T16
 L  PMAX_G9_T16
 G  PMIN_G9_T16
 L  PMAX_G10_T16
 G  PMIN_G10_T16
 L  PMAX_G11_T16
 G  PMIN_G11_T16
 L  PMAX_G12_T16
 G  PMIN_G12_T16
 L  PMAX_G13_T16
 G  PMIN_G13_T16
 L  PMAX_G14_T16
 G  PMIN_G14_T16
 L  PMAX_G15_T16
 G  PMIN_G15_T16
 L  PMAX_G16_T16
 G  PMIN_G16_T16
 L  PMAX_G17_T16
 G  PMIN_G17_T16
 L  PMAX_G18_T16
 G  PMIN_G18_T16
 L  PMAX_G19_T16
 G  PMIN_G19_T16
 L  RAMPUP_G0_T16
 L  RAMPDN_G0_T16
 L  RAMPUP_G1_T16
 L  RAMPDN_G1_T16
 L  RAMPUP_G2_T16
 L  RAMPDN_G2_T16
 L  RAMPUP_G3_T16
 L  RAMPDN_G3_T16
 L  RAMPUP_G4_T16
 L  RAMPDN_G4_T16
 L  RAMPUP_G5_T16
 L  RAMPDN_G5_T16
 L  RAMPUP_G6_T16
 L  RAMPDN_G6_T16
 L  RAMPUP_G7_T16
 L  RAMPDN_G7_T16
 L  RAMPUP_G8_T16
 L  RAMPDN_G8_T16
 L  RAMPUP_G9_T16
 L  RAMPDN_G9_T16
 L  RAMPUP_G10_T16
 L  RAMPDN_G10_T16
 L  RAMPUP_G11_T16
 L  RAMPDN_G11_T16
 L  RAMPUP_G12_T16
 L  RAMPDN_G12_T16
 L  RAMPUP_G13_T16
 L  RAMPDN_G13_T16
 L  RAMPUP_G14_T16
 L  RAMPDN_G14_T16
 L  RAMPUP_G15_T16
 L  RAMPDN_G15_T16
 L  RAMPUP_G16_T16
 L  RAMPDN_G16_T16
 L  RAMPUP_G17_T16
 L  RAMPDN_G17_T16
 L  RAMPUP_G18_T16
 L  RAMPDN_G18_T16
 L  RAMPUP_G19_T16
 L  RAMPDN_G19_T16
 E  DEMAND_T17
 G  RESERVE_T17
 L  PMAX_G0_T17
 G  PMIN_G0_T17
 L  PMAX_G1_T17
 G  PMIN_G1_T17
 L  PMAX_G2_T17
 G  PMIN_G2_T17
 L  PMAX_G3_T17
 G  PMIN_G3_T17
 L  PMAX_G4_T17
 G  PMIN_G4_T17
 L  PMAX_G5_T17
 G  PMIN_G5_T17
 L  PMAX_G6_T17
 G  PMIN_G6_T17
 L  PMAX_G7_T17
 G  PMIN_G7_T17
 L  PMAX_G8_T17
 G  PMIN_G8_T17
 L  PMAX_G9_T17
 G  PMIN_G9_T17
 L  PMAX_G10_T17
 G  PMIN_G10_T17
 L  PMAX_G11_T17
 G  PMIN_G11_T17
 L  PMAX_G12_T17
 G  PMIN_G12_T17
 L  PMAX_G13_T17
 G  PMIN_G13_T17
 L  PMAX_G14_T17
 G  PMIN_G14_T17
 L  PMAX_G15_T17
 G  PMIN_G15_T17
 L  PMAX_G16_T17
 G  PMIN_G16_T17
 L  PMAX_G17_T17
 G  PMIN_G17_T17
 L  PMAX_G18_T17
 G  PMIN_G18_T17
 L  PMAX_G19_T17
 G  PMIN_G19_T17
 L  RAMPUP_G0_T17
 L  RAMPDN_G0_T17
 L  RAMPUP_G1_T17
 L  RAMPDN_G1_T17
 L  RAMPUP_G2_T17
 L  RAMPDN_G2_T17
 L  RAMPUP_G3_T17
 L  RAMPDN_G3_T17
 L  RAMPUP_G4_T17
 L  RAMPDN_G4_T17
 L  RAMPUP_G5_T17
 L  RAMPDN_G5_T17
 L  RAMPUP_G6_T17
 L  RAMPDN_G6_T17
 L  RAMPUP_G7_T17
 L  RAMPDN_G7_T17
 L  RAMPUP_G8_T17
 L  RAMPDN_G8_T17
 L  RAMPUP_G9_T17
 L  RAMPDN_G9_T17
 L  RAMPUP_G10_T17
 L  RAMPDN_G10_T17
 L  RAMPUP_G11_T17
 L  RAMPDN_G11_T17
 L  RAMPUP_G12_T17
 L  RAMPDN_G12_T17
 L  RAMPUP_G13_T17
 L  RAMPDN_G13_T17
 L  RAMPUP_G14_T17
 L  RAMPDN_G14_T17
 L  RAMPUP_G15_T17
 L  RAMPDN_G15_T17
 L  RAMPUP_G16_T17
 L  RAMPDN_G16_T17
 L  RAMPUP_G17_T17
 L  RAMPDN_G17_T17
 L  RAMPUP_G18_T17
 L  RAMPDN_G18_T17
 L  RAMPUP_G19_T17
 L  RAMPDN_G19_T17
 E  DEMAND_T18
 G  RESERVE_T18
 L  PMAX_G0_T18
 G  PMIN_G0_T18
 L  PMAX_G1_T18
 G  PMIN_G1_T18
 L  PMAX_G2_T18
 G  PMIN_G2_T18
 L  PMAX_G3_T18
 G  PMIN_G3_T18
 L  PMAX_G4_T18
 G  PMIN_G4_T18
 L  PMAX_G5_T18
 G  PMIN_G5_T18
 L  PMAX_G6_T18
 G  PMIN_G6_T18
 L  PMAX_G7_T18
 G  PMIN_G7_T18
 L  PMAX_G8_T18
 G  PMIN_G8_T18
 L  PMAX_G9_T18
 G  PMIN_G9_T18
 L  PMAX_G10_T18
 G  PMIN_G10_T18
 L  PMAX_G11_T18
 G  PMIN_G11_T18
 L  PMAX_G12_T18
 G  PMIN_G12_T18
 L  PMAX_G13_T18
 G  PMIN_G13_T18
 L  PMAX_G14_T18
 G  PMIN_G14_T18
 L  PMAX_G15_T18
 G  PMIN_G15_T18
 L  PMAX_G16_T18
 G  PMIN_G16_T18
 L  PMAX_G17_T18
 G  PMIN_G17_T18
 L  PMAX_G18_T18
 G  PMIN_G18_T18
 L  PMAX_G19_T18
 G  PMIN_G19_T18
 L  RAMPUP_G0_T18
 L  RAMPDN_G0_T18
 L  RAMPUP_G1_T18
 L  RAMPDN_G1_T18
 L  RAMPUP_G2_T18
 L  RAMPDN_G2_T18
 L  RAMPUP_G3_T18
 L  RAMPDN_G3_T18
 L  RAMPUP_G4_T18
 L  RAMPDN_G4_T18
 L  RAMPUP_G5_T18
 L  RAMPDN_G5_T18
 L  RAMPUP_G6_T18
 L  RAMPDN_G6_T18
 L  RAMPUP_G7_T18
 L  RAMPDN_G7_T18
 L  RAMPUP_G8_T18
 L  RAMPDN_G8_T18
 L  RAMPUP_G9_T18
 L  RAMPDN_G9_T18
 L  RAMPUP_G10_T18
 L  RAMPDN_G10_T18
 L  RAMPUP_G11_T18
 L  RAMPDN_G11_T18
 L  RAMPUP_G12_T18
 L  RAMPDN_G12_T18
 L  RAMPUP_G13_T18
 L  RAMPDN_G13_T18
 L  RAMPUP_G14_T18
 L  RAMPDN_G14_T18
 L  RAMPUP_G15_T18
 L  RAMPDN_G15_T18
 L  RAMPUP_G16_T18
 L  RAMPDN_G16_T18
 L  RAMPUP_G17_T18
 L  RAMPDN_G17_T18
 L  RAMPUP_G18_T18
 L  RAMPDN_G18_T18
 L  RAMPUP_G19_T18
 L  RAMPDN_G19_T18
 E  DEMAND_T19
 G  RESERVE_T19
 L  PMAX_G0_T19
 G  PMIN_G0_T19
 L  PMAX_G1_T19
 G  PMIN_G1_T19
 L  PMAX_G2_T19
 G  PMIN_G2_T19
 L  PMAX_G3_T19
 G  PMIN_G3_T19
 L  PMAX_G4_T19
 G  PMIN_G4_T19
 L  PMAX_G5_T19
 G  PMIN_G5_T19
 L  PMAX_G6_T19
 G  PMIN_G6_T19
 L  PMAX_G7_T19
 G  PMIN_G7_T19
 L  PMAX_G8_T19
 G  PMIN_G8_T19
 L  PMAX_G9_T19
 G  PMIN_G9_T19
 L  PMAX_G10_T19
 G  PMIN_G10_T19
 L  PMAX_G11_T19
 G  PMIN_G11_T19
 L  PMAX_G12_T19
 G  PMIN_G12_T19
 L  PMAX_G13_T19
 G  PMIN_G13_T19
 L  PMAX_G14_T19
 G  PMIN_G14_T19
 L  PMAX_G15_T19
 G  PMIN_G15_T19
 L  PMAX_G16_T19
 G  PMIN_G16_T19
 L  PMAX_G17_T19
 G  PMIN_G17_T19
 L  PMAX_G18_T19
 G  PMIN_G18_T19
 L  PMAX_G19_T19
 G  PMIN_G19_T19
 L  RAMPUP_G0_T19
 L  RAMPDN_G0_T19
 L  RAMPUP_G1_T19
 L  RAMPDN_G1_T19
 L  RAMPUP_G2_T19
 L  RAMPDN_G2_T19
 L  RAMPUP_G3_T19
 L  RAMPDN_G3_T19
 L  RAMPUP_G4_T19
 L  RAMPDN_G4_T19
 L  RAMPUP_G5_T19
 L  RAMPDN_G5_T19
 L  RAMPUP_G6_T19
 L  RAMPDN_G6_T19
 L  RAMPUP_G7_T19
 L  RAMPDN_G7_T19
 L  RAMPUP_G8_T19
 L  RAMPDN_G8_T19
 L  RAMPUP_G9_T19
 L  RAMPDN_G9_T19
 L  RAMPUP_G10_T19
 L  RAMPDN_G10_T19
 L  RAMPUP_G11_T19
 L  RAMPDN_G11_T19
 L  RAMPUP_G12_T19
 L  RAMPDN_G12_T19
 L  RAMPUP_G13_T19
 L  RAMPDN_G13_T19
 L  RAMPUP_G14_T19
 L  RAMPDN_G14_T19
 L  RAMPUP_G15_T19
 L  RAMPDN_G15_T19
 L  RAMPUP_G16_T19
 L  RAMPDN_G16_T19
 L  RAMPUP_G17_T19
 L  RAMPDN_G17_T19
 L  RAMPUP_G18_T19
 L  RAMPDN_G18_T19
 L  RAMPUP_G19_T19
 L  RAMPDN_G19_T19
 E  DEMAND_T20
 G  RESERVE_T20
 L  PMAX_G0_T20
 G  PMIN_G0_T20
 L  PMAX_G1_T20
 G  PMIN_G1_T20
 L  PMAX_G2_T20
 G  PMIN_G2_T20
 L  PMAX_G3_T20
 G  PMIN_G3_T20
 L  PMAX_G4_T20
 G  PMIN_G4_T20
 L  PMAX_G5_T20
 G  PMIN_G5_T20
 L  PMAX_G6_T20
 G  PMIN_G6_T20
 L  PMAX_G7_T20
 G  PMIN_G7_T20
 L  PMAX_G8_T20
 G  PMIN_G8_T20
 L  PMAX_G9_T20
 G  PMIN_G9_T20
 L  PMAX_G10_T20
 G  PMIN_G10_T20
 L  PMAX_G11_T20
 G  PMIN_G11_T20
 L  PMAX_G12_T20
 G  PMIN_G12_T20
 L  PMAX_G13_T20
 G  PMIN_G13_T20
 L  PMAX_G14_T20
 G  PMIN_G14_T20
 L  PMAX_G15_T20
 G  PMIN_G15_T20
 L  PMAX_G16_T20
 G  PMIN_G16_T20
 L  PMAX_G17_T20
 G  PMIN_G17_T20
 L  PMAX_G18_T20
 G  PMIN_G18_T20
 L  PMAX_G19_T20
 G  PMIN_G19_T20
 L  RAMPUP_G0_T20
 L  RAMPDN_G0_T20
 L  RAMPUP_G1_T20
 L  RAMPDN_G1_T20
 L  RAMPUP_G2_T20
 L  RAMPDN_G2_T20
 L  RAMPUP_G3_T20
 L  RAMPDN_G3_T20
 L  RAMPUP_G4_T20
 L  RAMPDN_G4_T20
 L  RAMPUP_G5_T20
 L  RAMPDN_G5_T20
 L  RAMPUP_G6_T20
 L  RAMPDN_G6_T20
 L  RAMPUP_G7_T20
 L  RAMPDN_G7_T20
 L  RAMPUP_G8_T20
 L  RAMPDN_G8_T20
 L  RAMPUP_G9_T20
 L  RAMPDN_G9_T20
 L  RAMPUP_G10_T20
 L  RAMPDN_G10_T20
 L  RAMPUP_G11_T20
 L  RAMPDN_G11_T20
 L  RAMPUP_G12_T20
 L  RAMPDN_G12_T20
 L  RAMPUP_G13_T20
 L  RAMPDN_G13_T20
 L  RAMPUP_G14_T20
 L  RAMPDN_G14_T20
 L  RAMPUP_G15_T20
 L  RAMPDN_G15_T20
 L  RAMPUP_G16_T20
 L  RAMPDN_G16_T20
 L  RAMPUP_G17_T20
 L  RAMPDN_G17_T20
 L  RAMPUP_G18_T20
 L  RAMPDN_G18_T20
 L  RAMPUP_G19_T20
 L  RAMPDN_G19_T20
 E  DEMAND_T21
 G  RESERVE_T21
 L  PMAX_G0_T21
 G  PMIN_G0_T21
 L  PMAX_G1_T21
 G  PMIN_G1_T21
 L  PMAX_G2_T21
 G  PMIN_G2_T21
 L  PMAX_G3_T21
 G  PMIN_G3_T21
 L  PMAX_G4_T21
 G  PMIN_G4_T21
 L  PMAX_G5_T21
 G  PMIN_G5_T21
 L  PMAX_G6_T21
 G  PMIN_G6_T21
 L  PMAX_G7_T21
 G  PMIN_G7_T21
 L  PMAX_G8_T21
 G  PMIN_G8_T21
 L  PMAX_G9_T21
 G  PMIN_G9_T21
 L  PMAX_G10_T21
 G  PMIN_G10_T21
 L  PMAX_G11_T21
 G  PMIN_G11_T21
 L  PMAX_G12_T21
 G  PMIN_G12_T21
 L  PMAX_G13_T21
 G  PMIN_G13_T21
 L  PMAX_G14_T21
 G  PMIN_G14_T21
 L  PMAX_G15_T21
 G  PMIN_G15_T21
 L  PMAX_G16_T21
 G  PMIN_G16_T21
 L  PMAX_G17_T21
 G  PMIN_G17_T21
 L  PMAX_G18_T21
 G  PMIN_G18_T21
 L  PMAX_G19_T21
 G  PMIN_G19_T21
 L  RAMPUP_G0_T21
 L  RAMPDN_G0_T21
 L  RAMPUP_G1_T21
 L  RAMPDN_G1_T21
 L  RAMPUP_G2_T21
 L  RAMPDN_G2_T21
 L  RAMPUP_G3_T21
 L  RAMPDN_G3_T21
 L  RAMPUP_G4_T21
 L  RAMPDN_G4_T21
 L  RAMPUP_G5_T21
 L  RAMPDN_G5_T21
 L  RAMPUP_G6_T21
 L  RAMPDN_G6_T21
 L  RAMPUP_G7_T21
 L  RAMPDN_G7_T21
 L  RAMPUP_G8_T21
 L  RAMPDN_G8_T21
 L  RAMPUP_G9_T21
 L  RAMPDN_G9_T21
 L  RAMPUP_G10_T21
 L  RAMPDN_G10_T21
 L  RAMPUP_G11_T21
 L  RAMPDN_G11_T21
 L  RAMPUP_G12_T21
 L  RAMPDN_G12_T21
 L  RAMPUP_G13_T21
 L  RAMPDN_G13_T21
 L  RAMPUP_G14_T21
 L  RAMPDN_G14_T21
 L  RAMPUP_G15_T21
 L  RAMPDN_G15_T21
 L  RAMPUP_G16_T21
 L  RAMPDN_G16_T21
 L  RAMPUP_G17_T21
 L  RAMPDN_G17_T21
 L  RAMPUP_G18_T21
 L  RAMPDN_G18_T21
 L  RAMPUP_G19_T21
 L  RAMPDN_G19_T21
 E  DEMAND_T22
 G  RESERVE_T22
 L  PMAX_G0_T22
 G  PMIN_G0_T22
 L  PMAX_G1_T22
 G  PMIN_G1_T22
 L  PMAX_G2_T22
 G  PMIN_G2_T22
 L  PMAX_G3_T22
 G  PMIN_G3_T22
 L  PMAX_G4_T22
 G  PMIN_G4_T22
 L  PMAX_G5_T22
 G  PMIN_G5_T22
 L  PMAX_G6_T22
 G  PMIN_G6_T22
 L  PMAX_G7_T22
 G  PMIN_G7_T22
 L  PMAX_G8_T22
 G  PMIN_G8_T22
 L  PMAX_G9_T22
 G  PMIN_G9_T22
 L  PMAX_G10_T22
 G  PMIN_G10_T22
 L  PMAX_G11_T22
 G  PMIN_G11_T22
 L  PMAX_G12_T22
 G  PMIN_G12_T22
 L  PMAX_G13_T22
 G  PMIN_G13_T22
 L  PMAX_G14_T22
 G  PMIN_G14_T22
 L  PMAX_G15_T22
 G  PMIN_G15_T22
 L  PMAX_G16_T22
 G  PMIN_G16_T22
 L  PMAX_G17_T22
 G  PMIN_G17_T22
 L  PMAX_G18_T22
 G  PMIN_G18_T22
 L  PMAX_G19_T22
 G  PMIN_G19_T22
 L  RAMPUP_G0_T22
 L  RAMPDN_G0_T22
 L  RAMPUP_G1_T22
 L  RAMPDN_G1_T22
 L  RAMPUP_G2_T22
 L  RAMPDN_G2_T22
 L  RAMPUP_G3_T22
 L  RAMPDN_G3_T22
 L  RAMPUP_G4_T22
 L  RAMPDN_G4_T22
 L  RAMPUP_G5_T22
 L  RAMPDN_G5_T22
 L  RAMPUP_G6_T22
 L  RAMPDN_G6_T22
 L  RAMPUP_G7_T22
 L  RAMPDN_G7_T22
 L  RAMPUP_G8_T22
 L  RAMPDN_G8_T22
 L  RAMPUP_G9_T22
 L  RAMPDN_G9_T22
 L  RAMPUP_G10_T22
 L  RAMPDN_G10_T22
 L  RAMPUP_G11_T22
 L  RAMPDN_G11_T22
 L  RAMPUP_G12_T22
 L  RAMPDN_G12_T22
 L  RAMPUP_G13_T22
 L  RAMPDN_G13_T22
 L  RAMPUP_G14_T22
 L  RAMPDN_G14_T22
 L  RAMPUP_G15_T22
 L  RAMPDN_G15_T22
 L  RAMPUP_G16_T22
 L  RAMPDN_G16_T22
 L  RAMPUP_G17_T22
 L  RAMPDN_G17_T22
 L  RAMPUP_G18_T22
 L  RAMPDN_G18_T22
 L  RAMPUP_G19_T22
 L  RAMPDN_G19_T22
 E  DEMAND_T23
 G  RESERVE_T23
 L  PMAX_G0_T23
 G  PMIN_G0_T23
 L  PMAX_G1_T23
 G  PMIN_G1_T23
 L  PMAX_G2_T23
 G  PMIN_G2_T23
 L  PMAX_G3_T23
 G  PMIN_G3_T23
 L  PMAX_G4_T23
 G  PMIN_G4_T23
 L  PMAX_G5_T23
 G  PMIN_G5_T23
 L  PMAX_G6_T23
 G  PMIN_G6_T23
 L  PMAX_G7_T23
 G  PMIN_G7_T23
 L  PMAX_G8_T23
 G  PMIN_G8_T23
 L  PMAX_G9_T23
 G  PMIN_G9_T23
 L  PMAX_G10_T23
 G  PMIN_G10_T23
 L  PMAX_G11_T23
 G  PMIN_G11_T23
 L  PMAX_G12_T23
 G  PMIN_G12_T23
 L  PMAX_G13_T23
 G  PMIN_G13_T23
 L  PMAX_G14_T23
 G  PMIN_G14_T23
 L  PMAX_G15_T23
 G  PMIN_G15_T23
 L  PMAX_G16_T23
 G  PMIN_G16_T23
 L  PMAX_G17_T23
 G  PMIN_G17_T23
 L  PMAX_G18_T23
 G  PMIN_G18_T23
 L  PMAX_G19_T23
 G  PMIN_G19_T23
 L  RAMPUP_G0_T23
 L  RAMPDN_G0_T23
 L  RAMPUP_G1_T23
 L  RAMPDN_G1_T23
 L  RAMPUP_G2_T23
 L  RAMPDN_G2_T23
 L  RAMPUP_G3_T23
 L  RAMPDN_G3_T23
 L  RAMPUP_G4_T23
 L  RAMPDN_G4_T23
 L  RAMPUP_G5_T23
 L  RAMPDN_G5_T23
 L  RAMPUP_G6_T23
 L  RAMPDN_G6_T23
 L  RAMPUP_G7_T23
 L  RAMPDN_G7_T23
 L  RAMPUP_G8_T23
 L  RAMPDN_G8_T23
 L  RAMPUP_G9_T23
 L  RAMPDN_G9_T23
 L  RAMPUP_G10_T23
 L  RAMPDN_G10_T23
 L  RAMPUP_G11_T23
 L  RAMPDN_G11_T23
 L  RAMPUP_G12_T23
 L  RAMPDN_G12_T23
 L  RAMPUP_G13_T23
 L  RAMPDN_G13_T23
 L  RAMPUP_G14_T23
 L  RAMPDN_G14_T23
 L  RAMPUP_G15_T23
 L  RAMPDN_G15_T23
 L  RAMPUP_G16_T23
 L  RAMPDN_G16_T23
 L  RAMPUP_G17_T23
 L  RAMPDN_G17_T23
 L  RAMPUP_G18_T23
 L  RAMPDN_G18_T23
 L  RAMPUP_G19_T23
 L  RAMPDN_G19_T23
 E  DEMAND_T24
 G  RESERVE_T24
 L  PMAX_G0_T24
 G  PMIN_G0_T24
 L  PMAX_G1_T24
 G  PMIN_G1_T24
 L  PMAX_G2_T24
 G  PMIN_G2_T24
 L  PMAX_G3_T24
 G  PMIN_G3_T24
 L  PMAX_G4_T24
 G  PMIN_G4_T24
 L  PMAX_G5_T24
 G  PMIN_G5_T24
 L  PMAX_G6_T24
 G  PMIN_G6_T24
 L  PMAX_G7_T24
 G  PMIN_G7_T24
 L  PMAX_G8_T24
 G  PMIN_G8_T24
 L  PMAX_G9_T24
 G  PMIN_G9_T24
 L  PMAX_G10_T24
 G  PMIN_G10_T24
 L  PMAX_G11_T24
 G  PMIN_G11_T24
 L  PMAX_G12_T24
 G  PMIN_G12_T24
 L  PMAX_G13_T24
 G  PMIN_G13_T24
 L  PMAX_G14_T24
 G  PMIN_G14_T24
 L  PMAX_G15_T24
 G  PMIN_G15_T24
 L  PMAX_G16_T24
 G  PMIN_G16_T24
 L  PMAX_G17_T24
 G  PMIN_G17_T24
 L  PMAX_G18_T24
 G  PMIN_G18_T24
 L  PMAX_G19_T24
 G  PMIN_G19_T24
 L  RAMPUP_G0_T24
 L  RAMPDN_G0_T24
 L  RAMPUP_G1_T24
 L  RAMPDN_G1_T24
 L  RAMPUP_G2_T24
 L  RAMPDN_G2_T24
 L  RAMPUP_G3_T24
 L  RAMPDN_G3_T24
 L  RAMPUP_G4_T24
 L  RAMPDN_G4_T24
 L  RAMPUP_G5_T24
 L  RAMPDN_G5_T24
 L  RAMPUP_G6_T24
 L  RAMPDN_G6_T24
 L  RAMPUP_G7_T24
 L  RAMPDN_G7_T24
 L  RAMPUP_G8_T24
 L  RAMPDN_G8_T24
 L  RAMPUP_G9_T24
 L  RAMPDN_G9_T24
 L  RAMPUP_G10_T24
 L  RAMPDN_G10_T24
 L  RAMPUP_G11_T24
 L  RAMPDN_G11_T24
 L  RAMPUP_G12_T24
 L  RAMPDN_G12_T24
 L  RAMPUP_G13_T24
 L  RAMPDN_G13_T24
 L  RAMPUP_G14_T24
 L  RAMPDN_G14_T24
 L  RAMPUP_G15_T24
 L  RAMPDN_G15_T24
 L  RAMPUP_G16_T24
 L  RAMPDN_G16_T24
 L  RAMPUP_G17_T24
 L  RAMPDN_G17_T24
 L  RAMPUP_G18_T24
 L  RAMPDN_G18_T24
 L  RAMPUP_G19_T24
 L  RAMPDN_G19_T24
 E  DEMAND_T25
 G  RESERVE_T25
 L  PMAX_G0_T25
 G  PMIN_G0_T25
 L  PMAX_G1_T25
 G  PMIN_G1_T25
 L  PMAX_G2_T25
 G  PMIN_G2_T25
 L  PMAX_G3_T25
 G  PMIN_G3_T25
 L  PMAX_G4_T25
 G  PMIN_G4_T25
 L  PMAX_G5_T25
 G  PMIN_G5_T25
 L  PMAX_G6_T25
 G  PMIN_G6_T25
 L  PMAX_G7_T25
 G  PMIN_G7_T25
 L  PMAX_G8_T25
 G  PMIN_G8_T25
 L  PMAX_G9_T25
 G  PMIN_G9_T25
 L  PMAX_G10_T25
 G  PMIN_G10_T25
 L  PMAX_G11_T25
 G  PMIN_G11_T25
 L  PMAX_G12_T25
 G  PMIN_G12_T25
 L  PMAX_G13_T25
 G  PMIN_G13_T25
 L  PMAX_G14_T25
 G  PMIN_G14_T25
 L  PMAX_G15_T25
 G  PMIN_G15_T25
 L  PMAX_G16_T25
 G  PMIN_G16_T25
 L  PMAX_G17_T25
 G  PMIN_G17_T25
 L  PMAX_G18_T25
 G  PMIN_G18_T25
 L  PMAX_G19_T25
 G  PMIN_G19_T25
 L  RAMPUP_G0_T25
 L  RAMPDN_G0_T25
 L  RAMPUP_G1_T25
 L  RAMPDN_G1_T25
 L  RAMPUP_G2_T25
 L  RAMPDN_G2_T25
 L  RAMPUP_G3_T25
 L  RAMPDN_G3_T25
 L  RAMPUP_G4_T25
 L  RAMPDN_G4_T25
 L  RAMPUP_G5_T25
 L  RAMPDN_G5_T25
 L  RAMPUP_G6_T25
 L  RAMPDN_G6_T25
 L  RAMPUP_G7_T25
 L  RAMPDN_G7_T25
 L  RAMPUP_G8_T25
 L  RAMPDN_G8_T25
 L  RAMPUP_G9_T25
 L  RAMPDN_G9_T25
 L  RAMPUP_G10_T25
 L  RAMPDN_G10_T25
 L  RAMPUP_G11_T25
 L  RAMPDN_G11_T25
 L  RAMPUP_G12_T25
 L  RAMPDN_G12_T25
 L  RAMPUP_G13_T25
 L  RAMPDN_G13_T25
 L  RAMPUP_G14_T25
 L  RAMPDN_G14_T25
 L  RAMPUP_G15_T25
 L  RAMPDN_G15_T25
 L  RAMPUP_G16_T25
 L  RAMPDN_G16_T25
 L  RAMPUP_G17_T25
 L  RAMPDN_G17_T25
 L  RAMPUP_G18_T25
 L  RAMPDN_G18_T25
 L  RAMPUP_G19_T25
 L  RAMPDN_G19_T25
 E  DEMAND_T26
 G  RESERVE_T26
 L  PMAX_G0_T26
 G  PMIN_G0_T26
 L  PMAX_G1_T26
 G  PMIN_G1_T26
 L  PMAX_G2_T26
 G  PMIN_G2_T26
 L  PMAX_G3_T26
 G  PMIN_G3_T26
 L  PMAX_G4_T26
 G  PMIN_G4_T26
 L  PMAX_G5_T26
 G  PMIN_G5_T26
 L  PMAX_G6_T26
 G  PMIN_G6_T26
 L  PMAX_G7_T26
 G  PMIN_G7_T26
 L  PMAX_G8_T26
 G  PMIN_G8_T26
 L  PMAX_G9_T26
 G  PMIN_G9_T26
 L  PMAX_G10_T26
 G  PMIN_G10_T26
 L  PMAX_G11_T26
 G  PMIN_G11_T26
 L  PMAX_G12_T26
 G  PMIN_G12_T26
 L  PMAX_G13_T26
 G  PMIN_G13_T26
 L  PMAX_G14_T26
 G  PMIN_G14_T26
 L  PMAX_G15_T26
 G  PMIN_G15_T26
 L  PMAX_G16_T26
 G  PMIN_G16_T26
 L  PMAX_G17_T26
 G  PMIN_G17_T26
 L  PMAX_G18_T26
 G  PMIN_G18_T26
 L  PMAX_G19_T26
 G  PMIN_G19_T26
 L  RAMPUP_G0_T26
 L  RAMPDN_G0_T26
 L  RAMPUP_G1_T26
 L  RAMPDN_G1_T26
 L  RAMPUP_G2_T26
 L  RAMPDN_G2_T26
 L  RAMPUP_G3_T26
 L  RAMPDN_G3_T26
 L  RAMPUP_G4_T26
 L  RAMPDN_G4_T26
 L  RAMPUP_G5_T26
 L  RAMPDN_G5_T26
 L  RAMPUP_G6_T26
 L  RAMPDN_G6_T26
 L  RAMPUP_G7_T26
 L  RAMPDN_G7_T26
 L  RAMPUP_G8_T26
 L  RAMPDN_G8_T26
 L  RAMPUP_G9_T26
 L  RAMPDN_G9_T26
 L  RAMPUP_G10_T26
 L  RAMPDN_G10_T26
 L  RAMPUP_G11_T26
 L  RAMPDN_G11_T26
 L  RAMPUP_G12_T26
 L  RAMPDN_G12_T26
 L  RAMPUP_G13_T26
 L  RAMPDN_G13_T26
 L  RAMPUP_G14_T26
 L  RAMPDN_G14_T26
 L  RAMPUP_G15_T26
 L  RAMPDN_G15_T26
 L  RAMPUP_G16_T26
 L  RAMPDN_G16_T26
 L  RAMPUP_G17_T26
 L  RAMPDN_G17_T26
 L  RAMPUP_G18_T26
 L  RAMPDN_G18_T26
 L  RAMPUP_G19_T26
 L  RAMPDN_G19_T26
 E  DEMAND_T27
 G  RESERVE_T27
 L  PMAX_G0_T27
 G  PMIN_G0_T27
 L  PMAX_G1_T27
 G  PMIN_G1_T27
 L  PMAX_G2_T27
 G  PMIN_G2_T27
 L  PMAX_G3_T27
 G  PMIN_G3_T27
 L  PMAX_G4_T27
 G  PMIN_G4_T27
 L  PMAX_G5_T27
 G  PMIN_G5_T27
 L  PMAX_G6_T27
 G  PMIN_G6_T27
 L  PMAX_G7_T27
 G  PMIN_G7_T27
 L  PMAX_G8_T27
 G  PMIN_G8_T27
 L  PMAX_G9_T27
 G  PMIN_G9_T27
 L  PMAX_G10_T27
 G  PMIN_G10_T27
 L  PMAX_G11_T27
 G  PMIN_G11_T27
 L  PMAX_G12_T27
 G  PMIN_G12_T27
 L  PMAX_G13_T27
 G  PMIN_G13_T27
 L  PMAX_G14_T27
 G  PMIN_G14_T27
 L  PMAX_G15_T27
 G  PMIN_G15_T27
 L  PMAX_G16_T27
 G  PMIN_G16_T27
 L  PMAX_G17_T27
 G  PMIN_G17_T27
 L  PMAX_G18_T27
 G  PMIN_G18_T27
 L  PMAX_G19_T27
 G  PMIN_G19_T27
 L  RAMPUP_G0_T27
 L  RAMPDN_G0_T27
 L  RAMPUP_G1_T27
 L  RAMPDN_G1_T27
 L  RAMPUP_G2_T27
 L  RAMPDN_G2_T27
 L  RAMPUP_G3_T27
 L  RAMPDN_G3_T27
 L  RAMPUP_G4_T27
 L  RAMPDN_G4_T27
 L  RAMPUP_G5_T27
 L  RAMPDN_G5_T27
 L  RAMPUP_G6_T27
 L  RAMPDN_G6_T27
 L  RAMPUP_G7_T27
 L  RAMPDN_G7_T27
 L  RAMPUP_G8_T27
 L  RAMPDN_G8_T27
 L  RAMPUP_G9_T27
 L  RAMPDN_G9_T27
 L  RAMPUP_G10_T27
 L  RAMPDN_G10_T27
 L  RAMPUP_G11_T27
 L  RAMPDN_G11_T27
 L  RAMPUP_G12_T27
 L  RAMPDN_G12_T27
 L  RAMPUP_G13_T27
 L  RAMPDN_G13_T27
 L  RAMPUP_G14_T27
 L  RAMPDN_G14_T27
 L  RAMPUP_G15_T27
 L  RAMPDN_G15_T27
 L  RAMPUP_G16_T27
 L  RAMPDN_G16_T27
 L  RAMPUP_G17_T27
 L  RAMPDN_G17_T27
 L  RAMPUP_G18_T27
 L  RAMPDN_G18_T27
 L  RAMPUP_G19_T27
 L  RAMPDN_G19_T27
 E  DEMAND_T28
 G  RESERVE_T28
 L  PMAX_G0_T28
 G  PMIN_G0_T28
 L  PMAX_G1_T28
 G  PMIN_G1_T28
 L  PMAX_G2_T28
 G  PMIN_G2_T28
 L  PMAX_G3_T28
 G  PMIN_G3_T28
 L  PMAX_G4_T28
 G  PMIN_G4_T28
 L  PMAX_G5_T28
 G  PMIN_G5_T28
 L  PMAX_G6_T28
 G  PMIN_G6_T28
 L  PMAX_G7_T28
 G  PMIN_G7_T28
 L  PMAX_G8_T28
 G  PMIN_G8_T28
 L  PMAX_G9_T28
 G  PMIN_G9_T28
 L  PMAX_G10_T28
 G  PMIN_G10_T28
 L  PMAX_G11_T28
 G  PMIN_G11_T28
 L  PMAX_G12_T28
 G  PMIN_G12_T28
 L  PMAX_G13_T28
 G  PMIN_G13_T28
 L  PMAX_G14_T28
 G  PMIN_G14_T28
 L  PMAX_G15_T28
 G  PMIN_G15_T28
 L  PMAX_G16_T28
 G  PMIN_G16_T28
 L  PMAX_G17_T28
 G  PMIN_G17_T28
 L  PMAX_G18_T28
 G  PMIN_G18_T28
 L  PMAX_G19_T28
 G  PMIN_G19_T28
 L  RAMPUP_G0_T28
 L  RAMPDN_G0_T28
 L  RAMPUP_G1_T28
 L  RAMPDN_G1_T28
 L  RAMPUP_G2_T28
 L  RAMPDN_G2_T28
 L  RAMPUP_G3_T28
 L  RAMPDN_G3_T28
 L  RAMPUP_G4_T28
 L  RAMPDN_G4_T28
 L  RAMPUP_G5_T28
 L  RAMPDN_G5_T28
 L  RAMPUP_G6_T28
 L  RAMPDN_G6_T28
 L  RAMPUP_G7_T28
 L  RAMPDN_G7_T28
 L  RAMPUP_G8_T28
 L  RAMPDN_G8_T28
 L  RAMPUP_G9_T28
 L  RAMPDN_G9_T28
 L  RAMPUP_G10_T28
 L  RAMPDN_G10_T28
 L  RAMPUP_G11_T28
 L  RAMPDN_G11_T28
 L  RAMPUP_G12_T28
 L  RAMPDN_G12_T28
 L  RAMPUP_G13_T28
 L  RAMPDN_G13_T28
 L  RAMPUP_G14_T28
 L  RAMPDN_G14_T28
 L  RAMPUP_G15_T28
 L  RAMPDN_G15_T28
 L  RAMPUP_G16_T28
 L  RAMPDN_G16_T28
 L  RAMPUP_G17_T28
 L  RAMPDN_G17_T28
 L  RAMPUP_G18_T28
 L  RAMPDN_G18_T28
 L  RAMPUP_G19_T28
 L  RAMPDN_G19_T28
 E  DEMAND_T29
 G  RESERVE_T29
 L  PMAX_G0_T29
 G  PMIN_G0_T29
 L  PMAX_G1_T29
 G  PMIN_G1_T29
 L  PMAX_G2_T29
 G  PMIN_G2_T29
 L  PMAX_G3_T29
 G  PMIN_G3_T29
 L  PMAX_G4_T29
 G  PMIN_G4_T29
 L  PMAX_G5_T29
 G  PMIN_G5_T29
 L  PMAX_G6_T29
 G  PMIN_G6_T29
 L  PMAX_G7_T29
 G  PMIN_G7_T29
 L  PMAX_G8_T29
 G  PMIN_G8_T29
 L  PMAX_G9_T29
 G  PMIN_G9_T29
 L  PMAX_G10_T29
 G  PMIN_G10_T29
 L  PMAX_G11_T29
 G  PMIN_G11_T29
 L  PMAX_G12_T29
 G  PMIN_G12_T29
 L  PMAX_G13_T29
 G  PMIN_G13_T29
 L  PMAX_G14_T29
 G  PMIN_G14_T29
 L  PMAX_G15_T29
 G  PMIN_G15_T29
 L  PMAX_G16_T29
 G  PMIN_G16_T29
 L  PMAX_G17_T29
 G  PMIN_G17_T29
 L  PMAX_G18_T29
 G  PMIN_G18_T29
 L  PMAX_G19_T29
 G  PMIN_G19_T29
 L  RAMPUP_G0_T29
 L  RAMPDN_G0_T29
 L  RAMPUP_G1_T29
 L  RAMPDN_G1_T29
 L  RAMPUP_G2_T29
 L  RAMPDN_G2_T29
 L  RAMPUP_G3_T29
 L  RAMPDN_G3_T29
 L  RAMPUP_G4_T29
 L  RAMPDN_G4_T29
 L  RAMPUP_G5_T29
 L  RAMPDN_G5_T29
 L  RAMPUP_G6_T29
 L  RAMPDN_G6_T29
 L  RAMPUP_G7_T29
 L  RAMPDN_G7_T29
 L  RAMPUP_G8_T29
 L  RAMPDN_G8_T29
 L  RAMPUP_G9_T29
 L  RAMPDN_G9_T29
 L  RAMPUP_G10_T29
 L  RAMPDN_G10_T29
 L  RAMPUP_G11_T29
 L  RAMPDN_G11_T29
 L  RAMPUP_G12_T29
 L  RAMPDN_G12_T29
 L  RAMPUP_G13_T29
 L  RAMPDN_G13_T29
 L  RAMPUP_G14_T29
 L  RAMPDN_G14_T29
 L  RAMPUP_G15_T29
 L  RAMPDN_G15_T29
 L  RAMPUP_G16_T29
 L  RAMPDN_G16_T29
 L  RAMPUP_G17_T29
 L  RAMPDN_G17_T29
 L  RAMPUP_G18_T29
 L  RAMPDN_G18_T29
 L  RAMPUP_G19_T29
 L  RAMPDN_G19_T29
 E  DEMAND_T30
 G  RESERVE_T30
 L  PMAX_G0_T30
 G  PMIN_G0_T30
 L  PMAX_G1_T30
 G  PMIN_G1_T30
 L  PMAX_G2_T30
 G  PMIN_G2_T30
 L  PMAX_G3_T30
 G  PMIN_G3_T30
 L  PMAX_G4_T30
 G  PMIN_G4_T30
 L  PMAX_G5_T30
 G  PMIN_G5_T30
 L  PMAX_G6_T30
 G  PMIN_G6_T30
 L  PMAX_G7_T30
 G  PMIN_G7_T30
 L  PMAX_G8_T30
 G  PMIN_G8_T30
 L  PMAX_G9_T30
 G  PMIN_G9_T30
 L  PMAX_G10_T30
 G  PMIN_G10_T30
 L  PMAX_G11_T30
 G  PMIN_G11_T30
 L  PMAX_G12_T30
 G  PMIN_G12_T30
 L  PMAX_G13_T30
 G  PMIN_G13_T30
 L  PMAX_G14_T30
 G  PMIN_G14_T30
 L  PMAX_G15_T30
 G  PMIN_G15_T30
 L  PMAX_G16_T30
 G  PMIN_G16_T30
 L  PMAX_G17_T30
 G  PMIN_G17_T30
 L  PMAX_G18_T30
 G  PMIN_G18_T30
 L  PMAX_G19_T30
 G  PMIN_G19_T30
 L  RAMPUP_G0_T30
 L  RAMPDN_G0_T30
 L  RAMPUP_G1_T30
 L  RAMPDN_G1_T30
 L  RAMPUP_G2_T30
 L  RAMPDN_G2_T30
 L  RAMPUP_G3_T30
 L  RAMPDN_G3_T30
 L  RAMPUP_G4_T30
 L  RAMPDN_G4_T30
 L  RAMPUP_G5_T30
 L  RAMPDN_G5_T30
 L  RAMPUP_G6_T30
 L  RAMPDN_G6_T30
 L  RAMPUP_G7_T30
 L  RAMPDN_G7_T30
 L  RAMPUP_G8_T30
 L  RAMPDN_G8_T30
 L  RAMPUP_G9_T30
 L  RAMPDN_G9_T30
 L  RAMPUP_G10_T30
 L  RAMPDN_G10_T30
 L  RAMPUP_G11_T30
 L  RAMPDN_G11_T30
 L  RAMPUP_G12_T30
 L  RAMPDN_G12_T30
 L  RAMPUP_G13_T30
 L  RAMPDN_G13_T30
 L  RAMPUP_G14_T30
 L  RAMPDN_G14_T30
 L  RAMPUP_G15_T30
 L  RAMPDN_G15_T30
 L  RAMPUP_G16_T30
 L  RAMPDN_G16_T30
 L  RAMPUP_G17_T30
 L  RAMPDN_G17_T30
 L  RAMPUP_G18_T30
 L  RAMPDN_G18_T30
 L  RAMPUP_G19_T30
 L  RAMPDN_G19_T30
 E  DEMAND_T31
 G  RESERVE_T31
 L  PMAX_G0_T31
 G  PMIN_G0_T31
 L  PMAX_G1_T31
 G  PMIN_G1_T31
 L  PMAX_G2_T31
 G  PMIN_G2_T31
 L  PMAX_G3_T31
 G  PMIN_G3_T31
 L  PMAX_G4_T31
 G  PMIN_G4_T31
 L  PMAX_G5_T31
 G  PMIN_G5_T31
 L  PMAX_G6_T31
 G  PMIN_G6_T31
 L  PMAX_G7_T31
 G  PMIN_G7_T31
 L  PMAX_G8_T31
 G  PMIN_G8_T31
 L  PMAX_G9_T31
 G  PMIN_G9_T31
 L  PMAX_G10_T31
 G  PMIN_G10_T31
 L  PMAX_G11_T31
 G  PMIN_G11_T31
 L  PMAX_G12_T31
 G  PMIN_G12_T31
 L  PMAX_G13_T31
 G  PMIN_G13_T31
 L  PMAX_G14_T31
 G  PMIN_G14_T31
 L  PMAX_G15_T31
 G  PMIN_G15_T31
 L  PMAX_G16_T31
 G  PMIN_G16_T31
 L  PMAX_G17_T31
 G  PMIN_G17_T31
 L  PMAX_G18_T31
 G  PMIN_G18_T31
 L  PMAX_G19_T31
 G  PMIN_G19_T31
 L  RAMPUP_G0_T31
 L  RAMPDN_G0_T31
 L  RAMPUP_G1_T31
 L  RAMPDN_G1_T31
 L  RAMPUP_G2_T31
 L  RAMPDN_G2_T31
 L  RAMPUP_G3_T31
 L  RAMPDN_G3_T31
 L  RAMPUP_G4_T31
 L  RAMPDN_G4_T31
 L  RAMPUP_G5_T31
 L  RAMPDN_G5_T31
 L  RAMPUP_G6_T31
 L  RAMPDN_G6_T31
 L  RAMPUP_G7_T31
 L  RAMPDN_G7_T31
 L  RAMPUP_G8_T31
 L  RAMPDN_G8_T31
 L  RAMPUP_G9_T31
 L  RAMPDN_G9_T31
 L  RAMPUP_G10_T31
 L  RAMPDN_G10_T31
 L  RAMPUP_G11_T31
 L  RAMPDN_G11_T31
 L  RAMPUP_G12_T31
 L  RAMPDN_G12_T31
 L  RAMPUP_G13_T31
 L  RAMPDN_G13_T31
 L  RAMPUP_G14_T31
 L  RAMPDN_G14_T31
 L  RAMPUP_G15_T31
 L  RAMPDN_G15_T31
 L  RAMPUP_G16_T31
 L  RAMPDN_G16_T31
 L  RAMPUP_G17_T31
 L  RAMPDN_G17_T31
 L  RAMPUP_G18_T31
 L  RAMPDN_G18_T31
 L  RAMPUP_G19_T31
 L  RAMPDN_G19_T31
 E  DEMAND_T32
 G  RESERVE_T32
 L  PMAX_G0_T32
 G  PMIN_G0_T32
 L  PMAX_G1_T32
 G  PMIN_G1_T32
 L  PMAX_G2_T32
 G  PMIN_G2_T32
 L  PMAX_G3_T32
 G  PMIN_G3_T32
 L  PMAX_G4_T32
 G  PMIN_G4_T32
 L  PMAX_G5_T32
 G  PMIN_G5_T32
 L  PMAX_G6_T32
 G  PMIN_G6_T32
 L  PMAX_G7_T32
 G  PMIN_G7_T32
 L  PMAX_G8_T32
 G  PMIN_G8_T32
 L  PMAX_G9_T32
 G  PMIN_G9_T32
 L  PMAX_G10_T32
 G  PMIN_G10_T32
 L  PMAX_G11_T32
 G  PMIN_G11_T32
 L  PMAX_G12_T32
 G  PMIN_G12_T32
 L  PMAX_G13_T32
 G  PMIN_G13_T32
 L  PMAX_G14_T32
 G  PMIN_G14_T32
 L  PMAX_G15_T32
 G  PMIN_G15_T32
 L  PMAX_G16_T32
 G  PMIN_G16_T32
 L  PMAX_G17_T32
 G  PMIN_G17_T32
 L  PMAX_G18_T32
 G  PMIN_G18_T32
 L  PMAX_G19_T32
 G  PMIN_G19_T32
 L  RAMPUP_G0_T32
 L  RAMPDN_G0_T32
 L  RAMPUP_G1_T32
 L  RAMPDN_G1_T32
 L  RAMPUP_G2_T32
 L  RAMPDN_G2_T32
 L  RAMPUP_G3_T32
 L  RAMPDN_G3_T32
 L  RAMPUP_G4_T32
 L  RAMPDN_G4_T32
 L  RAMPUP_G5_T32
 L  RAMPDN_G5_T32
 L  RAMPUP_G6_T32
 L  RAMPDN_G6_T32
 L  RAMPUP_G7_T32
 L  RAMPDN_G7_T32
 L  RAMPUP_G8_T32
 L  RAMPDN_G8_T32
 L  RAMPUP_G9_T32
 L  RAMPDN_G9_T32
 L  RAMPUP_G10_T32
 L  RAMPDN_G10_T32
 L  RAMPUP_G11_T32
 L  RAMPDN_G11_T32
 L  RAMPUP_G12_T32
 L  RAMPDN_G12_T32
 L  RAMPUP_G13_T32
 L  RAMPDN_G13_T32
 L  RAMPUP_G14_T32
 L  RAMPDN_G14_T32
 L  RAMPUP_G15_T32
 L  RAMPDN_G15_T32
 L  RAMPUP_G16_T32
 L  RAMPDN_G16_T32
 L  RAMPUP_G17_T32
 L  RAMPDN_G17_T32
 L  RAMPUP_G18_T32
 L  RAMPDN_G18_T32
 L  RAMPUP_G19_T32
 L  RAMPDN_G19_T32
 E  DEMAND_T33
 G  RESERVE_T33
 L  PMAX_G0_T33
 G  PMIN_G0_T33
 L  PMAX_G1_T33
 G  PMIN_G1_T33
 L  PMAX_G2_T33
 G  PMIN_G2_T33
 L  PMAX_G3_T33
 G  PMIN_G3_T33
 L  PMAX_G4_T33
 G  PMIN_G4_T33
 L  PMAX_G5_T33
 G  PMIN_G5_T33
 L  PMAX_G6_T33
 G  PMIN_G6_T33
 L  PMAX_G7_T33
 G  PMIN_G7_T33
 L  PMAX_G8_T33
 G  PMIN_G8_T33
 L  PMAX_G9_T33
 G  PMIN_G9_T33
 L  PMAX_G10_T33
 G  PMIN_G10_T33
 L  PMAX_G11_T33
 G  PMIN_G11_T33
 L  PMAX_G12_T33
 G  PMIN_G12_T33
 L  PMAX_G13_T33
 G  PMIN_G13_T33
 L  PMAX_G14_T33
 G  PMIN_G14_T33
 L  PMAX_G15_T33
 G  PMIN_G15_T33
 L  PMAX_G16_T33
 G  PMIN_G16_T33
 L  PMAX_G17_T33
 G  PMIN_G17_T33
 L  PMAX_G18_T33
 G  PMIN_G18_T33
 L  PMAX_G19_T33
 G  PMIN_G19_T33
 L  RAMPUP_G0_T33
 L  RAMPDN_G0_T33
 L  RAMPUP_G1_T33
 L  RAMPDN_G1_T33
 L  RAMPUP_G2_T33
 L  RAMPDN_G2_T33
 L  RAMPUP_G3_T33
 L  RAMPDN_G3_T33
 L  RAMPUP_G4_T33
 L  RAMPDN_G4_T33
 L  RAMPUP_G5_T33
 L  RAMPDN_G5_T33
 L  RAMPUP_G6_T33
 L  RAMPDN_G6_T33
 L  RAMPUP_G7_T33
 L  RAMPDN_G7_T33
 L  RAMPUP_G8_T33
 L  RAMPDN_G8_T33
 L  RAMPUP_G9_T33
 L  RAMPDN_G9_T33
 L  RAMPUP_G10_T33
 L  RAMPDN_G10_T33
 L  RAMPUP_G11_T33
 L  RAMPDN_G11_T33
 L  RAMPUP_G12_T33
 L  RAMPDN_G12_T33
 L  RAMPUP_G13_T33
 L  RAMPDN_G13_T33
 L  RAMPUP_G14_T33
 L  RAMPDN_G14_T33
 L  RAMPUP_G15_T33
 L  RAMPDN_G15_T33
 L  RAMPUP_G16_T33
 L  RAMPDN_G16_T33
 L  RAMPUP_G17_T33
 L  RAMPDN_G17_T33
 L  RAMPUP_G18_T33
 L  RAMPDN_G18_T33
 L  RAMPUP_G19_T33
 L  RAMPDN_G19_T33
 E  DEMAND_T34
 G  RESERVE_T34
 L  PMAX_G0_T34
 G  PMIN_G0_T34
 L  PMAX_G1_T34
 G  PMIN_G1_T34
 L  PMAX_G2_T34
 G  PMIN_G2_T34
 L  PMAX_G3_T34
 G  PMIN_G3_T34
 L  PMAX_G4_T34
 G  PMIN_G4_T34
 L  PMAX_G5_T34
 G  PMIN_G5_T34
 L  PMAX_G6_T34
 G  PMIN_G6_T34
 L  PMAX_G7_T34
 G  PMIN_G7_T34
 L  PMAX_G8_T34
 G  PMIN_G8_T34
 L  PMAX_G9_T34
 G  PMIN_G9_T34
 L  PMAX_G10_T34
 G  PMIN_G10_T34
 L  PMAX_G11_T34
 G  PMIN_G11_T34
 L  PMAX_G12_T34
 G  PMIN_G12_T34
 L  PMAX_G13_T34
 G  PMIN_G13_T34
 L  PMAX_G14_T34
 G  PMIN_G14_T34
 L  PMAX_G15_T34
 G  PMIN_G15_T34
 L  PMAX_G16_T34
 G  PMIN_G16_T34
 L  PMAX_G17_T34
 G  PMIN_G17_T34
 L  PMAX_G18_T34
 G  PMIN_G18_T34
 L  PMAX_G19_T34
 G  PMIN_G19_T34
 L  RAMPUP_G0_T34
 L  RAMPDN_G0_T34
 L  RAMPUP_G1_T34
 L  RAMPDN_G1_T34
 L  RAMPUP_G2_T34
 L  RAMPDN_G2_T34
 L  RAMPUP_G3_T34
 L  RAMPDN_G3_T34
 L  RAMPUP_G4_T34
 L  RAMPDN_G4_T34
 L  RAMPUP_G5_T34
 L  RAMPDN_G5_T34
 L  RAMPUP_G6_T34
 L  RAMPDN_G6_T34
 L  RAMPUP_G7_T34
 L  RAMPDN_G7_T34
 L  RAMPUP_G8_T34
 L  RAMPDN_G8_T34
 L  RAMPUP_G9_T34
 L  RAMPDN_G9_T34
 L  RAMPUP_G10_T34
 L  RAMPDN_G10_T34
 L  RAMPUP_G11_T34
 L  RAMPDN_G11_T34
 L  RAMPUP_G12_T34
 L  RAMPDN_G12_T34
 L  RAMPUP_G13_T34
 L  RAMPDN_G13_T34
 L  RAMPUP_G14_T34
 L  RAMPDN_G14_T34
 L  RAMPUP_G15_T34
 L  RAMPDN_G15_T34
 L  RAMPUP_G16_T34
 L  RAMPDN_G16_T34
 L  RAMPUP_G17_T34
 L  RAMPDN_G17_T34
 L  RAMPUP_G18_T34
 L  RAMPDN_G18_T34
 L  RAMPUP_G19_T34
 L  RAMPDN_G19_T34
 E  DEMAND_T35
 G  RESERVE_T35
 L  PMAX_G0_T35
 G  PMIN_G0_T35
 L  PMAX_G1_T35
 G  PMIN_G1_T35
 L  PMAX_G2_T35
 G  PMIN_G2_T35
 L  PMAX_G3_T35
 G  PMIN_G3_T35
 L  PMAX_G4_T35
 G  PMIN_G4_T35
 L  PMAX_G5_T35
 G  PMIN_G5_T35
 L  PMAX_G6_T35
 G  PMIN_G6_T35
 L  PMAX_G7_T35
 G  PMIN_G7_T35
 L  PMAX_G8_T35
 G  PMIN_G8_T35
 L  PMAX_G9_T35
 G  PMIN_G9_T35
 L  PMAX_G10_T35
 G  PMIN_G10_T35
 L  PMAX_G11_T35
 G  PMIN_G11_T35
 L  PMAX_G12_T35
 G  PMIN_G12_T35
 L  PMAX_G13_T35
 G  PMIN_G13_T35
 L  PMAX_G14_T35
 G  PMIN_G14_T35
 L  PMAX_G15_T35
 G  PMIN_G15_T35
 L  PMAX_G16_T35
 G  PMIN_G16_T35
 L  PMAX_G17_T35
 G  PMIN_G17_T35
 L  PMAX_G18_T35
 G  PMIN_G18_T35
 L  PMAX_G19_T35
 G  PMIN_G19_T35
 L  RAMPUP_G0_T35
 L  RAMPDN_G0_T35
 L  RAMPUP_G1_T35
 L  RAMPDN_G1_T35
 L  RAMPUP_G2_T35
 L  RAMPDN_G2_T35
 L  RAMPUP_G3_T35
 L  RAMPDN_G3_T35
 L  RAMPUP_G4_T35
 L  RAMPDN_G4_T35
 L  RAMPUP_G5_T35
 L  RAMPDN_G5_T35
 L  RAMPUP_G6_T35
 L  RAMPDN_G6_T35
 L  RAMPUP_G7_T35
 L  RAMPDN_G7_T35
 L  RAMPUP_G8_T35
 L  RAMPDN_G8_T35
 L  RAMPUP_G9_T35
 L  RAMPDN_G9_T35
 L  RAMPUP_G10_T35
 L  RAMPDN_G10_T35
 L  RAMPUP_G11_T35
 L  RAMPDN_G11_T35
 L  RAMPUP_G12_T35
 L  RAMPDN_G12_T35
 L  RAMPUP_G13_T35
 L  RAMPDN_G13_T35
 L  RAMPUP_G14_T35
 L  RAMPDN_G14_T35
 L  RAMPUP_G15_T35
 L  RAMPDN_G15_T35
 L  RAMPUP_G16_T35
 L  RAMPDN_G16_T35
 L  RAMPUP_G17_T35
 L  RAMPDN_G17_T35
 L  RAMPUP_G18_T35
 L  RAMPDN_G18_T35
 L  RAMPUP_G19_T35
 L  RAMPDN_G19_T35
 E  DEMAND_T36
 G  RESERVE_T36
 L  PMAX_G0_T36
 G  PMIN_G0_T36
 L  PMAX_G1_T36
 G  PMIN_G1_T36
 L  PMAX_G2_T36
 G  PMIN_G2_T36
 L  PMAX_G3_T36
 G  PMIN_G3_T36
 L  PMAX_G4_T36
 G  PMIN_G4_T36
 L  PMAX_G5_T36
 G  PMIN_G5_T36
 L  PMAX_G6_T36
 G  PMIN_G6_T36
 L  PMAX_G7_T36
 G  PMIN_G7_T36
 L  PMAX_G8_T36
 G  PMIN_G8_T36
 L  PMAX_G9_T36
 G  PMIN_G9_T36
 L  PMAX_G10_T36
 G  PMIN_G10_T36
 L  PMAX_G11_T36
 G  PMIN_G11_T36
 L  PMAX_G12_T36
 G  PMIN_G12_T36
 L  PMAX_G13_T36
 G  PMIN_G13_T36
 L  PMAX_G14_T36
 G  PMIN_G14_T36
 L  PMAX_G15_T36
 G  PMIN_G15_T36
 L  PMAX_G16_T36
 G  PMIN_G16_T36
 L  PMAX_G17_T36
 G  PMIN_G17_T36
 L  PMAX_G18_T36
 G  PMIN_G18_T36
 L  PMAX_G19_T36
 G  PMIN_G19_T36
 L  RAMPUP_G0_T36
 L  RAMPDN_G0_T36
 L  RAMPUP_G1_T36
 L  RAMPDN_G1_T36
 L  RAMPUP_G2_T36
 L  RAMPDN_G2_T36
 L  RAMPUP_G3_T36
 L  RAMPDN_G3_T36
 L  RAMPUP_G4_T36
 L  RAMPDN_G4_T36
 L  RAMPUP_G5_T36
 L  RAMPDN_G5_T36
 L  RAMPUP_G6_T36
 L  RAMPDN_G6_T36
 L  RAMPUP_G7_T36
 L  RAMPDN_G7_T36
 L  RAMPUP_G8_T36
 L  RAMPDN_G8_T36
 L  RAMPUP_G9_T36
 L  RAMPDN_G9_T36
 L  RAMPUP_G10_T36
 L  RAMPDN_G10_T36
 L  RAMPUP_G11_T36
 L  RAMPDN_G11_T36
 L  RAMPUP_G12_T36
 L  RAMPDN_G12_T36
 L  RAMPUP_G13_T36
 L  RAMPDN_G13_T36
 L  RAMPUP_G14_T36
 L  RAMPDN_G14_T36
 L  RAMPUP_G15_T36
 L  RAMPDN_G15_T36
 L  RAMPUP_G16_T36
 L  RAMPDN_G16_T36
 L  RAMPUP_G17_T36
 L  RAMPDN_G17_T36
 L  RAMPUP_G18_T36
 L  RAMPDN_G18_T36
 L  RAMPUP_G19_T36
 L  RAMPDN_G19_T36
 E  DEMAND_T37
 G  RESERVE_T37
 L  PMAX_G0_T37
 G  PMIN_G0_T37
 L  PMAX_G1_T37
 G  PMIN_G1_T37
 L  PMAX_G2_T37
 G  PMIN_G2_T37
 L  PMAX_G3_T37
 G  PMIN_G3_T37
 L  PMAX_G4_T37
 G  PMIN_G4_T37
 L  PMAX_G5_T37
 G  PMIN_G5_T37
 L  PMAX_G6_T37
 G  PMIN_G6_T37
 L  PMAX_G7_T37
 G  PMIN_G7_T37
 L  PMAX_G8_T37
 G  PMIN_G8_T37
 L  PMAX_G9_T37
 G  PMIN_G9_T37
 L  PMAX_G10_T37
 G  PMIN_G10_T37
 L  PMAX_G11_T37
 G  PMIN_G11_T37
 L  PMAX_G12_T37
 G  PMIN_G12_T37
 L  PMAX_G13_T37
 G  PMIN_G13_T37
 L  PMAX_G14_T37
 G  PMIN_G14_T37
 L  PMAX_G15_T37
 G  PMIN_G15_T37
 L  PMAX_G16_T37
 G  PMIN_G16_T37
 L  PMAX_G17_T37
 G  PMIN_G17_T37
 L  PMAX_G18_T37
 G  PMIN_G18_T37
 L  PMAX_G19_T37
 G  PMIN_G19_T37
 L  RAMPUP_G0_T37
 L  RAMPDN_G0_T37
 L  RAMPUP_G1_T37
 L  RAMPDN_G1_T37
 L  RAMPUP_G2_T37
 L  RAMPDN_G2_T37
 L  RAMPUP_G3_T37
 L  RAMPDN_G3_T37
 L  RAMPUP_G4_T37
 L  RAMPDN_G4_T37
 L  RAMPUP_G5_T37
 L  RAMPDN_G5_T37
 L  RAMPUP_G6_T37
 L  RAMPDN_G6_T37
 L  RAMPUP_G7_T37
 L  RAMPDN_G7_T37
 L  RAMPUP_G8_T37
 L  RAMPDN_G8_T37
 L  RAMPUP_G9_T37
 L  RAMPDN_G9_T37
 L  RAMPUP_G10_T37
 L  RAMPDN_G10_T37
 L  RAMPUP_G11_T37
 L  RAMPDN_G11_T37
 L  RAMPUP_G12_T37
 L  RAMPDN_G12_T37
 L  RAMPUP_G13_T37
 L  RAMPDN_G13_T37
 L  RAMPUP_G14_T37
 L  RAMPDN_G14_T37
 L  RAMPUP_G15_T37
 L  RAMPDN_G15_T37
 L  RAMPUP_G16_T37
 L  RAMPDN_G16_T37
 L  RAMPUP_G17_T37
 L  RAMPDN_G17_T37
 L  RAMPUP_G18_T37
 L  RAMPDN_G18_T37
 L  RAMPUP_G19_T37
 L  RAMPDN_G19_T37
 E  DEMAND_T38
 G  RESERVE_T38
 L  PMAX_G0_T38
 G  PMIN_G0_T38
 L  PMAX_G1_T38
 G  PMIN_G1_T38
 L  PMAX_G2_T38
 G  PMIN_G2_T38
 L  PMAX_G3_T38
 G  PMIN_G3_T38
 L  PMAX_G4_T38
 G  PMIN_G4_T38
 L  PMAX_G5_T38
 G  PMIN_G5_T38
 L  PMAX_G6_T38
 G  PMIN_G6_T38
 L  PMAX_G7_T38
 G  PMIN_G7_T38
 L  PMAX_G8_T38
 G  PMIN_G8_T38
 L  PMAX_G9_T38
 G  PMIN_G9_T38
 L  PMAX_G10_T38
 G  PMIN_G10_T38
 L  PMAX_G11_T38
 G  PMIN_G11_T38
 L  PMAX_G12_T38
 G  PMIN_G12_T38
 L  PMAX_G13_T38
 G  PMIN_G13_T38
 L  PMAX_G14_T38
 G  PMIN_G14_T38
 L  PMAX_G15_T38
 G  PMIN_G15_T38
 L  PMAX_G16_T38
 G  PMIN_G16_T38
 L  PMAX_G17_T38
 G  PMIN_G17_T38
 L  PMAX_G18_T38
 G  PMIN_G18_T38
 L  PMAX_G19_T38
 G  PMIN_G19_T38
 L  RAMPUP_G0_T38
 L  RAMPDN_G0_T38
 L  RAMPUP_G1_T38
 L  RAMPDN_G1_T38
 L  RAMPUP_G2_T38
 L  RAMPDN_G2_T38
 L  RAMPUP_G3_T38
 L  RAMPDN_G3_T38
 L  RAMPUP_G4_T38
 L  RAMPDN_G4_T38
 L  RAMPUP_G5_T38
 L  RAMPDN_G5_T38
 L  RAMPUP_G6_T38
 L  RAMPDN_G6_T38
 L  RAMPUP_G7_T38
 L  RAMPDN_G7_T38
 L  RAMPUP_G8_T38
 L  RAMPDN_G8_T38
 L  RAMPUP_G9_T38
 L  RAMPDN_G9_T38
 L  RAMPUP_G10_T38
 L  RAMPDN_G10_T38
 L  RAMPUP_G11_T38
 L  RAMPDN_G11_T38
 L  RAMPUP_G12_T38
 L  RAMPDN_G12_T38
 L  RAMPUP_G13_T38
 L  RAMPDN_G13_T38
 L  RAMPUP_G14_T38
 L  RAMPDN_G14_T38
 L  RAMPUP_G15_T38
 L  RAMPDN_G15_T38
 L  RAMPUP_G16_T38
 L  RAMPDN_G16_T38
 L  RAMPUP_G17_T38
 L  RAMPDN_G17_T38
 L  RAMPUP_G18_T38
 L  RAMPDN_G18_T38
 L  RAMPUP_G19_T38
 L  RAMPDN_G19_T38
 E  DEMAND_T39
 G  RESERVE_T39
 L  PMAX_G0_T39
 G  PMIN_G0_T39
 L  PMAX_G1_T39
 G  PMIN_G1_T39
 L  PMAX_G2_T39
 G  PMIN_G2_T39
 L  PMAX_G3_T39
 G  PMIN_G3_T39
 L  PMAX_G4_T39
 G  PMIN_G4_T39
 L  PMAX_G5_T39
 G  PMIN_G5_T39
 L  PMAX_G6_T39
 G  PMIN_G6_T39
 L  PMAX_G7_T39
 G  PMIN_G7_T39
 L  PMAX_G8_T39
 G  PMIN_G8_T39
 L  PMAX_G9_T39
 G  PMIN_G9_T39
 L  PMAX_G10_T39
 G  PMIN_G10_T39
 L  PMAX_G11_T39
 G  PMIN_G11_T39
 L  PMAX_G12_T39
 G  PMIN_G12_T39
 L  PMAX_G13_T39
 G  PMIN_G13_T39
 L  PMAX_G14_T39
 G  PMIN_G14_T39
 L  PMAX_G15_T39
 G  PMIN_G15_T39
 L  PMAX_G16_T39
 G  PMIN_G16_T39
 L  PMAX_G17_T39
 G  PMIN_G17_T39
 L  PMAX_G18_T39
 G  PMIN_G18_T39
 L  PMAX_G19_T39
 G  PMIN_G19_T39
 L  RAMPUP_G0_T39
 L  RAMPDN_G0_T39
 L  RAMPUP_G1_T39
 L  RAMPDN_G1_T39
 L  RAMPUP_G2_T39
 L  RAMPDN_G2_T39
 L  RAMPUP_G3_T39
 L  RAMPDN_G3_T39
 L  RAMPUP_G4_T39
 L  RAMPDN_G4_T39
 L  RAMPUP_G5_T39
 L  RAMPDN_G5_T39
 L  RAMPUP_G6_T39
 L  RAMPDN_G6_T39
 L  RAMPUP_G7_T39
 L  RAMPDN_G7_T39
 L  RAMPUP_G8_T39
 L  RAMPDN_G8_T39
 L  RAMPUP_G9_T39
 L  RAMPDN_G9_T39
 L  RAMPUP_G10_T39
 L  RAMPDN_G10_T39
 L  RAMPUP_G11_T39
 L  RAMPDN_G11_T39
 L  RAMPUP_G12_T39
 L  RAMPDN_G12_T39
 L  RAMPUP_G13_T39
 L  RAMPDN_G13_T39
 L  RAMPUP_G14_T39
 L  RAMPDN_G14_T39
 L  RAMPUP_G15_T39
 L  RAMPDN_G15_T39
 L  RAMPUP_G16_T39
 L  RAMPDN_G16_T39
 L  RAMPUP_G17_T39
 L  RAMPDN_G17_T39
 L  RAMPUP_G18_T39
 L  RAMPDN_G18_T39
 L  RAMPUP_G19_T39
 L  RAMPDN_G19_T39
 E  DEMAND_T40
 G  RESERVE_T40
 L  PMAX_G0_T40
 G  PMIN_G0_T40
 L  PMAX_G1_T40
 G  PMIN_G1_T40
 L  PMAX_G2_T40
 G  PMIN_G2_T40
 L  PMAX_G3_T40
 G  PMIN_G3_T40
 L  PMAX_G4_T40
 G  PMIN_G4_T40
 L  PMAX_G5_T40
 G  PMIN_G5_T40
 L  PMAX_G6_T40
 G  PMIN_G6_T40
 L  PMAX_G7_T40
 G  PMIN_G7_T40
 L  PMAX_G8_T40
 G  PMIN_G8_T40
 L  PMAX_G9_T40
 G  PMIN_G9_T40
 L  PMAX_G10_T40
 G  PMIN_G10_T40
 L  PMAX_G11_T40
 G  PMIN_G11_T40
 L  PMAX_G12_T40
 G  PMIN_G12_T40
 L  PMAX_G13_T40
 G  PMIN_G13_T40
 L  PMAX_G14_T40
 G  PMIN_G14_T40
 L  PMAX_G15_T40
 G  PMIN_G15_T40
 L  PMAX_G16_T40
 G  PMIN_G16_T40
 L  PMAX_G17_T40
 G  PMIN_G17_T40
 L  PMAX_G18_T40
 G  PMIN_G18_T40
 L  PMAX_G19_T40
 G  PMIN_G19_T40
 L  RAMPUP_G0_T40
 L  RAMPDN_G0_T40
 L  RAMPUP_G1_T40
 L  RAMPDN_G1_T40
 L  RAMPUP_G2_T40
 L  RAMPDN_G2_T40
 L  RAMPUP_G3_T40
 L  RAMPDN_G3_T40
 L  RAMPUP_G4_T40
 L  RAMPDN_G4_T40
 L  RAMPUP_G5_T40
 L  RAMPDN_G5_T40
 L  RAMPUP_G6_T40
 L  RAMPDN_G6_T40
 L  RAMPUP_G7_T40
 L  RAMPDN_G7_T40
 L  RAMPUP_G8_T40
 L  RAMPDN_G8_T40
 L  RAMPUP_G9_T40
 L  RAMPDN_G9_T40
 L  RAMPUP_G10_T40
 L  RAMPDN_G10_T40
 L  RAMPUP_G11_T40
 L  RAMPDN_G11_T40
 L  RAMPUP_G12_T40
 L  RAMPDN_G12_T40
 L  RAMPUP_G13_T40
 L  RAMPDN_G13_T40
 L  RAMPUP_G14_T40
 L  RAMPDN_G14_T40
 L  RAMPUP_G15_T40
 L  RAMPDN_G15_T40
 L  RAMPUP_G16_T40
 L  RAMPDN_G16_T40
 L  RAMPUP_G17_T40
 L  RAMPDN_G17_T40
 L  RAMPUP_G18_T40
 L  RAMPDN_G18_T40
 L  RAMPUP_G19_T40
 L  RAMPDN_G19_T40
 E  DEMAND_T41
 G  RESERVE_T41
 L  PMAX_G0_T41
 G  PMIN_G0_T41
 L  PMAX_G1_T41
 G  PMIN_G1_T41
 L  PMAX_G2_T41
 G  PMIN_G2_T41
 L  PMAX_G3_T41
 G  PMIN_G3_T41
 L  PMAX_G4_T41
 G  PMIN_G4_T41
 L  PMAX_G5_T41
 G  PMIN_G5_T41
 L  PMAX_G6_T41
 G  PMIN_G6_T41
 L  PMAX_G7_T41
 G  PMIN_G7_T41
 L  PMAX_G8_T41
 G  PMIN_G8_T41
 L  PMAX_G9_T41
 G  PMIN_G9_T41
 L  PMAX_G10_T41
 G  PMIN_G10_T41
 L  PMAX_G11_T41
 G  PMIN_G11_T41
 L  PMAX_G12_T41
 G  PMIN_G12_T41
 L  PMAX_G13_T41
 G  PMIN_G13_T41
 L  PMAX_G14_T41
 G  PMIN_G14_T41
 L  PMAX_G15_T41
 G  PMIN_G15_T41
 L  PMAX_G16_T41
 G  PMIN_G16_T41
 L  PMAX_G17_T41
 G  PMIN_G17_T41
 L  PMAX_G18_T41
 G  PMIN_G18_T41
 L  PMAX_G19_T41
 G  PMIN_G19_T41
 L  RAMPUP_G0_T41
 L  RAMPDN_G0_T41
 L  RAMPUP_G1_T41
 L  RAMPDN_G1_T41
 L  RAMPUP_G2_T41
 L  RAMPDN_G2_T41
 L  RAMPUP_G3_T41
 L  RAMPDN_G3_T41
 L  RAMPUP_G4_T41
 L  RAMPDN_G4_T41
 L  RAMPUP_G5_T41
 L  RAMPDN_G5_T41
 L  RAMPUP_G6_T41
 L  RAMPDN_G6_T41
 L  RAMPUP_G7_T41
 L  RAMPDN_G7_T41
 L  RAMPUP_G8_T41
 L  RAMPDN_G8_T41
 L  RAMPUP_G9_T41
 L  RAMPDN_G9_T41
 L  RAMPUP_G10_T41
 L  RAMPDN_G10_T41
 L  RAMPUP_G11_T41
 L  RAMPDN_G11_T41
 L  RAMPUP_G12_T41
 L  RAMPDN_G12_T41
 L  RAMPUP_G13_T41
 L  RAMPDN_G13_T41
 L  RAMPUP_G14_T41
 L  RAMPDN_G14_T41
 L  RAMPUP_G15_T41
 L  RAMPDN_G15_T41
 L  RAMPUP_G16_T41
 L  RAMPDN_G16_T41
 L  RAMPUP_G17_T41
 L  RAMPDN_G17_T41
 L  RAMPUP_G18_T41
 L  RAMPDN_G18_T41
 L  RAMPUP_G19_T41
 L  RAMPDN_G19_T41
 E  DEMAND_T42
 G  RESERVE_T42
 L  PMAX_G0_T42
 G  PMIN_G0_T42
 L  PMAX_G1_T42
 G  PMIN_G1_T42
 L  PMAX_G2_T42
 G  PMIN_G2_T42
 L  PMAX_G3_T42
 G  PMIN_G3_T42
 L  PMAX_G4_T42
 G  PMIN_G4_T42
 L  PMAX_G5_T42
 G  PMIN_G5_T42
 L  PMAX_G6_T42
 G  PMIN_G6_T42
 L  PMAX_G7_T42
 G  PMIN_G7_T42
 L  PMAX_G8_T42
 G  PMIN_G8_T42
 L  PMAX_G9_T42
 G  PMIN_G9_T42
 L  PMAX_G10_T42
 G  PMIN_G10_T42
 L  PMAX_G11_T42
 G  PMIN_G11_T42
 L  PMAX_G12_T42
 G  PMIN_G12_T42
 L  PMAX_G13_T42
 G  PMIN_G13_T42
 L  PMAX_G14_T42
 G  PMIN_G14_T42
 L  PMAX_G15_T42
 G  PMIN_G15_T42
 L  PMAX_G16_T42
 G  PMIN_G16_T42
 L  PMAX_G17_T42
 G  PMIN_G17_T42
 L  PMAX_G18_T42
 G  PMIN_G18_T42
 L  PMAX_G19_T42
 G  PMIN_G19_T42
 L  RAMPUP_G0_T42
 L  RAMPDN_G0_T42
 L  RAMPUP_G1_T42
 L  RAMPDN_G1_T42
 L  RAMPUP_G2_T42
 L  RAMPDN_G2_T42
 L  RAMPUP_G3_T42
 L  RAMPDN_G3_T42
 L  RAMPUP_G4_T42
 L  RAMPDN_G4_T42
 L  RAMPUP_G5_T42
 L  RAMPDN_G5_T42
 L  RAMPUP_G6_T42
 L  RAMPDN_G6_T42
 L  RAMPUP_G7_T42
 L  RAMPDN_G7_T42
 L  RAMPUP_G8_T42
 L  RAMPDN_G8_T42
 L  RAMPUP_G9_T42
 L  RAMPDN_G9_T42
 L  RAMPUP_G10_T42
 L  RAMPDN_G10_T42
 L  RAMPUP_G11_T42
 L  RAMPDN_G11_T42
 L  RAMPUP_G12_T42
 L  RAMPDN_G12_T42
 L  RAMPUP_G13_T42
 L  RAMPDN_G13_T42
 L  RAMPUP_G14_T42
 L  RAMPDN_G14_T42
 L  RAMPUP_G15_T42
 L  RAMPDN_G15_T42
 L  RAMPUP_G16_T42
 L  RAMPDN_G16_T42
 L  RAMPUP_G17_T42
 L  RAMPDN_G17_T42
 L  RAMPUP_G18_T42
 L  RAMPDN_G18_T42
 L  RAMPUP_G19_T42
 L  RAMPDN_G19_T42
 E  DEMAND_T43
 G  RESERVE_T43
 L  PMAX_G0_T43
 G  PMIN_G0_T43
 L  PMAX_G1_T43
 G  PMIN_G1_T43
 L  PMAX_G2_T43
 G  PMIN_G2_T43
 L  PMAX_G3_T43
 G  PMIN_G3_T43
 L  PMAX_G4_T43
 G  PMIN_G4_T43
 L  PMAX_G5_T43
 G  PMIN_G5_T43
 L  PMAX_G6_T43
 G  PMIN_G6_T43
 L  PMAX_G7_T43
 G  PMIN_G7_T43
 L  PMAX_G8_T43
 G  PMIN_G8_T43
 L  PMAX_G9_T43
 G  PMIN_G9_T43
 L  PMAX_G10_T43
 G  PMIN_G10_T43
 L  PMAX_G11_T43
 G  PMIN_G11_T43
 L  PMAX_G12_T43
 G  PMIN_G12_T43
 L  PMAX_G13_T43
 G  PMIN_G13_T43
 L  PMAX_G14_T43
 G  PMIN_G14_T43
 L  PMAX_G15_T43
 G  PMIN_G15_T43
 L  PMAX_G16_T43
 G  PMIN_G16_T43
 L  PMAX_G17_T43
 G  PMIN_G17_T43
 L  PMAX_G18_T43
 G  PMIN_G18_T43
 L  PMAX_G19_T43
 G  PMIN_G19_T43
 L  RAMPUP_G0_T43
 L  RAMPDN_G0_T43
 L  RAMPUP_G1_T43
 L  RAMPDN_G1_T43
 L  RAMPUP_G2_T43
 L  RAMPDN_G2_T43
 L  RAMPUP_G3_T43
 L  RAMPDN_G3_T43
 L  RAMPUP_G4_T43
 L  RAMPDN_G4_T43
 L  RAMPUP_G5_T43
 L  RAMPDN_G5_T43
 L  RAMPUP_G6_T43
 L  RAMPDN_G6_T43
 L  RAMPUP_G7_T43
 L  RAMPDN_G7_T43
 L  RAMPUP_G8_T43
 L  RAMPDN_G8_T43
 L  RAMPUP_G9_T43
 L  RAMPDN_G9_T43
 L  RAMPUP_G10_T43
 L  RAMPDN_G10_T43
 L  RAMPUP_G11_T43
 L  RAMPDN_G11_T43
 L  RAMPUP_G12_T43
 L  RAMPDN_G12_T43
 L  RAMPUP_G13_T43
 L  RAMPDN_G13_T43
 L  RAMPUP_G14_T43
 L  RAMPDN_G14_T43
 L  RAMPUP_G15_T43
 L  RAMPDN_G15_T43
 L  RAMPUP_G16_T43
 L  RAMPDN_G16_T43
 L  RAMPUP_G17_T43
 L  RAMPDN_G17_T43
 L  RAMPUP_G18_T43
 L  RAMPDN_G18_T43
 L  RAMPUP_G19_T43
 L  RAMPDN_G19_T43
 E  DEMAND_T44
 G  RESERVE_T44
 L  PMAX_G0_T44
 G  PMIN_G0_T44
 L  PMAX_G1_T44
 G  PMIN_G1_T44
 L  PMAX_G2_T44
 G  PMIN_G2_T44
 L  PMAX_G3_T44
 G  PMIN_G3_T44
 L  PMAX_G4_T44
 G  PMIN_G4_T44
 L  PMAX_G5_T44
 G  PMIN_G5_T44
 L  PMAX_G6_T44
 G  PMIN_G6_T44
 L  PMAX_G7_T44
 G  PMIN_G7_T44
 L  PMAX_G8_T44
 G  PMIN_G8_T44
 L  PMAX_G9_T44
 G  PMIN_G9_T44
 L  PMAX_G10_T44
 G  PMIN_G10_T44
 L  PMAX_G11_T44
 G  PMIN_G11_T44
 L  PMAX_G12_T44
 G  PMIN_G12_T44
 L  PMAX_G13_T44
 G  PMIN_G13_T44
 L  PMAX_G14_T44
 G  PMIN_G14_T44
 L  PMAX_G15_T44
 G  PMIN_G15_T44
 L  PMAX_G16_T44
 G  PMIN_G16_T44
 L  PMAX_G17_T44
 G  PMIN_G17_T44
 L  PMAX_G18_T44
 G  PMIN_G18_T44
 L  PMAX_G19_T44
 G  PMIN_G19_T44
 L  RAMPUP_G0_T44
 L  RAMPDN_G0_T44
 L  RAMPUP_G1_T44
 L  RAMPDN_G1_T44
 L  RAMPUP_G2_T44
 L  RAMPDN_G2_T44
 L  RAMPUP_G3_T44
 L  RAMPDN_G3_T44
 L  RAMPUP_G4_T44
 L  RAMPDN_G4_T44
 L  RAMPUP_G5_T44
 L  RAMPDN_G5_T44
 L  RAMPUP_G6_T44
 L  RAMPDN_G6_T44
 L  RAMPUP_G7_T44
 L  RAMPDN_G7_T44
 L  RAMPUP_G8_T44
 L  RAMPDN_G8_T44
 L  RAMPUP_G9_T44
 L  RAMPDN_G9_T44
 L  RAMPUP_G10_T44
 L  RAMPDN_G10_T44
 L  RAMPUP_G11_T44
 L  RAMPDN_G11_T44
 L  RAMPUP_G12_T44
 L  RAMPDN_G12_T44
 L  RAMPUP_G13_T44
 L  RAMPDN_G13_T44
 L  RAMPUP_G14_T44
 L  RAMPDN_G14_T44
 L  RAMPUP_G15_T44
 L  RAMPDN_G15_T44
 L  RAMPUP_G16_T44
 L  RAMPDN_G16_T44
 L  RAMPUP_G17_T44
 L  RAMPDN_G17_T44
 L  RAMPUP_G18_T44
 L  RAMPDN_G18_T44
 L  RAMPUP_G19_T44
 L  RAMPDN_G19_T44
 E  DEMAND_T45
 G  RESERVE_T45
 L  PMAX_G0_T45
 G  PMIN_G0_T45
 L  PMAX_G1_T45
 G  PMIN_G1_T45
 L  PMAX_G2_T45
 G  PMIN_G2_T45
 L  PMAX_G3_T45
 G  PMIN_G3_T45
 L  PMAX_G4_T45
 G  PMIN_G4_T45
 L  PMAX_G5_T45
 G  PMIN_G5_T45
 L  PMAX_G6_T45
 G  PMIN_G6_T45
 L  PMAX_G7_T45
 G  PMIN_G7_T45
 L  PMAX_G8_T45
 G  PMIN_G8_T45
 L  PMAX_G9_T45
 G  PMIN_G9_T45
 L  PMAX_G10_T45
 G  PMIN_G10_T45
 L  PMAX_G11_T45
 G  PMIN_G11_T45
 L  PMAX_G12_T45
 G  PMIN_G12_T45
 L  PMAX_G13_T45
 G  PMIN_G13_T45
 L  PMAX_G14_T45
 G  PMIN_G14_T45
 L  PMAX_G15_T45
 G  PMIN_G15_T45
 L  PMAX_G16_T45
 G  PMIN_G16_T45
 L  PMAX_G17_T45
 G  PMIN_G17_T45
 L  PMAX_G18_T45
 G  PMIN_G18_T45
 L  PMAX_G19_T45
 G  PMIN_G19_T45
 L  RAMPUP_G0_T45
 L  RAMPDN_G0_T45
 L  RAMPUP_G1_T45
 L  RAMPDN_G1_T45
 L  RAMPUP_G2_T45
 L  RAMPDN_G2_T45
 L  RAMPUP_G3_T45
 L  RAMPDN_G3_T45
 L  RAMPUP_G4_T45
 L  RAMPDN_G4_T45
 L  RAMPUP_G5_T45
 L  RAMPDN_G5_T45
 L  RAMPUP_G6_T45
 L  RAMPDN_G6_T45
 L  RAMPUP_G7_T45
 L  RAMPDN_G7_T45
 L  RAMPUP_G8_T45
 L  RAMPDN_G8_T45
 L  RAMPUP_G9_T45
 L  RAMPDN_G9_T45
 L  RAMPUP_G10_T45
 L  RAMPDN_G10_T45
 L  RAMPUP_G11_T45
 L  RAMPDN_G11_T45
 L  RAMPUP_G12_T45
 L  RAMPDN_G12_T45
 L  RAMPUP_G13_T45
 L  RAMPDN_G13_T45
 L  RAMPUP_G14_T45
 L  RAMPDN_G14_T45
 L  RAMPUP_G15_T45
 L  RAMPDN_G15_T45
 L  RAMPUP_G16_T45
 L  RAMPDN_G16_T45
 L  RAMPUP_G17_T45
 L  RAMPDN_G17_T45
 L  RAMPUP_G18_T45
 L  RAMPDN_G18_T45
 L  RAMPUP_G19_T45
 L  RAMPDN_G19_T45
 E  DEMAND_T46
 G  RESERVE_T46
 L  PMAX_G0_T46
 G  PMIN_G0_T46
 L  PMAX_G1_T46
 G  PMIN_G1_T46
 L  PMAX_G2_T46
 G  PMIN_G2_T46
 L  PMAX_G3_T46
 G  PMIN_G3_T46
 L  PMAX_G4_T46
 G  PMIN_G4_T46
 L  PMAX_G5_T46
 G  PMIN_G5_T46
 L  PMAX_G6_T46
 G  PMIN_G6_T46
 L  PMAX_G7_T46
 G  PMIN_G7_T46
 L  PMAX_G8_T46
 G  PMIN_G8_T46
 L  PMAX_G9_T46
 G  PMIN_G9_T46
 L  PMAX_G10_T46
 G  PMIN_G10_T46
 L  PMAX_G11_T46
 G  PMIN_G11_T46
 L  PMAX_G12_T46
 G  PMIN_G12_T46
 L  PMAX_G13_T46
 G  PMIN_G13_T46
 L  PMAX_G14_T46
 G  PMIN_G14_T46
 L  PMAX_G15_T46
 G  PMIN_G15_T46
 L  PMAX_G16_T46
 G  PMIN_G16_T46
 L  PMAX_G17_T46
 G  PMIN_G17_T46
 L  PMAX_G18_T46
 G  PMIN_G18_T46
 L  PMAX_G19_T46
 G  PMIN_G19_T46
 L  RAMPUP_G0_T46
 L  RAMPDN_G0_T46
 L  RAMPUP_G1_T46
 L  RAMPDN_G1_T46
 L  RAMPUP_G2_T46
 L  RAMPDN_G2_T46
 L  RAMPUP_G3_T46
 L  RAMPDN_G3_T46
 L  RAMPUP_G4_T46
 L  RAMPDN_G4_T46
 L  RAMPUP_G5_T46
 L  RAMPDN_G5_T46
 L  RAMPUP_G6_T46
 L  RAMPDN_G6_T46
 L  RAMPUP_G7_T46
 L  RAMPDN_G7_T46
 L  RAMPUP_G8_T46
 L  RAMPDN_G8_T46
 L  RAMPUP_G9_T46
 L  RAMPDN_G9_T46
 L  RAMPUP_G10_T46
 L  RAMPDN_G10_T46
 L  RAMPUP_G11_T46
 L  RAMPDN_G11_T46
 L  RAMPUP_G12_T46
 L  RAMPDN_G12_T46
 L  RAMPUP_G13_T46
 L  RAMPDN_G13_T46
 L  RAMPUP_G14_T46
 L  RAMPDN_G14_T46
 L  RAMPUP_G15_T46
 L  RAMPDN_G15_T46
 L  RAMPUP_G16_T46
 L  RAMPDN_G16_T46
 L  RAMPUP_G17_T46
 L  RAMPDN_G17_T46
 L  RAMPUP_G18_T46
 L  RAMPDN_G18_T46
 L  RAMPUP_G19_T46
 L  RAMPDN_G19_T46
 E  DEMAND_T47
 G  RESERVE_T47
 L  PMAX_G0_T47
 G  PMIN_G0_T47
 L  PMAX_G1_T47
 G  PMIN_G1_T47
 L  PMAX_G2_T47
 G  PMIN_G2_T47
 L  PMAX_G3_T47
 G  PMIN_G3_T47
 L  PMAX_G4_T47
 G  PMIN_G4_T47
 L  PMAX_G5_T47
 G  PMIN_G5_T47
 L  PMAX_G6_T47
 G  PMIN_G6_T47
 L  PMAX_G7_T47
 G  PMIN_G7_T47
 L  PMAX_G8_T47
 G  PMIN_G8_T47
 L  PMAX_G9_T47
 G  PMIN_G9_T47
 L  PMAX_G10_T47
 G  PMIN_G10_T47
 L  PMAX_G11_T47
 G  PMIN_G11_T47
 L  PMAX_G12_T47
 G  PMIN_G12_T47
 L  PMAX_G13_T47
 G  PMIN_G13_T47
 L  PMAX_G14_T47
 G  PMIN_G14_T47
 L  PMAX_G15_T47
 G  PMIN_G15_T47
 L  PMAX_G16_T47
 G  PMIN_G16_T47
 L  PMAX_G17_T47
 G  PMIN_G17_T47
 L  PMAX_G18_T47
 G  PMIN_G18_T47
 L  PMAX_G19_T47
 G  PMIN_G19_T47
 L  RAMPUP_G0_T47
 L  RAMPDN_G0_T47
 L  RAMPUP_G1_T47
 L  RAMPDN_G1_T47
 L  RAMPUP_G2_T47
 L  RAMPDN_G2_T47
 L  RAMPUP_G3_T47
 L  RAMPDN_G3_T47
 L  RAMPUP_G4_T47
 L  RAMPDN_G4_T47
 L  RAMPUP_G5_T47
 L  RAMPDN_G5_T47
 L  RAMPUP_G6_T47
 L  RAMPDN_G6_T47
 L  RAMPUP_G7_T47
 L  RAMPDN_G7_T47
 L  RAMPUP_G8_T47
 L  RAMPDN_G8_T47
 L  RAMPUP_G9_T47
 L  RAMPDN_G9_T47
 L  RAMPUP_G10_T47
 L  RAMPDN_G10_T47
 L  RAMPUP_G11_T47
 L  RAMPDN_G11_T47
 L  RAMPUP_G12_T47
 L  RAMPDN_G12_T47
 L  RAMPUP_G13_T47
 L  RAMPDN_G13_T47
 L  RAMPUP_G14_T47
 L  RAMPDN_G14_T47
 L  RAMPUP_G15_T47
 L  RAMPDN_G15_T47
 L  RAMPUP_G16_T47
 L  RAMPDN_G16_T47
 L  RAMPUP_G17_T47
 L  RAMPDN_G17_T47
 L  RAMPUP_G18_T47
 L  RAMPDN_G18_T47
 L  RAMPUP_G19_T47
 L  RAMPDN_G19_T47
COLUMNS
    MARK0000  'MARKER'                 'INTORG'
    U_G0_T0   TOTAL_COST  141
    U_G0_T0   RESERVE_T0  235
    U_G0_T0   PMAX_G0_T0  -235
    U_G0_T0   PMIN_G0_T0  -65
    MARK1000  'MARKER'                 'INTEND'
    MARK2000  'MARKER'                 'INTORG'
    U_G1_T0   TOTAL_COST  182
    U_G1_T0   RESERVE_T0  223
    U_G1_T0   PMAX_G1_T0  -223
    U_G1_T0   PMIN_G1_T0  -26
    MARK3000  'MARKER'                 'INTEND'
    MARK4000  'MARKER'                 'INTORG'
    U_G2_T0   TOTAL_COST  291
    U_G2_T0   RESERVE_T0  214
    U_G2_T0   PMAX_G2_T0  -214
    U_G2_T0   PMIN_G2_T0  -21
    MARK5000  'MARKER'                 'INTEND'
    MARK6000  'MARKER'                 'INTORG'
    U_G3_T0   TOTAL_COST  114
    U_G3_T0   RESERVE_T0  256
    U_G3_T0   PMAX_G3_T0  -256
    U_G3_T0   PMIN_G3_T0  -77
    MARK7000  'MARKER'                 'INTEND'
    MARK8000  'MARKER'                 'INTORG'
    U_G4_T0   TOTAL_COST  130
    U_G4_T0   RESERVE_T0  147
    U_G4_T0   PMAX_G4_T0  -147
    U_G4_T0   PMIN_G4_T0  -65
    MARK9000  'MARKER'                 'INTEND'
    MARK1000  'MARKER'                 'INTORG'
    U_G5_T0   TOTAL_COST  332
    U_G5_T0   RESERVE_T0  215
    U_G5_T0   PMAX_G5_T0  -215
    U_G5_T0   PMIN_G5_T0  -26
    MARK1100  'MARKER'                 'INTEND'
    MARK1200  'MARKER'                 'INTORG'
    U_G6_T0   TOTAL_COST  341
    U_G6_T0   RESERVE_T0  178
    U_G6_T0   PMAX_G6_T0  -178
    U_G6_T0   PMIN_G6_T0  -65
    MARK1300  'MARKER'                 'INTEND'
    MARK1400  'MARKER'                 'INTORG'
    U_G7_T0   TOTAL_COST  189
    U_G7_T0   RESERVE_T0  254
    U_G7_T0   PMAX_G7_T0  -254
    U_G7_T0   PMIN_G7_T0  -76
    MARK1500  'MARKER'                 'INTEND'
    MARK1600  'MARKER'                 'INTORG'
    U_G8_T0   TOTAL_COST  247
    U_G8_T0   RESERVE_T0  203
    U_G8_T0   PMAX_G8_T0  -203
    U_G8_T0   PMIN_G8_T0  -62
    MARK1700  'MARKER'                 'INTEND'
    MARK1800  'MARKER'                 'INTORG'
    U_G9_T0   TOTAL_COST  300
    U_G9_T0   RESERVE_T0  209
    U_G9_T0   PMAX_G9_T0  -209
    U_G9_T0   PMIN_G9_T0  -56
    MARK1900  'MARKER'                 'INTEND'
    MARK2000  'MARKER'                 'INTORG'
    U_G10_T0  TOTAL_COST  346
    U_G10_T0  RESERVE_T0  136
    U_G10_T0  PMAX_G10_T0  -136
    U_G10_T0  PMIN_G10_T0  -46
    MARK2100  'MARKER'                 'INTEND'
    MARK2200  'MARKER'                 'INTORG'
    U_G11_T0  TOTAL_COST  286
    U_G11_T0  RESERVE_T0  299
    U_G11_T0  PMAX_G11_T0  -299
    U_G11_T0  PMIN_G11_T0  -47
    MARK2300  'MARKER'                 'INTEND'
    MARK2400  'MARKER'                 'INTORG'
    U_G12_T0  TOTAL_COST  248
    U_G12_T0  RESERVE_T0  206
    U_G12_T0  PMAX_G12_T0  -206
    U_G12_T0  PMIN_G12_T0  -72
    MARK2500  'MARKER'                 'INTEND'
    MARK2600  'MARKER'                 'INTORG'
    U_G13_T0  TOTAL_COST  209
    U_G13_T0  RESERVE_T0  173
    U_G13_T0  PMAX_G13_T0  -173
    U_G13_T0  PMIN_G13_T0  -39
    MARK2700  'MARKER'                 'INTEND'
    MARK2800  'MARKER'                 'INTORG'
    U_G14_T0  TOTAL_COST  295
    U_G14_T0  RESERVE_T0  243
    U_G14_T0  PMAX_G14_T0  -243
    U_G14_T0  PMIN_G14_T0  -38
    MARK2900  'MARKER'                 'INTEND'
    MARK3000  'MARKER'                 'INTORG'
    U_G15_T0  TOTAL_COST  221
    U_G15_T0  RESERVE_T0  237
    U_G15_T0  PMAX_G15_T0  -237
    U_G15_T0  PMIN_G15_T0  -67
    MARK3100  'MARKER'                 'INTEND'
    MARK3200  'MARKER'                 'INTORG'
    U_G16_T0  TOTAL_COST  278
    U_G16_T0  RESERVE_T0  174
    U_G16_T0  PMAX_G16_T0  -174
    U_G16_T0  PMIN_G16_T0  -41
    MARK3300  'MARKER'                 'INTEND'
    MARK3400  'MARKER'                 'INTORG'
    U_G17_T0  TOTAL_COST  256
    U_G17_T0  RESERVE_T0  232
    U_G17_T0  PMAX_G17_T0  -232
    U_G17_T0  PMIN_G17_T0  -28
    MARK3500  'MARKER'                 'INTEND'
    MARK3600  'MARKER'                 'INTORG'
    U_G18_T0  TOTAL_COST  284
    U_G18_T0  RESERVE_T0  186
    U_G18_T0  PMAX_G18_T0  -186
    U_G18_T0  PMIN_G18_T0  -24
    MARK3700  'MARKER'                 'INTEND'
    MARK3800  'MARKER'                 'INTORG'
    U_G19_T0  TOTAL_COST  259
    U_G19_T0  RESERVE_T0  253
    U_G19_T0  PMAX_G19_T0  -253
    U_G19_T0  PMIN_G19_T0  -76
    MARK3900  'MARKER'                 'INTEND'
    P_G0_T0   TOTAL_COST  50.1
    P_G0_T0   DEMAND_T0  1
    P_G0_T0   PMAX_G0_T0  1
    P_G0_T0   PMIN_G0_T0  1
    P_G0_T0   RAMPUP_G0_T1  -1
    P_G0_T0   RAMPDN_G0_T1  1
    P_G1_T0   TOTAL_COST  34.9
    P_G1_T0   DEMAND_T0  1
    P_G1_T0   PMAX_G1_T0  1
    P_G1_T0   PMIN_G1_T0  1
    P_G1_T0   RAMPUP_G1_T1  -1
    P_G1_T0   RAMPDN_G1_T1  1
    P_G2_T0   TOTAL_COST  47.4
    P_G2_T0   DEMAND_T0  1
    P_G2_T0   PMAX_G2_T0  1
    P_G2_T0   PMIN_G2_T0  1
    P_G2_T0   RAMPUP_G2_T1  -1
    P_G2_T0   RAMPDN_G2_T1  1
    P_G3_T0   TOTAL_COST  38
    P_G3_T0   DEMAND_T0  1
    P_G3_T0   PMAX_G3_T0  1
    P_G3_T0   PMIN_G3_T0  1
    P_G3_T0   RAMPUP_G3_T1  -1
    P_G3_T0   RAMPDN_G3_T1  1
    P_G4_T0   TOTAL_COST  37
    P_G4_T0   DEMAND_T0  1
    P_G4_T0   PMAX_G4_T0  1
    P_G4_T0   PMIN_G4_T0  1
    P_G4_T0   RAMPUP_G4_T1  -1
    P_G4_T0   RAMPDN_G4_T1  1
    P_G5_T0   TOTAL_COST  37.8
    P_G5_T0   DEMAND_T0  1
    P_G5_T0   PMAX_G5_T0  1
    P_G5_T0   PMIN_G5_T0  1
    P_G5_T0   RAMPUP_G5_T1  -1
    P_G5_T0   RAMPDN_G5_T1  1
    P_G6_T0   TOTAL_COST  50
    P_G6_T0   DEMAND_T0  1
    P_G6_T0   PMAX_G6_T0  1
    P_G6_T0   PMIN_G6_T0  1
    P_G6_T0   RAMPUP_G6_T1  -1
    P_G6_T0   RAMPDN_G6_T1  1
    P_G7_T0   TOTAL_COST  36.6
    P_G7_T0   DEMAND_T0  1
    P_G7_T0   PMAX_G7_T0  1
    P_G7_T0   PMIN_G7_T0  1
    P_G7_T0   RAMPUP_G7_T1  -1
    P_G7_T0   RAMPDN_G7_T1  1
    P_G8_T0   TOTAL_COST  41.5
    P_G8_T0   DEMAND_T0  1
    P_G8_T0   PMAX_G8_T0  1
    P_G8_T0   PMIN_G8_T0  1
    P_G8_T0   RAMPUP_G8_T1  -1
    P_G8_T0   RAMPDN_G8_T1  1
    P_G9_T0   TOTAL_COST  35.4
    P_G9_T0   DEMAND_T0  1
    P_G9_T0   PMAX_G9_T0  1
    P_G9_T0   PMIN_G9_T0  1
    P_G9_T0   RAMPUP_G9_T1  -1
    P_G9_T0   RAMPDN_G9_T1  1
    P_G10_T0  TOTAL_COST  23
    P_G10_T0  DEMAND_T0  1
    P_G10_T0  PMAX_G10_T0  1
    P_G10_T0  PMIN_G10_T0  1
    P_G10_T0  RAMPUP_G10_T1  -1
    P_G10_T0  RAMPDN_G10_T1  1
    P_G11_T0  TOTAL_COST  43.8
    P_G11_T0  DEMAND_T0  1
    P_G11_T0  PMAX_G11_T0  1
    P_G11_T0  PMIN_G11_T0  1
    P_G11_T0  RAMPUP_G11_T1  -1
    P_G11_T0  RAMPDN_G11_T1  1
    P_G12_T0  TOTAL_COST  53
    P_G12_T0  DEMAND_T0  1
    P_G12_T0  PMAX_G12_T0  1
    P_G12_T0  PMIN_G12_T0  1
    P_G12_T0  RAMPUP_G12_T1  -1
    P_G12_T0  RAMPDN_G12_T1  1
    P_G13_T0  TOTAL_COST  40.9
    P_G13_T0  DEMAND_T0  1
    P_G13_T0  PMAX_G13_T0  1
    P_G13_T0  PMIN_G13_T0  1
    P_G13_T0  RAMPUP_G13_T1  -1
    P_G13_T0  RAMPDN_G13_T1  1
    P_G14_T0  TOTAL_COST  49.2
    P_G14_T0  DEMAND_T0  1
    P_G14_T0  PMAX_G14_T0  1
    P_G14_T0  PMIN_G14_T0  1
    P_G14_T0  RAMPUP_G14_T1  -1
    P_G14_T0  RAMPDN_G14_T1  1
    P_G15_T0  TOTAL_COST  51.8
    P_G15_T0  DEMAND_T0  1
    P_G15_T0  PMAX_G15_T0  1
    P_G15_T0  PMIN_G15_T0  1
    P_G15_T0  RAMPUP_G15_T1  -1
    P_G15_T0  RAMPDN_G15_T1  1
    P_G16_T0  TOTAL_COST  49.5
    P_G16_T0  DEMAND_T0  1
    P_G16_T0  PMAX_G16_T0  1
    P_G16_T0  PMIN_G16_T0  1
    P_G16_T0  RAMPUP_G16_T1  -1
    P_G16_T0  RAMPDN_G16_T1  1
    P_G17_T0  TOTAL_COST  43.7
    P_G17_T0  DEMAND_T0  1
    P_G17_T0  PMAX_G17_T0  1
    P_G17_T0  PMIN_G17_T0  1
    P_G17_T0  RAMPUP_G17_T1  -1
    P_G17_T0  RAMPDN_G17_T1  1
    P_G18_T0  TOTAL_COST  49.4
    P_G18_T0  DEMAND_T0  1
    P_G18_T0  PMAX_G18_T0  1
    P_G18_T0  PMIN_G18_T0  1
    P_G18_T0  RAMPUP_G18_T1  -1
    P_G18_T0  RAMPDN_G18_T1  1
    P_G19_T0  TOTAL_COST  29.2
    P_G19_T0  DEMAND_T0  1
    P_G19_T0  PMAX_G19_T0  1
    P_G19_T0  PMIN_G19_T0  1
    P_G19_T0  RAMPUP_G19_T1  -1
    P_G19_T0  RAMPDN_G19_T1  1
    MARK4000  'MARKER'                 'INTORG'
    U_G0_T1   TOTAL_COST  141
    U_G0_T1   RESERVE_T1  235
    U_G0_T1   PMAX_G0_T1  -235
    U_G0_T1   PMIN_G0_T1  -65
    MARK4100  'MARKER'                 'INTEND'
    MARK4200  'MARKER'                 'INTORG'
    U_G1_T1   TOTAL_COST  182
    U_G1_T1   RESERVE_T1  223
    U_G1_T1   PMAX_G1_T1  -223
    U_G1_T1   PMIN_G1_T1  -26
    MARK4300  'MARKER'                 'INTEND'
    MARK4400  'MARKER'                 'INTORG'
    U_G2_T1   TOTAL_COST  291
    U_G2_T1   RESERVE_T1  214
    U_G2_T1   PMAX_G2_T1  -214
    U_G2_T1   PMIN_G2_T1  -21
    MARK4500  'MARKER'                 'INTEND'
    MARK4600  'MARKER'                 'INTORG'
    U_G3_T1   TOTAL_COST  114
    U_G3_T1   RESERVE_T1  256
    U_G3_T1   PMAX_G3_T1  -256
    U_G3_T1   PMIN_G3_T1  -77
    MARK4700  'MARKER'                 'INTEND'
    MARK4800  'MARKER'                 'INTORG'
    U_G4_T1   TOTAL_COST  130
    U_G4_T1   RESERVE_T1  147
    U_G4_T1   PMAX_G4_T1  -147
    U_G4_T1   PMIN_G4_T1  -65
    MARK4900  'MARKER'                 'INTEND'
    MARK5000  'MARKER'                 'INTORG'
    U_G5_T1   TOTAL_COST  332
    U_G5_T1   RESERVE_T1  215
    U_G5_T1   PMAX_G5_T1  -215
    U_G5_T1   PMIN_G5_T1  -26
    MARK5100  'MARKER'                 'INTEND'
    MARK5200  'MARKER'                 'INTORG'
    U_G6_T1   TOTAL_COST  341
    U_G6_T1   RESERVE_T1  178
    U_G6_T1   PMAX_G6_T1  -178
    U_G6_T1   PMIN_G6_T1  -65
    MARK5300  'MARKER'                 'INTEND'
    MARK5400  'MARKER'                 'INTORG'
    U_G7_T1   TOTAL_COST  189
    U_G7_T1   RESERVE_T1  254
    U_G7_T1   PMAX_G7_T1  -254
    U_G7_T1   PMIN_G7_T1  -76
    MARK5500  'MARKER'                 'INTEND'
    MARK5600  'MARKER'                 'INTORG'
    U_G8_T1   TOTAL_COST  247
    U_G8_T1   RESERVE_T1  203
    U_G8_T1   PMAX_G8_T1  -203
    U_G8_T1   PMIN_G8_T1  -62
    MARK5700  'MARKER'                 'INTEND'
    MARK5800  'MARKER'                 'INTORG'
    U_G9_T1   TOTAL_COST  300
    U_G9_T1   RESERVE_T1  209
    U_G9_T1   PMAX_G9_T1  -209
    U_G9_T1   PMIN_G9_T1  -56
    MARK5900  'MARKER'                 'INTEND'
    MARK6000  'MARKER'                 'INTORG'
    U_G10_T1  TOTAL_COST  346
    U_G10_T1  RESERVE_T1  136
    U_G10_T1  PMAX_G10_T1  -136
    U_G10_T1  PMIN_G10_T1  -46
    MARK6100  'MARKER'                 'INTEND'
    MARK6200  'MARKER'                 'INTORG'
    U_G11_T1  TOTAL_COST  286
    U_G11_T1  RESERVE_T1  299
    U_G11_T1  PMAX_G11_T1  -299
    U_G11_T1  PMIN_G11_T1  -47
    MARK6300  'MARKER'                 'INTEND'
    MARK6400  'MARKER'                 'INTORG'
    U_G12_T1  TOTAL_COST  248
    U_G12_T1  RESERVE_T1  206
    U_G12_T1  PMAX_G12_T1  -206
    U_G12_T1  PMIN_G12_T1  -72
    MARK6500  'MARKER'                 'INTEND'
    MARK6600  'MARKER'                 'INTORG'
    U_G13_T1  TOTAL_COST  209
    U_G13_T1  RESERVE_T1  173
    U_G13_T1  PMAX_G13_T1  -173
    U_G13_T1  PMIN_G13_T1  -39
    MARK6700  'MARKER'                 'INTEND'
    MARK6800  'MARKER'                 'INTORG'
    U_G14_T1  TOTAL_COST  295
    U_G14_T1  RESERVE_T1  243
    U_G14_T1  PMAX_G14_T1  -243
    U_G14_T1  PMIN_G14_T1  -38
    MARK6900  'MARKER'                 'INTEND'
    MARK7000  'MARKER'                 'INTORG'
    U_G15_T1  TOTAL_COST  221
    U_G15_T1  RESERVE_T1  237
    U_G15_T1  PMAX_G15_T1  -237
    U_G15_T1  PMIN_G15_T1  -67
    MARK7100  'MARKER'                 'INTEND'
    MARK7200  'MARKER'                 'INTORG'
    U_G16_T1  TOTAL_COST  278
    U_G16_T1  RESERVE_T1  174
    U_G16_T1  PMAX_G16_T1  -174
    U_G16_T1  PMIN_G16_T1  -41
    MARK7300  'MARKER'                 'INTEND'
    MARK7400  'MARKER'                 'INTORG'
    U_G17_T1  TOTAL_COST  256
    U_G17_T1  RESERVE_T1  232
    U_G17_T1  PMAX_G17_T1  -232
    U_G17_T1  PMIN_G17_T1  -28
    MARK7500  'MARKER'                 'INTEND'
    MARK7600  'MARKER'                 'INTORG'
    U_G18_T1  TOTAL_COST  284
    U_G18_T1  RESERVE_T1  186
    U_G18_T1  PMAX_G18_T1  -186
    U_G18_T1  PMIN_G18_T1  -24
    MARK7700  'MARKER'                 'INTEND'
    MARK7800  'MARKER'                 'INTORG'
    U_G19_T1  TOTAL_COST  259
    U_G19_T1  RESERVE_T1  253
    U_G19_T1  PMAX_G19_T1  -253
    U_G19_T1  PMIN_G19_T1  -76
    MARK7900  'MARKER'                 'INTEND'
    P_G0_T1   TOTAL_COST  50.1
    P_G0_T1   DEMAND_T1  1
    P_G0_T1   PMAX_G0_T1  1
    P_G0_T1   PMIN_G0_T1  1
    P_G0_T1   RAMPUP_G0_T1  1
    P_G0_T1   RAMPDN_G0_T1  -1
    P_G0_T1   RAMPUP_G0_T2  -1
    P_G0_T1   RAMPDN_G0_T2  1
    P_G1_T1   TOTAL_COST  34.9
    P_G1_T1   DEMAND_T1  1
    P_G1_T1   PMAX_G1_T1  1
    P_G1_T1   PMIN_G1_T1  1
    P_G1_T1   RAMPUP_G1_T1  1
    P_G1_T1   RAMPDN_G1_T1  -1
    P_G1_T1   RAMPUP_G1_T2  -1
    P_G1_T1   RAMPDN_G1_T2  1
    P_G2_T1   TOTAL_COST  47.4
    P_G2_T1   DEMAND_T1  1
    P_G2_T1   PMAX_G2_T1  1
    P_G2_T1   PMIN_G2_T1  1
    P_G2_T1   RAMPUP_G2_T1  1
    P_G2_T1   RAMPDN_G2_T1  -1
    P_G2_T1   RAMPUP_G2_T2  -1
    P_G2_T1   RAMPDN_G2_T2  1
    P_G3_T1   TOTAL_COST  38
    P_G3_T1   DEMAND_T1  1
    P_G3_T1   PMAX_G3_T1  1
    P_G3_T1   PMIN_G3_T1  1
    P_G3_T1   RAMPUP_G3_T1  1
    P_G3_T1   RAMPDN_G3_T1  -1
    P_G3_T1   RAMPUP_G3_T2  -1
    P_G3_T1   RAMPDN_G3_T2  1
    P_G4_T1   TOTAL_COST  37
    P_G4_T1   DEMAND_T1  1
    P_G4_T1   PMAX_G4_T1  1
    P_G4_T1   PMIN_G4_T1  1
    P_G4_T1   RAMPUP_G4_T1  1
    P_G4_T1   RAMPDN_G4_T1  -1
    P_G4_T1   RAMPUP_G4_T2  -1
    P_G4_T1   RAMPDN_G4_T2  1
    P_G5_T1   TOTAL_COST  37.8
    P_G5_T1   DEMAND_T1  1
    P_G5_T1   PMAX_G5_T1  1
    P_G5_T1   PMIN_G5_T1  1
    P_G5_T1   RAMPUP_G5_T1  1
    P_G5_T1   RAMPDN_G5_T1  -1
    P_G5_T1   RAMPUP_G5_T2  -1
    P_G5_T1   RAMPDN_G5_T2  1
    P_G6_T1   TOTAL_COST  50
    P_G6_T1   DEMAND_T1  1
    P_G6_T1   PMAX_G6_T1  1
    P_G6_T1   PMIN_G6_T1  1
    P_G6_T1   RAMPUP_G6_T1  1
    P_G6_T1   RAMPDN_G6_T1  -1
    P_G6_T1   RAMPUP_G6_T2  -1
    P_G6_T1   RAMPDN_G6_T2  1
    P_G7_T1   TOTAL_COST  36.6
    P_G7_T1   DEMAND_T1  1
    P_G7_T1   PMAX_G7_T1  1
    P_G7_T1   PMIN_G7_T1  1
    P_G7_T1   RAMPUP_G7_T1  1
    P_G7_T1   RAMPDN_G7_T1  -1
    P_G7_T1   RAMPUP_G7_T2  -1
    P_G7_T1   RAMPDN_G7_T2  1
    P_G8_T1   TOTAL_COST  41.5
    P_G8_T1   DEMAND_T1  1
    P_G8_T1   PMAX_G8_T1  1
    P_G8_T1   PMIN_G8_T1  1
    P_G8_T1   RAMPUP_G8_T1  1
    P_G8_T1   RAMPDN_G8_T1  -1
    P_G8_T1   RAMPUP_G8_T2  -1
    P_G8_T1   RAMPDN_G8_T2  1
    P_G9_T1   TOTAL_COST  35.4
    P_G9_T1   DEMAND_T1  1
    P_G9_T1   PMAX_G9_T1  1
    P_G9_T1   PMIN_G9_T1  1
    P_G9_T1   RAMPUP_G9_T1  1
    P_G9_T1   RAMPDN_G9_T1  -1
    P_G9_T1   RAMPUP_G9_T2  -1
    P_G9_T1   RAMPDN_G9_T2  1
    P_G10_T1  TOTAL_COST  23
    P_G10_T1  DEMAND_T1  1
    P_G10_T1  PMAX_G10_T1  1
    P_G10_T1  PMIN_G10_T1  1
    P_G10_T1  RAMPUP_G10_T1  1
    P_G10_T1  RAMPDN_G10_T1  -1
    P_G10_T1  RAMPUP_G10_T2  -1
    P_G10_T1  RAMPDN_G10_T2  1
    P_G11_T1  TOTAL_COST  43.8
    P_G11_T1  DEMAND_T1  1
    P_G11_T1  PMAX_G11_T1  1
    P_G11_T1  PMIN_G11_T1  1
    P_G11_T1  RAMPUP_G11_T1  1
    P_G11_T1  RAMPDN_G11_T1  -1
    P_G11_T1  RAMPUP_G11_T2  -1
    P_G11_T1  RAMPDN_G11_T2  1
    P_G12_T1  TOTAL_COST  53
    P_G12_T1  DEMAND_T1  1
    P_G12_T1  PMAX_G12_T1  1
    P_G12_T1  PMIN_G12_T1  1
    P_G12_T1  RAMPUP_G12_T1  1
    P_G12_T1  RAMPDN_G12_T1  -1
    P_G12_T1  RAMPUP_G12_T2  -1
    P_G12_T1  RAMPDN_G12_T2  1
    P_G13_T1  TOTAL_COST  40.9
    P_G13_T1  DEMAND_T1  1
    P_G13_T1  PMAX_G13_T1  1
    P_G13_T1  PMIN_G13_T1  1
    P_G13_T1  RAMPUP_G13_T1  1
    P_G13_T1  RAMPDN_G13_T1  -1
    P_G13_T1  RAMPUP_G13_T2  -1
    P_G13_T1  RAMPDN_G13_T2  1
    P_G14_T1  TOTAL_COST  49.2
    P_G14_T1  DEMAND_T1  1
    P_G14_T1  PMAX_G14_T1  1
    P_G14_T1  PMIN_G14_T1  1
    P_G14_T1  RAMPUP_G14_T1  1
    P_G14_T1  RAMPDN_G14_T1  -1
    P_G14_T1  RAMPUP_G14_T2  -1
    P_G14_T1  RAMPDN_G14_T2  1
    P_G15_T1  TOTAL_COST  51.8
    P_G15_T1  DEMAND_T1  1
    P_G15_T1  PMAX_G15_T1  1
    P_G15_T1  PMIN_G15_T1  1
    P_G15_T1  RAMPUP_G15_T1  1
    P_G15_T1  RAMPDN_G15_T1  -1
    P_G15_T1  RAMPUP_G15_T2  -1
    P_G15_T1  RAMPDN_G15_T2  1
    P_G16_T1  TOTAL_COST  49.5
    P_G16_T1  DEMAND_T1  1
    P_G16_T1  PMAX_G16_T1  1
    P_G16_T1  PMIN_G16_T1  1
    P_G16_T1  RAMPUP_G16_T1  1
    P_G16_T1  RAMPDN_G16_T1  -1
    P_G16_T1  RAMPUP_G16_T2  -1
    P_G16_T1  RAMPDN_G16_T2  1
    P_G17_T1  TOTAL_COST  43.7
    P_G17_T1  DEMAND_T1  1
    P_G17_T1  PMAX_G17_T1  1
    P_G17_T1  PMIN_G17_T1  1
    P_G17_T1  RAMPUP_G17_T1  1
    P_G17_T1  RAMPDN_G17_T1  -1
    P_G17_T1  RAMPUP_G17_T2  -1
    P_G17_T1  RAMPDN_G17_T2  1
    P_G18_T1  TOTAL_COST  49.4
    P_G18_T1  DEMAND_T1  1
    P_G18_T1  PMAX_G18_T1  1
    P_G18_T1  PMIN_G18_T1  1
    P_G18_T1  RAMPUP_G18_T1  1
    P_G18_T1  RAMPDN_G18_T1  -1
    P_G18_T1  RAMPUP_G18_T2  -1
    P_G18_T1  RAMPDN_G18_T2  1
    P_G19_T1  TOTAL_COST  29.2
    P_G19_T1  DEMAND_T1  1
    P_G19_T1  PMAX_G19_T1  1
    P_G19_T1  PMIN_G19_T1  1
    P_G19_T1  RAMPUP_G19_T1  1
    P_G19_T1  RAMPDN_G19_T1  -1
    P_G19_T1  RAMPUP_G19_T2  -1
    P_G19_T1  RAMPDN_G19_T2  1
    MARK8000  'MARKER'                 'INTORG'
    U_G0_T2   TOTAL_COST  141
    U_G0_T2   RESERVE_T2  235
    U_G0_T2   PMAX_G0_T2  -235
    U_G0_T2   PMIN_G0_T2  -65
    MARK8100  'MARKER'                 'INTEND'
    MARK8200  'MARKER'                 'INTORG'
    U_G1_T2   TOTAL_COST  182
    U_G1_T2   RESERVE_T2  223
    U_G1_T2   PMAX_G1_T2  -223
    U_G1_T2   PMIN_G1_T2  -26
    MARK8300  'MARKER'                 'INTEND'
    MARK8400  'MARKER'                 'INTORG'
    U_G2_T2   TOTAL_COST  291
    U_G2_T2   RESERVE_T2  214
    U_G2_T2   PMAX_G2_T2  -214
    U_G2_T2   PMIN_G2_T2  -21
    MARK8500  'MARKER'                 'INTEND'
    MARK8600  'MARKER'                 'INTORG'
    U_G3_T2   TOTAL_COST  114
    U_G3_T2   RESERVE_T2  256
    U_G3_T2   PMAX_G3_T2  -256
    U_G3_T2   PMIN_G3_T2  -77
    MARK8700  'MARKER'                 'INTEND'
    MARK8800  'MARKER'                 'INTORG'
    U_G4_T2   TOTAL_COST  130
    U_G4_T2   RESERVE_T2  147
    U_G4_T2   PMAX_G4_T2  -147
    U_G4_T2   PMIN_G4_T2  -65
    MARK8900  'MARKER'                 'INTEND'
    MARK9000  'MARKER'                 'INTORG'
    U_G5_T2   TOTAL_COST  332
    U_G5_T2   RESERVE_T2  215
    U_G5_T2   PMAX_G5_T2  -215
    U_G5_T2   PMIN_G5_T2  -26
    MARK9100  'MARKER'                 'INTEND'
    MARK9200  'MARKER'                 'INTORG'
    U_G6_T2   TOTAL_COST  341
    U_G6_T2   RESERVE_T2  178
    U_G6_T2   PMAX_G6_T2  -178
    U_G6_T2   PMIN_G6_T2  -65
    MARK9300  'MARKER'                 'INTEND'
    MARK9400  'MARKER'                 'INTORG'
    U_G7_T2   TOTAL_COST  189
    U_G7_T2   RESERVE_T2  254
    U_G7_T2   PMAX_G7_T2  -254
    U_G7_T2   PMIN_G7_T2  -76
    MARK9500  'MARKER'                 'INTEND'
    MARK9600  'MARKER'                 'INTORG'
    U_G8_T2   TOTAL_COST  247
    U_G8_T2   RESERVE_T2  203
    U_G8_T2   PMAX_G8_T2  -203
    U_G8_T2   PMIN_G8_T2  -62
    MARK9700  'MARKER'                 'INTEND'
    MARK9800  'MARKER'                 'INTORG'
    U_G9_T2   TOTAL_COST  300
    U_G9_T2   RESERVE_T2  209
    U_G9_T2   PMAX_G9_T2  -209
    U_G9_T2   PMIN_G9_T2  -56
    MARK9900  'MARKER'                 'INTEND'
    MARK1000  'MARKER'                 'INTORG'
    U_G10_T2  TOTAL_COST  346
    U_G10_T2  RESERVE_T2  136
    U_G10_T2  PMAX_G10_T2  -136
    U_G10_T2  PMIN_G10_T2  -46
    MARK1010  'MARKER'                 'INTEND'
    MARK1020  'MARKER'                 'INTORG'
    U_G11_T2  TOTAL_COST  286
    U_G11_T2  RESERVE_T2  299
    U_G11_T2  PMAX_G11_T2  -299
    U_G11_T2  PMIN_G11_T2  -47
    MARK1030  'MARKER'                 'INTEND'
    MARK1040  'MARKER'                 'INTORG'
    U_G12_T2  TOTAL_COST  248
    U_G12_T2  RESERVE_T2  206
    U_G12_T2  PMAX_G12_T2  -206
    U_G12_T2  PMIN_G12_T2  -72
    MARK1050  'MARKER'                 'INTEND'
    MARK1060  'MARKER'                 'INTORG'
    U_G13_T2  TOTAL_COST  209
    U_G13_T2  RESERVE_T2  173
    U_G13_T2  PMAX_G13_T2  -173
    U_G13_T2  PMIN_G13_T2  -39
    MARK1070  'MARKER'                 'INTEND'
    MARK1080  'MARKER'                 'INTORG'
    U_G14_T2  TOTAL_COST  295
    U_G14_T2  RESERVE_T2  243
    U_G14_T2  PMAX_G14_T2  -243
    U_G14_T2  PMIN_G14_T2  -38
    MARK1090  'MARKER'                 'INTEND'
    MARK1100  'MARKER'                 'INTORG'
    U_G15_T2  TOTAL_COST  221
    U_G15_T2  RESERVE_T2  237
    U_G15_T2  PMAX_G15_T2  -237
    U_G15_T2  PMIN_G15_T2  -67
    MARK1110  'MARKER'                 'INTEND'
    MARK1120  'MARKER'                 'INTORG'
    U_G16_T2  TOTAL_COST  278
    U_G16_T2  RESERVE_T2  174
    U_G16_T2  PMAX_G16_T2  -174
    U_G16_T2  PMIN_G16_T2  -41
    MARK1130  'MARKER'                 'INTEND'
    MARK1140  'MARKER'                 'INTORG'
    U_G17_T2  TOTAL_COST  256
    U_G17_T2  RESERVE_T2  232
    U_G17_T2  PMAX_G17_T2  -232
    U_G17_T2  PMIN_G17_T2  -28
    MARK1150  'MARKER'                 'INTEND'
    MARK1160  'MARKER'                 'INTORG'
    U_G18_T2  TOTAL_COST  284
    U_G18_T2  RESERVE_T2  186
    U_G18_T2  PMAX_G18_T2  -186
    U_G18_T2  PMIN_G18_T2  -24
    MARK1170  'MARKER'                 'INTEND'
    MARK1180  'MARKER'                 'INTORG'
    U_G19_T2  TOTAL_COST  259
    U_G19_T2  RESERVE_T2  253
    U_G19_T2  PMAX_G19_T2  -253
    U_G19_T2  PMIN_G19_T2  -76
    MARK1190  'MARKER'                 'INTEND'
    P_G0_T2   TOTAL_COST  50.1
    P_G0_T2   DEMAND_T2  1
    P_G0_T2   PMAX_G0_T2  1
    P_G0_T2   PMIN_G0_T2  1
    P_G0_T2   RAMPUP_G0_T2  1
    P_G0_T2   RAMPDN_G0_T2  -1
    P_G0_T2   RAMPUP_G0_T3  -1
    P_G0_T2   RAMPDN_G0_T3  1
    P_G1_T2   TOTAL_COST  34.9
    P_G1_T2   DEMAND_T2  1
    P_G1_T2   PMAX_G1_T2  1
    P_G1_T2   PMIN_G1_T2  1
    P_G1_T2   RAMPUP_G1_T2  1
    P_G1_T2   RAMPDN_G1_T2  -1
    P_G1_T2   RAMPUP_G1_T3  -1
    P_G1_T2   RAMPDN_G1_T3  1
    P_G2_T2   TOTAL_COST  47.4
    P_G2_T2   DEMAND_T2  1
    P_G2_T2   PMAX_G2_T2  1
    P_G2_T2   PMIN_G2_T2  1
    P_G2_T2   RAMPUP_G2_T2  1
    P_G2_T2   RAMPDN_G2_T2  -1
    P_G2_T2   RAMPUP_G2_T3  -1
    P_G2_T2   RAMPDN_G2_T3  1
    P_G3_T2   TOTAL_COST  38
    P_G3_T2   DEMAND_T2  1
    P_G3_T2   PMAX_G3_T2  1
    P_G3_T2   PMIN_G3_T2  1
    P_G3_T2   RAMPUP_G3_T2  1
    P_G3_T2   RAMPDN_G3_T2  -1
    P_G3_T2   RAMPUP_G3_T3  -1
    P_G3_T2   RAMPDN_G3_T3  1
    P_G4_T2   TOTAL_COST  37
    P_G4_T2   DEMAND_T2  1
    P_G4_T2   PMAX_G4_T2  1
    P_G4_T2   PMIN_G4_T2  1
    P_G4_T2   RAMPUP_G4_T2  1
    P_G4_T2   RAMPDN_G4_T2  -1
    P_G4_T2   RAMPUP_G4_T3  -1
    P_G4_T2   RAMPDN_G4_T3  1
    P_G5_T2   TOTAL_COST  37.8
    P_G5_T2   DEMAND_T2  1
    P_G5_T2   PMAX_G5_T2  1
    P_G5_T2   PMIN_G5_T2  1
    P_G5_T2   RAMPUP_G5_T2  1
    P_G5_T2   RAMPDN_G5_T2  -1
    P_G5_T2   RAMPUP_G5_T3  -1
    P_G5_T2   RAMPDN_G5_T3  1
    P_G6_T2   TOTAL_COST  50
    P_G6_T2   DEMAND_T2  1
    P_G6_T2   PMAX_G6_T2  1
    P_G6_T2   PMIN_G6_T2  1
    P_G6_T2   RAMPUP_G6_T2  1
    P_G6_T2   RAMPDN_G6_T2  -1
    P_G6_T2   RAMPUP_G6_T3  -1
    P_G6_T2   RAMPDN_G6_T3  1
    P_G7_T2   TOTAL_COST  36.6
    P_G7_T2   DEMAND_T2  1
    P_G7_T2   PMAX_G7_T2  1
    P_G7_T2   PMIN_G7_T2  1
    P_G7_T2   RAMPUP_G7_T2  1
    P_G7_T2   RAMPDN_G7_T2  -1
    P_G7_T2   RAMPUP_G7_T3  -1
    P_G7_T2   RAMPDN_G7_T3  1
    P_G8_T2   TOTAL_COST  41.5
    P_G8_T2   DEMAND_T2  1
    P_G8_T2   PMAX_G8_T2  1
    P_G8_T2   PMIN_G8_T2  1
    P_G8_T2   RAMPUP_G8_T2  1
    P_G8_T2   RAMPDN_G8_T2  -1
    P_G8_T2   RAMPUP_G8_T3  -1
    P_G8_T2   RAMPDN_G8_T3  1
    P_G9_T2   TOTAL_COST  35.4
    P_G9_T2   DEMAND_T2  1
    P_G9_T2   PMAX_G9_T2  1
    P_G9_T2   PMIN_G9_T2  1
    P_G9_T2   RAMPUP_G9_T2  1
    P_G9_T2   RAMPDN_G9_T2  -1
    P_G9_T2   RAMPUP_G9_T3  -1
    P_G9_T2   RAMPDN_G9_T3  1
    P_G10_T2  TOTAL_COST  23
    P_G10_T2  DEMAND_T2  1
    P_G10_T2  PMAX_G10_T2  1
    P_G10_T2  PMIN_G10_T2  1
    P_G10_T2  RAMPUP_G10_T2  1
    P_G10_T2  RAMPDN_G10_T2  -1
    P_G10_T2  RAMPUP_G10_T3  -1
    P_G10_T2  RAMPDN_G10_T3  1
    P_G11_T2  TOTAL_COST  43.8
    P_G11_T2  DEMAND_T2  1
    P_G11_T2  PMAX_G11_T2  1
    P_G11_T2  PMIN_G11_T2  1
    P_G11_T2  RAMPUP_G11_T2  1
    P_G11_T2  RAMPDN_G11_T2  -1
    P_G11_T2  RAMPUP_G11_T3  -1
    P_G11_T2  RAMPDN_G11_T3  1
    P_G12_T2  TOTAL_COST  53
    P_G12_T2  DEMAND_T2  1
    P_G12_T2  PMAX_G12_T2  1
    P_G12_T2  PMIN_G12_T2  1
    P_G12_T2  RAMPUP_G12_T2  1
    P_G12_T2  RAMPDN_G12_T2  -1
    P_G12_T2  RAMPUP_G12_T3  -1
    P_G12_T2  RAMPDN_G12_T3  1
    P_G13_T2  TOTAL_COST  40.9
    P_G13_T2  DEMAND_T2  1
    P_G13_T2  PMAX_G13_T2  1
    P_G13_T2  PMIN_G13_T2  1
    P_G13_T2  RAMPUP_G13_T2  1
    P_G13_T2  RAMPDN_G13_T2  -1
    P_G13_T2  RAMPUP_G13_T3  -1
    P_G13_T2  RAMPDN_G13_T3  1
    P_G14_T2  TOTAL_COST  49.2
    P_G14_T2  DEMAND_T2  1
    P_G14_T2  PMAX_G14_T2  1
    P_G14_T2  PMIN_G14_T2  1
    P_G14_T2  RAMPUP_G14_T2  1
    P_G14_T2  RAMPDN_G14_T2  -1
    P_G14_T2  RAMPUP_G14_T3  -1
    P_G14_T2  RAMPDN_G14_T3  1
    P_G15_T2  TOTAL_COST  51.8
    P_G15_T2  DEMAND_T2  1
    P_G15_T2  PMAX_G15_T2  1
    P_G15_T2  PMIN_G15_T2  1
    P_G15_T2  RAMPUP_G15_T2  1
    P_G15_T2  RAMPDN_G15_T2  -1
    P_G15_T2  RAMPUP_G15_T3  -1
    P_G15_T2  RAMPDN_G15_T3  1
    P_G16_T2  TOTAL_COST  49.5
    P_G16_T2  DEMAND_T2  1
    P_G16_T2  PMAX_G16_T2  1
    P_G16_T2  PMIN_G16_T2  1
    P_G16_T2  RAMPUP_G16_T2  1
    P_G16_T2  RAMPDN_G16_T2  -1
    P_G16_T2  RAMPUP_G16_T3  -1
    P_G16_T2  RAMPDN_G16_T3  1
    P_G17_T2  TOTAL_COST  43.7
    P_G17_T2  DEMAND_T2  1
    P_G17_T2  PMAX_G17_T2  1
    P_G17_T2  PMIN_G17_T2  1
    P_G17_T2  RAMPUP_G17_T2  1
    P_G17_T2  RAMPDN_G17_T2  -1
    P_G17_T2  RAMPUP_G17_T3  -1
    P_G17_T2  RAMPDN_G17_T3  1
    P_G18_T2  TOTAL_COST  49.4
    P_G18_T2  DEMAND_T2  1
    P_G18_T2  PMAX_G18_T2  1
    P_G18_T2  PMIN_G18_T2  1
    P_G18_T2  RAMPUP_G18_T2  1
    P_G18_T2  RAMPDN_G18_T2  -1
    P_G18_T2  RAMPUP_G18_T3  -1
    P_G18_T2  RAMPDN_G18_T3  1
    P_G19_T2  TOTAL_COST  29.2
    P_G19_T2  DEMAND_T2  1
    P_G19_T2  PMAX_G19_T2  1
    P_G19_T2  PMIN_G19_T2  1
    P_G19_T2  RAMPUP_G19_T2  1
    P_G19_T2  RAMPDN_G19_T2  -1
    P_G19_T2  RAMPUP_G19_T3  -1
    P_G19_T2  RAMPDN_G19_T3  1
    MARK1200  'MARKER'                 'INTORG'
    U_G0_T3   TOTAL_COST  141
    U_G0_T3   RESERVE_T3  235
    U_G0_T3   PMAX_G0_T3  -235
    U_G0_T3   PMIN_G0_T3  -65
    MARK1210  'MARKER'                 'INTEND'
    MARK1220  'MARKER'                 'INTORG'
    U_G1_T3   TOTAL_COST  182
    U_G1_T3   RESERVE_T3  223
    U_G1_T3   PMAX_G1_T3  -223
    U_G1_T3   PMIN_G1_T3  -26
    MARK1230  'MARKER'                 'INTEND'
    MARK1240  'MARKER'                 'INTORG'
    U_G2_T3   TOTAL_COST  291
    U_G2_T3   RESERVE_T3  214
    U_G2_T3   PMAX_G2_T3  -214
    U_G2_T3   PMIN_G2_T3  -21
    MARK1250  'MARKER'                 'INTEND'
    MARK1260  'MARKER'                 'INTORG'
    U_G3_T3   TOTAL_COST  114
    U_G3_T3   RESERVE_T3  256
    U_G3_T3   PMAX_G3_T3  -256
    U_G3_T3   PMIN_G3_T3  -77
    MARK1270  'MARKER'                 'INTEND'
    MARK1280  'MARKER'                 'INTORG'
    U_G4_T3   TOTAL_COST  130
    U_G4_T3   RESERVE_T3  147
    U_G4_T3   PMAX_G4_T3  -147
    U_G4_T3   PMIN_G4_T3  -65
    MARK1290  'MARKER'                 'INTEND'
    MARK1300  'MARKER'                 'INTORG'
    U_G5_T3   TOTAL_COST  332
    U_G5_T3   RESERVE_T3  215
    U_G5_T3   PMAX_G5_T3  -215
    U_G5_T3   PMIN_G5_T3  -26
    MARK1310  'MARKER'                 'INTEND'
    MARK1320  'MARKER'                 'INTORG'
    U_G6_T3   TOTAL_COST  341
    U_G6_T3   RESERVE_T3  178
    U_G6_T3   PMAX_G6_T3  -178
    U_G6_T3   PMIN_G6_T3  -65
    MARK1330  'MARKER'                 'INTEND'
    MARK1340  'MARKER'                 'INTORG'
    U_G7_T3   TOTAL_COST  189
    U_G7_T3   RESERVE_T3  254
    U_G7_T3   PMAX_G7_T3  -254
    U_G7_T3   PMIN_G7_T3  -76
    MARK1350  'MARKER'                 'INTEND'
    MARK1360  'MARKER'                 'INTORG'
    U_G8_T3   TOTAL_COST  247
    U_G8_T3   RESERVE_T3  203
    U_G8_T3   PMAX_G8_T3  -203
    U_G8_T3   PMIN_G8_T3  -62
    MARK1370  'MARKER'                 'INTEND'
    MARK1380  'MARKER'                 'INTORG'
    U_G9_T3   TOTAL_COST  300
    U_G9_T3   RESERVE_T3  209
    U_G9_T3   PMAX_G9_T3  -209
    U_G9_T3   PMIN_G9_T3  -56
    MARK1390  'MARKER'                 'INTEND'
    MARK1400  'MARKER'                 'INTORG'
    U_G10_T3  TOTAL_COST  346
    U_G10_T3  RESERVE_T3  136
    U_G10_T3  PMAX_G10_T3  -136
    U_G10_T3  PMIN_G10_T3  -46
    MARK1410  'MARKER'                 'INTEND'
    MARK1420  'MARKER'                 'INTORG'
    U_G11_T3  TOTAL_COST  286
    U_G11_T3  RESERVE_T3  299
    U_G11_T3  PMAX_G11_T3  -299
    U_G11_T3  PMIN_G11_T3  -47
    MARK1430  'MARKER'                 'INTEND'
    MARK1440  'MARKER'                 'INTORG'
    U_G12_T3  TOTAL_COST  248
    U_G12_T3  RESERVE_T3  206
    U_G12_T3  PMAX_G12_T3  -206
    U_G12_T3  PMIN_G12_T3  -72
    MARK1450  'MARKER'                 'INTEND'
    MARK1460  'MARKER'                 'INTORG'
    U_G13_T3  TOTAL_COST  209
    U_G13_T3  RESERVE_T3  173
    U_G13_T3  PMAX_G13_T3  -173
    U_G13_T3  PMIN_G13_T3  -39
    MARK1470  'MARKER'                 'INTEND'
    MARK1480  'MARKER'                 'INTORG'
    U_G14_T3  TOTAL_COST  295
    U_G14_T3  RESERVE_T3  243
    U_G14_T3  PMAX_G14_T3  -243
    U_G14_T3  PMIN_G14_T3  -38
    MARK1490  'MARKER'                 'INTEND'
    MARK1500  'MARKER'                 'INTORG'
    U_G15_T3  TOTAL_COST  221
    U_G15_T3  RESERVE_T3  237
    U_G15_T3  PMAX_G15_T3  -237
    U_G15_T3  PMIN_G15_T3  -67
    MARK1510  'MARKER'                 'INTEND'
    MARK1520  'MARKER'                 'INTORG'
    U_G16_T3  TOTAL_COST  278
    U_G16_T3  RESERVE_T3  174
    U_G16_T3  PMAX_G16_T3  -174
    U_G16_T3  PMIN_G16_T3  -41
    MARK1530  'MARKER'                 'INTEND'
    MARK1540  'MARKER'                 'INTORG'
    U_G17_T3  TOTAL_COST  256
    U_G17_T3  RESERVE_T3  232
    U_G17_T3  PMAX_G17_T3  -232
    U_G17_T3  PMIN_G17_T3  -28
    MARK1550  'MARKER'                 'INTEND'
    MARK1560  'MARKER'                 'INTORG'
    U_G18_T3  TOTAL_COST  284
    U_G18_T3  RESERVE_T3  186
    U_G18_T3  PMAX_G18_T3  -186
    U_G18_T3  PMIN_G18_T3  -24
    MARK1570  'MARKER'                 'INTEND'
    MARK1580  'MARKER'                 'INTORG'
    U_G19_T3  TOTAL_COST  259
    U_G19_T3  RESERVE_T3  253
    U_G19_T3  PMAX_G19_T3  -253
    U_G19_T3  PMIN_G19_T3  -76
    MARK1590  'MARKER'                 'INTEND'
    P_G0_T3   TOTAL_COST  50.1
    P_G0_T3   DEMAND_T3  1
    P_G0_T3   PMAX_G0_T3  1
    P_G0_T3   PMIN_G0_T3  1
    P_G0_T3   RAMPUP_G0_T3  1
    P_G0_T3   RAMPDN_G0_T3  -1
    P_G0_T3   RAMPUP_G0_T4  -1
    P_G0_T3   RAMPDN_G0_T4  1
    P_G1_T3   TOTAL_COST  34.9
    P_G1_T3   DEMAND_T3  1
    P_G1_T3   PMAX_G1_T3  1
    P_G1_T3   PMIN_G1_T3  1
    P_G1_T3   RAMPUP_G1_T3  1
    P_G1_T3   RAMPDN_G1_T3  -1
    P_G1_T3   RAMPUP_G1_T4  -1
    P_G1_T3   RAMPDN_G1_T4  1
    P_G2_T3   TOTAL_COST  47.4
    P_G2_T3   DEMAND_T3  1
    P_G2_T3   PMAX_G2_T3  1
    P_G2_T3   PMIN_G2_T3  1
    P_G2_T3   RAMPUP_G2_T3  1
    P_G2_T3   RAMPDN_G2_T3  -1
    P_G2_T3   RAMPUP_G2_T4  -1
    P_G2_T3   RAMPDN_G2_T4  1
    P_G3_T3   TOTAL_COST  38
    P_G3_T3   DEMAND_T3  1
    P_G3_T3   PMAX_G3_T3  1
    P_G3_T3   PMIN_G3_T3  1
    P_G3_T3   RAMPUP_G3_T3  1
    P_G3_T3   RAMPDN_G3_T3  -1
    P_G3_T3   RAMPUP_G3_T4  -1
    P_G3_T3   RAMPDN_G3_T4  1
    P_G4_T3   TOTAL_COST  37
    P_G4_T3   DEMAND_T3  1
    P_G4_T3   PMAX_G4_T3  1
    P_G4_T3   PMIN_G4_T3  1
    P_G4_T3   RAMPUP_G4_T3  1
    P_G4_T3   RAMPDN_G4_T3  -1
    P_G4_T3   RAMPUP_G4_T4  -1
    P_G4_T3   RAMPDN_G4_T4  1
    P_G5_T3   TOTAL_COST  37.8
    P_G5_T3   DEMAND_T3  1
    P_G5_T3   PMAX_G5_T3  1
    P_G5_T3   PMIN_G5_T3  1
    P_G5_T3   RAMPUP_G5_T3  1
    P_G5_T3   RAMPDN_G5_T3  -1
    P_G5_T3   RAMPUP_G5_T4  -1
    P_G5_T3   RAMPDN_G5_T4  1
    P_G6_T3   TOTAL_COST  50
    P_G6_T3   DEMAND_T3  1
    P_G6_T3   PMAX_G6_T3  1
    P_G6_T3   PMIN_G6_T3  1
    P_G6_T3   RAMPUP_G6_T3  1
    P_G6_T3   RAMPDN_G6_T3  -1
    P_G6_T3   RAMPUP_G6_T4  -1
    P_G6_T3   RAMPDN_G6_T4  1
    P_G7_T3   TOTAL_COST  36.6
    P_G7_T3   DEMAND_T3  1
    P_G7_T3   PMAX_G7_T3  1
    P_G7_T3   PMIN_G7_T3  1
    P_G7_T3   RAMPUP_G7_T3  1
    P_G7_T3   RAMPDN_G7_T3  -1
    P_G7_T3   RAMPUP_G7_T4  -1
    P_G7_T3   RAMPDN_G7_T4  1
    P_G8_T3   TOTAL_COST  41.5
    P_G8_T3   DEMAND_T3  1
    P_G8_T3   PMAX_G8_T3  1
    P_G8_T3   PMIN_G8_T3  1
    P_G8_T3   RAMPUP_G8_T3  1
    P_G8_T3   RAMPDN_G8_T3  -1
    P_G8_T3   RAMPUP_G8_T4  -1
    P_G8_T3   RAMPDN_G8_T4  1
    P_G9_T3   TOTAL_COST  35.4
    P_G9_T3   DEMAND_T3  1
    P_G9_T3   PMAX_G9_T3  1
    P_G9_T3   PMIN_G9_T3  1
    P_G9_T3   RAMPUP_G9_T3  1
    P_G9_T3   RAMPDN_G9_T3  -1
    P_G9_T3   RAMPUP_G9_T4  -1
    P_G9_T3   RAMPDN_G9_T4  1
    P_G10_T3  TOTAL_COST  23
    P_G10_T3  DEMAND_T3  1
    P_G10_T3  PMAX_G10_T3  1
    P_G10_T3  PMIN_G10_T3  1
    P_G10_T3  RAMPUP_G10_T3  1
    P_G10_T3  RAMPDN_G10_T3  -1
    P_G10_T3  RAMPUP_G10_T4  -1
    P_G10_T3  RAMPDN_G10_T4  1
    P_G11_T3  TOTAL_COST  43.8
    P_G11_T3  DEMAND_T3  1
    P_G11_T3  PMAX_G11_T3  1
    P_G11_T3  PMIN_G11_T3  1
    P_G11_T3  RAMPUP_G11_T3  1
    P_G11_T3  RAMPDN_G11_T3  -1
    P_G11_T3  RAMPUP_G11_T4  -1
    P_G11_T3  RAMPDN_G11_T4  1
    P_G12_T3  TOTAL_COST  53
    P_G12_T3  DEMAND_T3  1
    P_G12_T3  PMAX_G12_T3  1
    P_G12_T3  PMIN_G12_T3  1
    P_G12_T3  RAMPUP_G12_T3  1
    P_G12_T3  RAMPDN_G12_T3  -1
    P_G12_T3  RAMPUP_G12_T4  -1
    P_G12_T3  RAMPDN_G12_T4  1
    P_G13_T3  TOTAL_COST  40.9
    P_G13_T3  DEMAND_T3  1
    P_G13_T3  PMAX_G13_T3  1
    P_G13_T3  PMIN_G13_T3  1
    P_G13_T3  RAMPUP_G13_T3  1
    P_G13_T3  RAMPDN_G13_T3  -1
    P_G13_T3  RAMPUP_G13_T4  -1
    P_G13_T3  RAMPDN_G13_T4  1
    P_G14_T3  TOTAL_COST  49.2
    P_G14_T3  DEMAND_T3  1
    P_G14_T3  PMAX_G14_T3  1
    P_G14_T3  PMIN_G14_T3  1
    P_G14_T3  RAMPUP_G14_T3  1
    P_G14_T3  RAMPDN_G14_T3  -1
    P_G14_T3  RAMPUP_G14_T4  -1
    P_G14_T3  RAMPDN_G14_T4  1
    P_G15_T3  TOTAL_COST  51.8
    P_G15_T3  DEMAND_T3  1
    P_G15_T3  PMAX_G15_T3  1
    P_G15_T3  PMIN_G15_T3  1
    P_G15_T3  RAMPUP_G15_T3  1
    P_G15_T3  RAMPDN_G15_T3  -1
    P_G15_T3  RAMPUP_G15_T4  -1
    P_G15_T3  RAMPDN_G15_T4  1
    P_G16_T3  TOTAL_COST  49.5
    P_G16_T3  DEMAND_T3  1
    P_G16_T3  PMAX_G16_T3  1
    P_G16_T3  PMIN_G16_T3  1
    P_G16_T3  RAMPUP_G16_T3  1
    P_G16_T3  RAMPDN_G16_T3  -1
    P_G16_T3  RAMPUP_G16_T4  -1
    P_G16_T3  RAMPDN_G16_T4  1
    P_G17_T3  TOTAL_COST  43.7
    P_G17_T3  DEMAND_T3  1
    P_G17_T3  PMAX_G17_T3  1
    P_G17_T3  PMIN_G17_T3  1
    P_G17_T3  RAMPUP_G17_T3  1
    P_G17_T3  RAMPDN_G17_T3  -1
    P_G17_T3  RAMPUP_G17_T4  -1
    P_G17_T3  RAMPDN_G17_T4  1
    P_G18_T3  TOTAL_COST  49.4
    P_G18_T3  DEMAND_T3  1
    P_G18_T3  PMAX_G18_T3  1
    P_G18_T3  PMIN_G18_T3  1
    P_G18_T3  RAMPUP_G18_T3  1
    P_G18_T3  RAMPDN_G18_T3  -1
    P_G18_T3  RAMPUP_G18_T4  -1
    P_G18_T3  RAMPDN_G18_T4  1
    P_G19_T3  TOTAL_COST  29.2
    P_G19_T3  DEMAND_T3  1
    P_G19_T3  PMAX_G19_T3  1
    P_G19_T3  PMIN_G19_T3  1
    P_G19_T3  RAMPUP_G19_T3  1
    P_G19_T3  RAMPDN_G19_T3  -1
    P_G19_T3  RAMPUP_G19_T4  -1
    P_G19_T3  RAMPDN_G19_T4  1
    MARK1600  'MARKER'                 'INTORG'
    U_G0_T4   TOTAL_COST  141
    U_G0_T4   RESERVE_T4  235
    U_G0_T4   PMAX_G0_T4  -235
    U_G0_T4   PMIN_G0_T4  -65
    MARK1610  'MARKER'                 'INTEND'
    MARK1620  'MARKER'                 'INTORG'
    U_G1_T4   TOTAL_COST  182
    U_G1_T4   RESERVE_T4  223
    U_G1_T4   PMAX_G1_T4  -223
    U_G1_T4   PMIN_G1_T4  -26
    MARK1630  'MARKER'                 'INTEND'
    MARK1640  'MARKER'                 'INTORG'
    U_G2_T4   TOTAL_COST  291
    U_G2_T4   RESERVE_T4  214
    U_G2_T4   PMAX_G2_T4  -214
    U_G2_T4   PMIN_G2_T4  -21
    MARK1650  'MARKER'                 'INTEND'
    MARK1660  'MARKER'                 'INTORG'
    U_G3_T4   TOTAL_COST  114
    U_G3_T4   RESERVE_T4  256
    U_G3_T4   PMAX_G3_T4  -256
    U_G3_T4   PMIN_G3_T4  -77
    MARK1670  'MARKER'                 'INTEND'
    MARK1680  'MARKER'                 'INTORG'
    U_G4_T4   TOTAL_COST  130
    U_G4_T4   RESERVE_T4  147
    U_G4_T4   PMAX_G4_T4  -147
    U_G4_T4   PMIN_G4_T4  -65
    MARK1690  'MARKER'                 'INTEND'
    MARK1700  'MARKER'                 'INTORG'
    U_G5_T4   TOTAL_COST  332
    U_G5_T4   RESERVE_T4  215
    U_G5_T4   PMAX_G5_T4  -215
    U_G5_T4   PMIN_G5_T4  -26
    MARK1710  'MARKER'                 'INTEND'
    MARK1720  'MARKER'                 'INTORG'
    U_G6_T4   TOTAL_COST  341
    U_G6_T4   RESERVE_T4  178
    U_G6_T4   PMAX_G6_T4  -178
    U_G6_T4   PMIN_G6_T4  -65
    MARK1730  'MARKER'                 'INTEND'
    MARK1740  'MARKER'                 'INTORG'
    U_G7_T4   TOTAL_COST  189
    U_G7_T4   RESERVE_T4  254
    U_G7_T4   PMAX_G7_T4  -254
    U_G7_T4   PMIN_G7_T4  -76
    MARK1750  'MARKER'                 'INTEND'
    MARK1760  'MARKER'                 'INTORG'
    U_G8_T4   TOTAL_COST  247
    U_G8_T4   RESERVE_T4  203
    U_G8_T4   PMAX_G8_T4  -203
    U_G8_T4   PMIN_G8_T4  -62
    MARK1770  'MARKER'                 'INTEND'
    MARK1780  'MARKER'                 'INTORG'
    U_G9_T4   TOTAL_COST  300
    U_G9_T4   RESERVE_T4  209
    U_G9_T4   PMAX_G9_T4  -209
    U_G9_T4   PMIN_G9_T4  -56
    MARK1790  'MARKER'                 'INTEND'
    MARK1800  'MARKER'                 'INTORG'
    U_G10_T4  TOTAL_COST  346
    U_G10_T4  RESERVE_T4  136
    U_G10_T4  PMAX_G10_T4  -136
    U_G10_T4  PMIN_G10_T4  -46
    MARK1810  'MARKER'                 'INTEND'
    MARK1820  'MARKER'                 'INTORG'
    U_G11_T4  TOTAL_COST  286
    U_G11_T4  RESERVE_T4  299
    U_G11_T4  PMAX_G11_T4  -299
    U_G11_T4  PMIN_G11_T4  -47
    MARK1830  'MARKER'                 'INTEND'
    MARK1840  'MARKER'                 'INTORG'
    U_G12_T4  TOTAL_COST  248
    U_G12_T4  RESERVE_T4  206
    U_G12_T4  PMAX_G12_T4  -206
    U_G12_T4  PMIN_G12_T4  -72
    MARK1850  'MARKER'                 'INTEND'
    MARK1860  'MARKER'                 'INTORG'
    U_G13_T4  TOTAL_COST  209
    U_G13_T4  RESERVE_T4  173
    U_G13_T4  PMAX_G13_T4  -173
    U_G13_T4  PMIN_G13_T4  -39
    MARK1870  'MARKER'                 'INTEND'
    MARK1880  'MARKER'                 'INTORG'
    U_G14_T4  TOTAL_COST  295
    U_G14_T4  RESERVE_T4  243
    U_G14_T4  PMAX_G14_T4  -243
    U_G14_T4  PMIN_G14_T4  -38
    MARK1890  'MARKER'                 'INTEND'
    MARK1900  'MARKER'                 'INTORG'
    U_G15_T4  TOTAL_COST  221
    U_G15_T4  RESERVE_T4  237
    U_G15_T4  PMAX_G15_T4  -237
    U_G15_T4  PMIN_G15_T4  -67
    MARK1910  'MARKER'                 'INTEND'
    MARK1920  'MARKER'                 'INTORG'
    U_G16_T4  TOTAL_COST  278
    U_G16_T4  RESERVE_T4  174
    U_G16_T4  PMAX_G16_T4  -174
    U_G16_T4  PMIN_G16_T4  -41
    MARK1930  'MARKER'                 'INTEND'
    MARK1940  'MARKER'                 'INTORG'
    U_G17_T4  TOTAL_COST  256
    U_G17_T4  RESERVE_T4  232
    U_G17_T4  PMAX_G17_T4  -232
    U_G17_T4  PMIN_G17_T4  -28
    MARK1950  'MARKER'                 'INTEND'
    MARK1960  'MARKER'                 'INTORG'
    U_G18_T4  TOTAL_COST  284
    U_G18_T4  RESERVE_T4  186
    U_G18_T4  PMAX_G18_T4  -186
    U_G18_T4  PMIN_G18_T4  -24
    MARK1970  'MARKER'                 'INTEND'
    MARK1980  'MARKER'                 'INTORG'
    U_G19_T4  TOTAL_COST  259
    U_G19_T4  RESERVE_T4  253
    U_G19_T4  PMAX_G19_T4  -253
    U_G19_T4  PMIN_G19_T4  -76
    MARK1990  'MARKER'                 'INTEND'
    P_G0_T4   TOTAL_COST  50.1
    P_G0_T4   DEMAND_T4  1
    P_G0_T4   PMAX_G0_T4  1
    P_G0_T4   PMIN_G0_T4  1
    P_G0_T4   RAMPUP_G0_T4  1
    P_G0_T4   RAMPDN_G0_T4  -1
    P_G0_T4   RAMPUP_G0_T5  -1
    P_G0_T4   RAMPDN_G0_T5  1
    P_G1_T4   TOTAL_COST  34.9
    P_G1_T4   DEMAND_T4  1
    P_G1_T4   PMAX_G1_T4  1
    P_G1_T4   PMIN_G1_T4  1
    P_G1_T4   RAMPUP_G1_T4  1
    P_G1_T4   RAMPDN_G1_T4  -1
    P_G1_T4   RAMPUP_G1_T5  -1
    P_G1_T4   RAMPDN_G1_T5  1
    P_G2_T4   TOTAL_COST  47.4
    P_G2_T4   DEMAND_T4  1
    P_G2_T4   PMAX_G2_T4  1
    P_G2_T4   PMIN_G2_T4  1
    P_G2_T4   RAMPUP_G2_T4  1
    P_G2_T4   RAMPDN_G2_T4  -1
    P_G2_T4   RAMPUP_G2_T5  -1
    P_G2_T4   RAMPDN_G2_T5  1
    P_G3_T4   TOTAL_COST  38
    P_G3_T4   DEMAND_T4  1
    P_G3_T4   PMAX_G3_T4  1
    P_G3_T4   PMIN_G3_T4  1
    P_G3_T4   RAMPUP_G3_T4  1
    P_G3_T4   RAMPDN_G3_T4  -1
    P_G3_T4   RAMPUP_G3_T5  -1
    P_G3_T4   RAMPDN_G3_T5  1
    P_G4_T4   TOTAL_COST  37
    P_G4_T4   DEMAND_T4  1
    P_G4_T4   PMAX_G4_T4  1
    P_G4_T4   PMIN_G4_T4  1
    P_G4_T4   RAMPUP_G4_T4  1
    P_G4_T4   RAMPDN_G4_T4  -1
    P_G4_T4   RAMPUP_G4_T5  -1
    P_G4_T4   RAMPDN_G4_T5  1
    P_G5_T4   TOTAL_COST  37.8
    P_G5_T4   DEMAND_T4  1
    P_G5_T4   PMAX_G5_T4  1
    P_G5_T4   PMIN_G5_T4  1
    P_G5_T4   RAMPUP_G5_T4  1
    P_G5_T4   RAMPDN_G5_T4  -1
    P_G5_T4   RAMPUP_G5_T5  -1
    P_G5_T4   RAMPDN_G5_T5  1
    P_G6_T4   TOTAL_COST  50
    P_G6_T4   DEMAND_T4  1
    P_G6_T4   PMAX_G6_T4  1
    P_G6_T4   PMIN_G6_T4  1
    P_G6_T4   RAMPUP_G6_T4  1
    P_G6_T4   RAMPDN_G6_T4  -1
    P_G6_T4   RAMPUP_G6_T5  -1
    P_G6_T4   RAMPDN_G6_T5  1
    P_G7_T4   TOTAL_COST  36.6
    P_G7_T4   DEMAND_T4  1
    P_G7_T4   PMAX_G7_T4  1
    P_G7_T4   PMIN_G7_T4  1
    P_G7_T4   RAMPUP_G7_T4  1
    P_G7_T4   RAMPDN_G7_T4  -1
    P_G7_T4   RAMPUP_G7_T5  -1
    P_G7_T4   RAMPDN_G7_T5  1
    P_G8_T4   TOTAL_COST  41.5
    P_G8_T4   DEMAND_T4  1
    P_G8_T4   PMAX_G8_T4  1
    P_G8_T4   PMIN_G8_T4  1
    P_G8_T4   RAMPUP_G8_T4  1
    P_G8_T4   RAMPDN_G8_T4  -1
    P_G8_T4   RAMPUP_G8_T5  -1
    P_G8_T4   RAMPDN_G8_T5  1
    P_G9_T4   TOTAL_COST  35.4
    P_G9_T4   DEMAND_T4  1
    P_G9_T4   PMAX_G9_T4  1
    P_G9_T4   PMIN_G9_T4  1
    P_G9_T4   RAMPUP_G9_T4  1
    P_G9_T4   RAMPDN_G9_T4  -1
    P_G9_T4   RAMPUP_G9_T5  -1
    P_G9_T4   RAMPDN_G9_T5  1
    P_G10_T4  TOTAL_COST  23
    P_G10_T4  DEMAND_T4  1
    P_G10_T4  PMAX_G10_T4  1
    P_G10_T4  PMIN_G10_T4  1
    P_G10_T4  RAMPUP_G10_T4  1
    P_G10_T4  RAMPDN_G10_T4  -1
    P_G10_T4  RAMPUP_G10_T5  -1
    P_G10_T4  RAMPDN_G10_T5  1
    P_G11_T4  TOTAL_COST  43.8
    P_G11_T4  DEMAND_T4  1
    P_G11_T4  PMAX_G11_T4  1
    P_G11_T4  PMIN_G11_T4  1
    P_G11_T4  RAMPUP_G11_T4  1
    P_G11_T4  RAMPDN_G11_T4  -1
    P_G11_T4  RAMPUP_G11_T5  -1
    P_G11_T4  RAMPDN_G11_T5  1
    P_G12_T4  TOTAL_COST  53
    P_G12_T4  DEMAND_T4  1
    P_G12_T4  PMAX_G12_T4  1
    P_G12_T4  PMIN_G12_T4  1
    P_G12_T4  RAMPUP_G12_T4  1
    P_G12_T4  RAMPDN_G12_T4  -1
    P_G12_T4  RAMPUP_G12_T5  -1
    P_G12_T4  RAMPDN_G12_T5  1
    P_G13_T4  TOTAL_COST  40.9
    P_G13_T4  DEMAND_T4  1
    P_G13_T4  PMAX_G13_T4  1
    P_G13_T4  PMIN_G13_T4  1
    P_G13_T4  RAMPUP_G13_T4  1
    P_G13_T4  RAMPDN_G13_T4  -1
    P_G13_T4  RAMPUP_G13_T5  -1
    P_G13_T4  RAMPDN_G13_T5  1
    P_G14_T4  TOTAL_COST  49.2
    P_G14_T4  DEMAND_T4  1
    P_G14_T4  PMAX_G14_T4  1
    P_G14_T4  PMIN_G14_T4  1
    P_G14_T4  RAMPUP_G14_T4  1
    P_G14_T4  RAMPDN_G14_T4  -1
    P_G14_T4  RAMPUP_G14_T5  -1
    P_G14_T4  RAMPDN_G14_T5  1
    P_G15_T4  TOTAL_COST  51.8
    P_G15_T4  DEMAND_T4  1
    P_G15_T4  PMAX_G15_T4  1
    P_G15_T4  PMIN_G15_T4  1
    P_G15_T4  RAMPUP_G15_T4  1
    P_G15_T4  RAMPDN_G15_T4  -1
    P_G15_T4  RAMPUP_G15_T5  -1
    P_G15_T4  RAMPDN_G15_T5  1
    P_G16_T4  TOTAL_COST  49.5
    P_G16_T4  DEMAND_T4  1
    P_G16_T4  PMAX_G16_T4  1
    P_G16_T4  PMIN_G16_T4  1
    P_G16_T4  RAMPUP_G16_T4  1
    P_G16_T4  RAMPDN_G16_T4  -1
    P_G16_T4  RAMPUP_G16_T5  -1
    P_G16_T4  RAMPDN_G16_T5  1
    P_G17_T4  TOTAL_COST  43.7
    P_G17_T4  DEMAND_T4  1
    P_G17_T4  PMAX_G17_T4  1
    P_G17_T4  PMIN_G17_T4  1
    P_G17_T4  RAMPUP_G17_T4  1
    P_G17_T4  RAMPDN_G17_T4  -1
    P_G17_T4  RAMPUP_G17_T5  -1
    P_G17_T4  RAMPDN_G17_T5  1
    P_G18_T4  TOTAL_COST  49.4
    P_G18_T4  DEMAND_T4  1
    P_G18_T4  PMAX_G18_T4  1
    P_G18_T4  PMIN_G18_T4  1
    P_G18_T4  RAMPUP_G18_T4  1
    P_G18_T4  RAMPDN_G18_T4  -1
    P_G18_T4  RAMPUP_G18_T5  -1
    P_G18_T4  RAMPDN_G18_T5  1
    P_G19_T4  TOTAL_COST  29.2
    P_G19_T4  DEMAND_T4  1
    P_G19_T4  PMAX_G19_T4  1
    P_G19_T4  PMIN_G19_T4  1
    P_G19_T4  RAMPUP_G19_T4  1
    P_G19_T4  RAMPDN_G19_T4  -1
    P_G19_T4  RAMPUP_G19_T5  -1
    P_G19_T4  RAMPDN_G19_T5  1
    MARK2000  'MARKER'                 'INTORG'
    U_G0_T5   TOTAL_COST  141
    U_G0_T5   RESERVE_T5  235
    U_G0_T5   PMAX_G0_T5  -235
    U_G0_T5   PMIN_G0_T5  -65
    MARK2010  'MARKER'                 'INTEND'
    MARK2020  'MARKER'                 'INTORG'
    U_G1_T5   TOTAL_COST  182
    U_G1_T5   RESERVE_T5  223
    U_G1_T5   PMAX_G1_T5  -223
    U_G1_T5   PMIN_G1_T5  -26
    MARK2030  'MARKER'                 'INTEND'
    MARK2040  'MARKER'                 'INTORG'
    U_G2_T5   TOTAL_COST  291
    U_G2_T5   RESERVE_T5  214
    U_G2_T5   PMAX_G2_T5  -214
    U_G2_T5   PMIN_G2_T5  -21
    MARK2050  'MARKER'                 'INTEND'
    MARK2060  'MARKER'                 'INTORG'
    U_G3_T5   TOTAL_COST  114
    U_G3_T5   RESERVE_T5  256
    U_G3_T5   PMAX_G3_T5  -256
    U_G3_T5   PMIN_G3_T5  -77
    MARK2070  'MARKER'                 'INTEND'
    MARK2080  'MARKER'                 'INTORG'
    U_G4_T5   TOTAL_COST  130
    U_G4_T5   RESERVE_T5  147
    U_G4_T5   PMAX_G4_T5  -147
    U_G4_T5   PMIN_G4_T5  -65
    MARK2090  'MARKER'                 'INTEND'
    MARK2100  'MARKER'                 'INTORG'
    U_G5_T5   TOTAL_COST  332
    U_G5_T5   RESERVE_T5  215
    U_G5_T5   PMAX_G5_T5  -215
    U_G5_T5   PMIN_G5_T5  -26
    MARK2110  'MARKER'                 'INTEND'
    MARK2120  'MARKER'                 'INTORG'
    U_G6_T5   TOTAL_COST  341
    U_G6_T5   RESERVE_T5  178
    U_G6_T5   PMAX_G6_T5  -178
    U_G6_T5   PMIN_G6_T5  -65
    MARK2130  'MARKER'                 'INTEND'
    MARK2140  'MARKER'                 'INTORG'
    U_G7_T5   TOTAL_COST  189
    U_G7_T5   RESERVE_T5  254
    U_G7_T5   PMAX_G7_T5  -254
    U_G7_T5   PMIN_G7_T5  -76
    MARK2150  'MARKER'                 'INTEND'
    MARK2160  'MARKER'                 'INTORG'
    U_G8_T5   TOTAL_COST  247
    U_G8_T5   RESERVE_T5  203
    U_G8_T5   PMAX_G8_T5  -203
    U_G8_T5   PMIN_G8_T5  -62
    MARK2170  'MARKER'                 'INTEND'
    MARK2180  'MARKER'                 'INTORG'
    U_G9_T5   TOTAL_COST  300
    U_G9_T5   RESERVE_T5  209
    U_G9_T5   PMAX_G9_T5  -209
    U_G9_T5   PMIN_G9_T5  -56
    MARK2190  'MARKER'                 'INTEND'
    MARK2200  'MARKER'                 'INTORG'
    U_G10_T5  TOTAL_COST  346
    U_G10_T5  RESERVE_T5  136
    U_G10_T5  PMAX_G10_T5  -136
    U_G10_T5  PMIN_G10_T5  -46
    MARK2210  'MARKER'                 'INTEND'
    MARK2220  'MARKER'                 'INTORG'
    U_G11_T5  TOTAL_COST  286
    U_G11_T5  RESERVE_T5  299
    U_G11_T5  PMAX_G11_T5  -299
    U_G11_T5  PMIN_G11_T5  -47
    MARK2230  'MARKER'                 'INTEND'
    MARK2240  'MARKER'                 'INTORG'
    U_G12_T5  TOTAL_COST  248
    U_G12_T5  RESERVE_T5  206
    U_G12_T5  PMAX_G12_T5  -206
    U_G12_T5  PMIN_G12_T5  -72
    MARK2250  'MARKER'                 'INTEND'
    MARK2260  'MARKER'                 'INTORG'
    U_G13_T5  TOTAL_COST  209
    U_G13_T5  RESERVE_T5  173
    U_G13_T5  PMAX_G13_T5  -173
    U_G13_T5  PMIN_G13_T5  -39
    MARK2270  'MARKER'                 'INTEND'
    MARK2280  'MARKER'                 'INTORG'
    U_G14_T5  TOTAL_COST  295
    U_G14_T5  RESERVE_T5  243
    U_G14_T5  PMAX_G14_T5  -243
    U_G14_T5  PMIN_G14_T5  -38
    MARK2290  'MARKER'                 'INTEND'
    MARK2300  'MARKER'                 'INTORG'
    U_G15_T5  TOTAL_COST  221
    U_G15_T5  RESERVE_T5  237
    U_G15_T5  PMAX_G15_T5  -237
    U_G15_T5  PMIN_G15_T5  -67
    MARK2310  'MARKER'                 'INTEND'
    MARK2320  'MARKER'                 'INTORG'
    U_G16_T5  TOTAL_COST  278
    U_G16_T5  RESERVE_T5  174
    U_G16_T5  PMAX_G16_T5  -174
    U_G16_T5  PMIN_G16_T5  -41
    MARK2330  'MARKER'                 'INTEND'
    MARK2340  'MARKER'                 'INTORG'
    U_G17_T5  TOTAL_COST  256
    U_G17_T5  RESERVE_T5  232
    U_G17_T5  PMAX_G17_T5  -232
    U_G17_T5  PMIN_G17_T5  -28
    MARK2350  'MARKER'                 'INTEND'
    MARK2360  'MARKER'                 'INTORG'
    U_G18_T5  TOTAL_COST  284
    U_G18_T5  RESERVE_T5  186
    U_G18_T5  PMAX_G18_T5  -186
    U_G18_T5  PMIN_G18_T5  -24
    MARK2370  'MARKER'                 'INTEND'
    MARK2380  'MARKER'                 'INTORG'
    U_G19_T5  TOTAL_COST  259
    U_G19_T5  RESERVE_T5  253
    U_G19_T5  PMAX_G19_T5  -253
    U_G19_T5  PMIN_G19_T5  -76
    MARK2390  'MARKER'                 'INTEND'
    P_G0_T5   TOTAL_COST  50.1
    P_G0_T5   DEMAND_T5  1
    P_G0_T5   PMAX_G0_T5  1
    P_G0_T5   PMIN_G0_T5  1
    P_G0_T5   RAMPUP_G0_T5  1
    P_G0_T5   RAMPDN_G0_T5  -1
    P_G0_T5   RAMPUP_G0_T6  -1
    P_G0_T5   RAMPDN_G0_T6  1
    P_G1_T5   TOTAL_COST  34.9
    P_G1_T5   DEMAND_T5  1
    P_G1_T5   PMAX_G1_T5  1
    P_G1_T5   PMIN_G1_T5  1
    P_G1_T5   RAMPUP_G1_T5  1
    P_G1_T5   RAMPDN_G1_T5  -1
    P_G1_T5   RAMPUP_G1_T6  -1
    P_G1_T5   RAMPDN_G1_T6  1
    P_G2_T5   TOTAL_COST  47.4
    P_G2_T5   DEMAND_T5  1
    P_G2_T5   PMAX_G2_T5  1
    P_G2_T5   PMIN_G2_T5  1
    P_G2_T5   RAMPUP_G2_T5  1
    P_G2_T5   RAMPDN_G2_T5  -1
    P_G2_T5   RAMPUP_G2_T6  -1
    P_G2_T5   RAMPDN_G2_T6  1
    P_G3_T5   TOTAL_COST  38
    P_G3_T5   DEMAND_T5  1
    P_G3_T5   PMAX_G3_T5  1
    P_G3_T5   PMIN_G3_T5  1
    P_G3_T5   RAMPUP_G3_T5  1
    P_G3_T5   RAMPDN_G3_T5  -1
    P_G3_T5   RAMPUP_G3_T6  -1
    P_G3_T5   RAMPDN_G3_T6  1
    P_G4_T5   TOTAL_COST  37
    P_G4_T5   DEMAND_T5  1
    P_G4_T5   PMAX_G4_T5  1
    P_G4_T5   PMIN_G4_T5  1
    P_G4_T5   RAMPUP_G4_T5  1
    P_G4_T5   RAMPDN_G4_T5  -1
    P_G4_T5   RAMPUP_G4_T6  -1
    P_G4_T5   RAMPDN_G4_T6  1
    P_G5_T5   TOTAL_COST  37.8
    P_G5_T5   DEMAND_T5  1
    P_G5_T5   PMAX_G5_T5  1
    P_G5_T5   PMIN_G5_T5  1
    P_G5_T5   RAMPUP_G5_T5  1
    P_G5_T5   RAMPDN_G5_T5  -1
    P_G5_T5   RAMPUP_G5_T6  -1
    P_G5_T5   RAMPDN_G5_T6  1
    P_G6_T5   TOTAL_COST  50
    P_G6_T5   DEMAND_T5  1
    P_G6_T5   PMAX_G6_T5  1
    P_G6_T5   PMIN_G6_T5  1
    P_G6_T5   RAMPUP_G6_T5  1
    P_G6_T5   RAMPDN_G6_T5  -1
    P_G6_T5   RAMPUP_G6_T6  -1
    P_G6_T5   RAMPDN_G6_T6  1
    P_G7_T5   TOTAL_COST  36.6
    P_G7_T5   DEMAND_T5  1
    P_G7_T5   PMAX_G7_T5  1
    P_G7_T5   PMIN_G7_T5  1
    P_G7_T5   RAMPUP_G7_T5  1
    P_G7_T5   RAMPDN_G7_T5  -1
    P_G7_T5   RAMPUP_G7_T6  -1
    P_G7_T5   RAMPDN_G7_T6  1
    P_G8_T5   TOTAL_COST  41.5
    P_G8_T5   DEMAND_T5  1
    P_G8_T5   PMAX_G8_T5  1
    P_G8_T5   PMIN_G8_T5  1
    P_G8_T5   RAMPUP_G8_T5  1
    P_G8_T5   RAMPDN_G8_T5  -1
    P_G8_T5   RAMPUP_G8_T6  -1
    P_G8_T5   RAMPDN_G8_T6  1
    P_G9_T5   TOTAL_COST  35.4
    P_G9_T5   DEMAND_T5  1
    P_G9_T5   PMAX_G9_T5  1
    P_G9_T5   PMIN_G9_T5  1
    P_G9_T5   RAMPUP_G9_T5  1
    P_G9_T5   RAMPDN_G9_T5  -1
    P_G9_T5   RAMPUP_G9_T6  -1
    P_G9_T5   RAMPDN_G9_T6  1
    P_G10_T5  TOTAL_COST  23
    P_G10_T5  DEMAND_T5  1
    P_G10_T5  PMAX_G10_T5  1
    P_G10_T5  PMIN_G10_T5  1
    P_G10_T5  RAMPUP_G10_T5  1
    P_G10_T5  RAMPDN_G10_T5  -1
    P_G10_T5  RAMPUP_G10_T6  -1
    P_G10_T5  RAMPDN_G10_T6  1
    P_G11_T5  TOTAL_COST  43.8
    P_G11_T5  DEMAND_T5  1
    P_G11_T5  PMAX_G11_T5  1
    P_G11_T5  PMIN_G11_T5  1
    P_G11_T5  RAMPUP_G11_T5  1
    P_G11_T5  RAMPDN_G11_T5  -1
    P_G11_T5  RAMPUP_G11_T6  -1
    P_G11_T5  RAMPDN_G11_T6  1
    P_G12_T5  TOTAL_COST  53
    P_G12_T5  DEMAND_T5  1
    P_G12_T5  PMAX_G12_T5  1
    P_G12_T5  PMIN_G12_T5  1
    P_G12_T5  RAMPUP_G12_T5  1
    P_G12_T5  RAMPDN_G12_T5  -1
    P_G12_T5  RAMPUP_G12_T6  -1
    P_G12_T5  RAMPDN_G12_T6  1
    P_G13_T5  TOTAL_COST  40.9
    P_G13_T5  DEMAND_T5  1
    P_G13_T5  PMAX_G13_T5  1
    P_G13_T5  PMIN_G13_T5  1
    P_G13_T5  RAMPUP_G13_T5  1
    P_G13_T5  RAMPDN_G13_T5  -1
    P_G13_T5  RAMPUP_G13_T6  -1
    P_G13_T5  RAMPDN_G13_T6  1
    P_G14_T5  TOTAL_COST  49.2
    P_G14_T5  DEMAND_T5  1
    P_G14_T5  PMAX_G14_T5  1
    P_G14_T5  PMIN_G14_T5  1
    P_G14_T5  RAMPUP_G14_T5  1
    P_G14_T5  RAMPDN_G14_T5  -1
    P_G14_T5  RAMPUP_G14_T6  -1
    P_G14_T5  RAMPDN_G14_T6  1
    P_G15_T5  TOTAL_COST  51.8
    P_G15_T5  DEMAND_T5  1
    P_G15_T5  PMAX_G15_T5  1
    P_G15_T5  PMIN_G15_T5  1
    P_G15_T5  RAMPUP_G15_T5  1
    P_G15_T5  RAMPDN_G15_T5  -1
    P_G15_T5  RAMPUP_G15_T6  -1
    P_G15_T5  RAMPDN_G15_T6  1
    P_G16_T5  TOTAL_COST  49.5
    P_G16_T5  DEMAND_T5  1
    P_G16_T5  PMAX_G16_T5  1
    P_G16_T5  PMIN_G16_T5  1
    P_G16_T5  RAMPUP_G16_T5  1
    P_G16_T5  RAMPDN_G16_T5  -1
    P_G16_T5  RAMPUP_G16_T6  -1
    P_G16_T5  RAMPDN_G16_T6  1
    P_G17_T5  TOTAL_COST  43.7
    P_G17_T5  DEMAND_T5  1
    P_G17_T5  PMAX_G17_T5  1
    P_G17_T5  PMIN_G17_T5  1
    P_G17_T5  RAMPUP_G17_T5  1
    P_G17_T5  RAMPDN_G17_T5  -1
    P_G17_T5  RAMPUP_G17_T6  -1
    P_G17_T5  RAMPDN_G17_T6  1
    P_G18_T5  TOTAL_COST  49.4
    P_G18_T5  DEMAND_T5  1
    P_G18_T5  PMAX_G18_T5  1
    P_G18_T5  PMIN_G18_T5  1
    P_G18_T5  RAMPUP_G18_T5  1
    P_G18_T5  RAMPDN_G18_T5  -1
    P_G18_T5  RAMPUP_G18_T6  -1
    P_G18_T5  RAMPDN_G18_T6  1
    P_G19_T5  TOTAL_COST  29.2
    P_G19_T5  DEMAND_T5  1
    P_G19_T5  PMAX_G19_T5  1
    P_G19_T5  PMIN_G19_T5  1
    P_G19_T5  RAMPUP_G19_T5  1
    P_G19_T5  RAMPDN_G19_T5  -1
    P_G19_T5  RAMPUP_G19_T6  -1
    P_G19_T5  RAMPDN_G19_T6  1
    MARK2400  'MARKER'                 'INTORG'
    U_G0_T6   TOTAL_COST  141
    U_G0_T6   RESERVE_T6  235
    U_G0_T6   PMAX_G0_T6  -235
    U_G0_T6   PMIN_G0_T6  -65
    MARK2410  'MARKER'                 'INTEND'
    MARK2420  'MARKER'                 'INTORG'
    U_G1_T6   TOTAL_COST  182
    U_G1_T6   RESERVE_T6  223
    U_G1_T6   PMAX_G1_T6  -223
    U_G1_T6   PMIN_G1_T6  -26
    MARK2430  'MARKER'                 'INTEND'
    MARK2440  'MARKER'                 'INTORG'
    U_G2_T6   TOTAL_COST  291
    U_G2_T6   RESERVE_T6  214
    U_G2_T6   PMAX_G2_T6  -214
    U_G2_T6   PMIN_G2_T6  -21
    MARK2450  'MARKER'                 'INTEND'
    MARK2460  'MARKER'                 'INTORG'
    U_G3_T6   TOTAL_COST  114
    U_G3_T6   RESERVE_T6  256
    U_G3_T6   PMAX_G3_T6  -256
    U_G3_T6   PMIN_G3_T6  -77
    MARK2470  'MARKER'                 'INTEND'
    MARK2480  'MARKER'                 'INTORG'
    U_G4_T6   TOTAL_COST  130
    U_G4_T6   RESERVE_T6  147
    U_G4_T6   PMAX_G4_T6  -147
    U_G4_T6   PMIN_G4_T6  -65
    MARK2490  'MARKER'                 'INTEND'
    MARK2500  'MARKER'                 'INTORG'
    U_G5_T6   TOTAL_COST  332
    U_G5_T6   RESERVE_T6  215
    U_G5_T6   PMAX_G5_T6  -215
    U_G5_T6   PMIN_G5_T6  -26
    MARK2510  'MARKER'                 'INTEND'
    MARK2520  'MARKER'                 'INTORG'
    U_G6_T6   TOTAL_COST  341
    U_G6_T6   RESERVE_T6  178
    U_G6_T6   PMAX_G6_T6  -178
    U_G6_T6   PMIN_G6_T6  -65
    MARK2530  'MARKER'                 'INTEND'
    MARK2540  'MARKER'                 'INTORG'
    U_G7_T6   TOTAL_COST  189
    U_G7_T6   RESERVE_T6  254
    U_G7_T6   PMAX_G7_T6  -254
    U_G7_T6   PMIN_G7_T6  -76
    MARK2550  'MARKER'                 'INTEND'
    MARK2560  'MARKER'                 'INTORG'
    U_G8_T6   TOTAL_COST  247
    U_G8_T6   RESERVE_T6  203
    U_G8_T6   PMAX_G8_T6  -203
    U_G8_T6   PMIN_G8_T6  -62
    MARK2570  'MARKER'                 'INTEND'
    MARK2580  'MARKER'                 'INTORG'
    U_G9_T6   TOTAL_COST  300
    U_G9_T6   RESERVE_T6  209
    U_G9_T6   PMAX_G9_T6  -209
    U_G9_T6   PMIN_G9_T6  -56
    MARK2590  'MARKER'                 'INTEND'
    MARK2600  'MARKER'                 'INTORG'
    U_G10_T6  TOTAL_COST  346
    U_G10_T6  RESERVE_T6  136
    U_G10_T6  PMAX_G10_T6  -136
    U_G10_T6  PMIN_G10_T6  -46
    MARK2610  'MARKER'                 'INTEND'
    MARK2620  'MARKER'                 'INTORG'
    U_G11_T6  TOTAL_COST  286
    U_G11_T6  RESERVE_T6  299
    U_G11_T6  PMAX_G11_T6  -299
    U_G11_T6  PMIN_G11_T6  -47
    MARK2630  'MARKER'                 'INTEND'
    MARK2640  'MARKER'                 'INTORG'
    U_G12_T6  TOTAL_COST  248
    U_G12_T6  RESERVE_T6  206
    U_G12_T6  PMAX_G12_T6  -206
    U_G12_T6  PMIN_G12_T6  -72
    MARK2650  'MARKER'                 'INTEND'
    MARK2660  'MARKER'                 'INTORG'
    U_G13_T6  TOTAL_COST  209
    U_G13_T6  RESERVE_T6  173
    U_G13_T6  PMAX_G13_T6  -173
    U_G13_T6  PMIN_G13_T6  -39
    MARK2670  'MARKER'                 'INTEND'
    MARK2680  'MARKER'                 'INTORG'
    U_G14_T6  TOTAL_COST  295
    U_G14_T6  RESERVE_T6  243
    U_G14_T6  PMAX_G14_T6  -243
    U_G14_T6  PMIN_G14_T6  -38
    MARK2690  'MARKER'                 'INTEND'
    MARK2700  'MARKER'                 'INTORG'
    U_G15_T6  TOTAL_COST  221
    U_G15_T6  RESERVE_T6  237
    U_G15_T6  PMAX_G15_T6  -237
    U_G15_T6  PMIN_G15_T6  -67
    MARK2710  'MARKER'                 'INTEND'
    MARK2720  'MARKER'                 'INTORG'
    U_G16_T6  TOTAL_COST  278
    U_G16_T6  RESERVE_T6  174
    U_G16_T6  PMAX_G16_T6  -174
    U_G16_T6  PMIN_G16_T6  -41
    MARK2730  'MARKER'                 'INTEND'
    MARK2740  'MARKER'                 'INTORG'
    U_G17_T6  TOTAL_COST  256
    U_G17_T6  RESERVE_T6  232
    U_G17_T6  PMAX_G17_T6  -232
    U_G17_T6  PMIN_G17_T6  -28
    MARK2750  'MARKER'                 'INTEND'
    MARK2760  'MARKER'                 'INTORG'
    U_G18_T6  TOTAL_COST  284
    U_G18_T6  RESERVE_T6  186
    U_G18_T6  PMAX_G18_T6  -186
    U_G18_T6  PMIN_G18_T6  -24
    MARK2770  'MARKER'                 'INTEND'
    MARK2780  'MARKER'                 'INTORG'
    U_G19_T6  TOTAL_COST  259
    U_G19_T6  RESERVE_T6  253
    U_G19_T6  PMAX_G19_T6  -253
    U_G19_T6  PMIN_G19_T6  -76
    MARK2790  'MARKER'                 'INTEND'
    P_G0_T6   TOTAL_COST  50.1
    P_G0_T6   DEMAND_T6  1
    P_G0_T6   PMAX_G0_T6  1
    P_G0_T6   PMIN_G0_T6  1
    P_G0_T6   RAMPUP_G0_T6  1
    P_G0_T6   RAMPDN_G0_T6  -1
    P_G0_T6   RAMPUP_G0_T7  -1
    P_G0_T6   RAMPDN_G0_T7  1
    P_G1_T6   TOTAL_COST  34.9
    P_G1_T6   DEMAND_T6  1
    P_G1_T6   PMAX_G1_T6  1
    P_G1_T6   PMIN_G1_T6  1
    P_G1_T6   RAMPUP_G1_T6  1
    P_G1_T6   RAMPDN_G1_T6  -1
    P_G1_T6   RAMPUP_G1_T7  -1
    P_G1_T6   RAMPDN_G1_T7  1
    P_G2_T6   TOTAL_COST  47.4
    P_G2_T6   DEMAND_T6  1
    P_G2_T6   PMAX_G2_T6  1
    P_G2_T6   PMIN_G2_T6  1
    P_G2_T6   RAMPUP_G2_T6  1
    P_G2_T6   RAMPDN_G2_T6  -1
    P_G2_T6   RAMPUP_G2_T7  -1
    P_G2_T6   RAMPDN_G2_T7  1
    P_G3_T6   TOTAL_COST  38
    P_G3_T6   DEMAND_T6  1
    P_G3_T6   PMAX_G3_T6  1
    P_G3_T6   PMIN_G3_T6  1
    P_G3_T6   RAMPUP_G3_T6  1
    P_G3_T6   RAMPDN_G3_T6  -1
    P_G3_T6   RAMPUP_G3_T7  -1
    P_G3_T6   RAMPDN_G3_T7  1
    P_G4_T6   TOTAL_COST  37
    P_G4_T6   DEMAND_T6  1
    P_G4_T6   PMAX_G4_T6  1
    P_G4_T6   PMIN_G4_T6  1
    P_G4_T6   RAMPUP_G4_T6  1
    P_G4_T6   RAMPDN_G4_T6  -1
    P_G4_T6   RAMPUP_G4_T7  -1
    P_G4_T6   RAMPDN_G4_T7  1
    P_G5_T6   TOTAL_COST  37.8
    P_G5_T6   DEMAND_T6  1
    P_G5_T6   PMAX_G5_T6  1
    P_G5_T6   PMIN_G5_T6  1
    P_G5_T6   RAMPUP_G5_T6  1
    P_G5_T6   RAMPDN_G5_T6  -1
    P_G5_T6   RAMPUP_G5_T7  -1
    P_G5_T6   RAMPDN_G5_T7  1
    P_G6_T6   TOTAL_COST  50
    P_G6_T6   DEMAND_T6  1
    P_G6_T6   PMAX_G6_T6  1
    P_G6_T6   PMIN_G6_T6  1
    P_G6_T6   RAMPUP_G6_T6  1
    P_G6_T6   RAMPDN_G6_T6  -1
    P_G6_T6   RAMPUP_G6_T7  -1
    P_G6_T6   RAMPDN_G6_T7  1
    P_G7_T6   TOTAL_COST  36.6
    P_G7_T6   DEMAND_T6  1
    P_G7_T6   PMAX_G7_T6  1
    P_G7_T6   PMIN_G7_T6  1
    P_G7_T6   RAMPUP_G7_T6  1
    P_G7_T6   RAMPDN_G7_T6  -1
    P_G7_T6   RAMPUP_G7_T7  -1
    P_G7_T6   RAMPDN_G7_T7  1
    P_G8_T6   TOTAL_COST  41.5
    P_G8_T6   DEMAND_T6  1
    P_G8_T6   PMAX_G8_T6  1
    P_G8_T6   PMIN_G8_T6  1
    P_G8_T6   RAMPUP_G8_T6  1
    P_G8_T6   RAMPDN_G8_T6  -1
    P_G8_T6   RAMPUP_G8_T7  -1
    P_G8_T6   RAMPDN_G8_T7  1
    P_G9_T6   TOTAL_COST  35.4
    P_G9_T6   DEMAND_T6  1
    P_G9_T6   PMAX_G9_T6  1
    P_G9_T6   PMIN_G9_T6  1
    P_G9_T6   RAMPUP_G9_T6  1
    P_G9_T6   RAMPDN_G9_T6  -1
    P_G9_T6   RAMPUP_G9_T7  -1
    P_G9_T6   RAMPDN_G9_T7  1
    P_G10_T6  TOTAL_COST  23
    P_G10_T6  DEMAND_T6  1
    P_G10_T6  PMAX_G10_T6  1
    P_G10_T6  PMIN_G10_T6  1
    P_G10_T6  RAMPUP_G10_T6  1
    P_G10_T6  RAMPDN_G10_T6  -1
    P_G10_T6  RAMPUP_G10_T7  -1
    P_G10_T6  RAMPDN_G10_T7  1
    P_G11_T6  TOTAL_COST  43.8
    P_G11_T6  DEMAND_T6  1
    P_G11_T6  PMAX_G11_T6  1
    P_G11_T6  PMIN_G11_T6  1
    P_G11_T6  RAMPUP_G11_T6  1
    P_G11_T6  RAMPDN_G11_T6  -1
    P_G11_T6  RAMPUP_G11_T7  -1
    P_G11_T6  RAMPDN_G11_T7  1
    P_G12_T6  TOTAL_COST  53
    P_G12_T6  DEMAND_T6  1
    P_G12_T6  PMAX_G12_T6  1
    P_G12_T6  PMIN_G12_T6  1
    P_G12_T6  RAMPUP_G12_T6  1
    P_G12_T6  RAMPDN_G12_T6  -1
    P_G12_T6  RAMPUP_G12_T7  -1
    P_G12_T6  RAMPDN_G12_T7  1
    P_G13_T6  TOTAL_COST  40.9
    P_G13_T6  DEMAND_T6  1
    P_G13_T6  PMAX_G13_T6  1
    P_G13_T6  PMIN_G13_T6  1
    P_G13_T6  RAMPUP_G13_T6  1
    P_G13_T6  RAMPDN_G13_T6  -1
    P_G13_T6  RAMPUP_G13_T7  -1
    P_G13_T6  RAMPDN_G13_T7  1
    P_G14_T6  TOTAL_COST  49.2
    P_G14_T6  DEMAND_T6  1
    P_G14_T6  PMAX_G14_T6  1
    P_G14_T6  PMIN_G14_T6  1
    P_G14_T6  RAMPUP_G14_T6  1
    P_G14_T6  RAMPDN_G14_T6  -1
    P_G14_T6  RAMPUP_G14_T7  -1
    P_G14_T6  RAMPDN_G14_T7  1
    P_G15_T6  TOTAL_COST  51.8
    P_G15_T6  DEMAND_T6  1
    P_G15_T6  PMAX_G15_T6  1
    P_G15_T6  PMIN_G15_T6  1
    P_G15_T6  RAMPUP_G15_T6  1
    P_G15_T6  RAMPDN_G15_T6  -1
    P_G15_T6  RAMPUP_G15_T7  -1
    P_G15_T6  RAMPDN_G15_T7  1
    P_G16_T6  TOTAL_COST  49.5
    P_G16_T6  DEMAND_T6  1
    P_G16_T6  PMAX_G16_T6  1
    P_G16_T6  PMIN_G16_T6  1
    P_G16_T6  RAMPUP_G16_T6  1
    P_G16_T6  RAMPDN_G16_T6  -1
    P_G16_T6  RAMPUP_G16_T7  -1
    P_G16_T6  RAMPDN_G16_T7  1
    P_G17_T6  TOTAL_COST  43.7
    P_G17_T6  DEMAND_T6  1
    P_G17_T6  PMAX_G17_T6  1
    P_G17_T6  PMIN_G17_T6  1
    P_G17_T6  RAMPUP_G17_T6  1
    P_G17_T6  RAMPDN_G17_T6  -1
    P_G17_T6  RAMPUP_G17_T7  -1
    P_G17_T6  RAMPDN_G17_T7  1
    P_G18_T6  TOTAL_COST  49.4
    P_G18_T6  DEMAND_T6  1
    P_G18_T6  PMAX_G18_T6  1
    P_G18_T6  PMIN_G18_T6  1
    P_G18_T6  RAMPUP_G18_T6  1
    P_G18_T6  RAMPDN_G18_T6  -1
    P_G18_T6  RAMPUP_G18_T7  -1
    P_G18_T6  RAMPDN_G18_T7  1
    P_G19_T6  TOTAL_COST  29.2
    P_G19_T6  DEMAND_T6  1
    P_G19_T6  PMAX_G19_T6  1
    P_G19_T6  PMIN_G19_T6  1
    P_G19_T6  RAMPUP_G19_T6  1
    P_G19_T6  RAMPDN_G19_T6  -1
    P_G19_T6  RAMPUP_G19_T7  -1
    P_G19_T6  RAMPDN_G19_T7  1
    MARK2800  'MARKER'                 'INTORG'
    U_G0_T7   TOTAL_COST  141
    U_G0_T7   RESERVE_T7  235
    U_G0_T7   PMAX_G0_T7  -235
    U_G0_T7   PMIN_G0_T7  -65
    MARK2810  'MARKER'                 'INTEND'
    MARK2820  'MARKER'                 'INTORG'
    U_G1_T7   TOTAL_COST  182
    U_G1_T7   RESERVE_T7  223
    U_G1_T7   PMAX_G1_T7  -223
    U_G1_T7   PMIN_G1_T7  -26
    MARK2830  'MARKER'                 'INTEND'
    MARK2840  'MARKER'                 'INTORG'
    U_G2_T7   TOTAL_COST  291
    U_G2_T7   RESERVE_T7  214
    U_G2_T7   PMAX_G2_T7  -214
    U_G2_T7   PMIN_G2_T7  -21
    MARK2850  'MARKER'                 'INTEND'
    MARK2860  'MARKER'                 'INTORG'
    U_G3_T7   TOTAL_COST  114
    U_G3_T7   RESERVE_T7  256
    U_G3_T7   PMAX_G3_T7  -256
    U_G3_T7   PMIN_G3_T7  -77
    MARK2870  'MARKER'                 'INTEND'
    MARK2880  'MARKER'                 'INTORG'
    U_G4_T7   TOTAL_COST  130
    U_G4_T7   RESERVE_T7  147
    U_G4_T7   PMAX_G4_T7  -147
    U_G4_T7   PMIN_G4_T7  -65
    MARK2890  'MARKER'                 'INTEND'
    MARK2900  'MARKER'                 'INTORG'
    U_G5_T7   TOTAL_COST  332
    U_G5_T7   RESERVE_T7  215
    U_G5_T7   PMAX_G5_T7  -215
    U_G5_T7   PMIN_G5_T7  -26
    MARK2910  'MARKER'                 'INTEND'
    MARK2920  'MARKER'                 'INTORG'
    U_G6_T7   TOTAL_COST  341
    U_G6_T7   RESERVE_T7  178
    U_G6_T7   PMAX_G6_T7  -178
    U_G6_T7   PMIN_G6_T7  -65
    MARK2930  'MARKER'                 'INTEND'
    MARK2940  'MARKER'                 'INTORG'
    U_G7_T7   TOTAL_COST  189
    U_G7_T7   RESERVE_T7  254
    U_G7_T7   PMAX_G7_T7  -254
    U_G7_T7   PMIN_G7_T7  -76
    MARK2950  'MARKER'                 'INTEND'
    MARK2960  'MARKER'                 'INTORG'
    U_G8_T7   TOTAL_COST  247
    U_G8_T7   RESERVE_T7  203
    U_G8_T7   PMAX_G8_T7  -203
    U_G8_T7   PMIN_G8_T7  -62
    MARK2970  'MARKER'                 'INTEND'
    MARK2980  'MARKER'                 'INTORG'
    U_G9_T7   TOTAL_COST  300
    U_G9_T7   RESERVE_T7  209
    U_G9_T7   PMAX_G9_T7  -209
    U_G9_T7   PMIN_G9_T7  -56
    MARK2990  'MARKER'                 'INTEND'
    MARK3000  'MARKER'                 'INTORG'
    U_G10_T7  TOTAL_COST  346
    U_G10_T7  RESERVE_T7  136
    U_G10_T7  PMAX_G10_T7  -136
    U_G10_T7  PMIN_G10_T7  -46
    MARK3010  'MARKER'                 'INTEND'
    MARK3020  'MARKER'                 'INTORG'
    U_G11_T7  TOTAL_COST  286
    U_G11_T7  RESERVE_T7  299
    U_G11_T7  PMAX_G11_T7  -299
    U_G11_T7  PMIN_G11_T7  -47
    MARK3030  'MARKER'                 'INTEND'
    MARK3040  'MARKER'                 'INTORG'
    U_G12_T7  TOTAL_COST  248
    U_G12_T7  RESERVE_T7  206
    U_G12_T7  PMAX_G12_T7  -206
    U_G12_T7  PMIN_G12_T7  -72
    MARK3050  'MARKER'                 'INTEND'
    MARK3060  'MARKER'                 'INTORG'
    U_G13_T7  TOTAL_COST  209
    U_G13_T7  RESERVE_T7  173
    U_G13_T7  PMAX_G13_T7  -173
    U_G13_T7  PMIN_G13_T7  -39
    MARK3070  'MARKER'                 'INTEND'
    MARK3080  'MARKER'                 'INTORG'
    U_G14_T7  TOTAL_COST  295
    U_G14_T7  RESERVE_T7  243
    U_G14_T7  PMAX_G14_T7  -243
    U_G14_T7  PMIN_G14_T7  -38
    MARK3090  'MARKER'                 'INTEND'
    MARK3100  'MARKER'                 'INTORG'
    U_G15_T7  TOTAL_COST  221
    U_G15_T7  RESERVE_T7  237
    U_G15_T7  PMAX_G15_T7  -237
    U_G15_T7  PMIN_G15_T7  -67
    MARK3110  'MARKER'                 'INTEND'
    MARK3120  'MARKER'                 'INTORG'
    U_G16_T7  TOTAL_COST  278
    U_G16_T7  RESERVE_T7  174
    U_G16_T7  PMAX_G16_T7  -174
    U_G16_T7  PMIN_G16_T7  -41
    MARK3130  'MARKER'                 'INTEND'
    MARK3140  'MARKER'                 'INTORG'
    U_G17_T7  TOTAL_COST  256
    U_G17_T7  RESERVE_T7  232
    U_G17_T7  PMAX_G17_T7  -232
    U_G17_T7  PMIN_G17_T7  -28
    MARK3150  'MARKER'                 'INTEND'
    MARK3160  'MARKER'                 'INTORG'
    U_G18_T7  TOTAL_COST  284
    U_G18_T7  RESERVE_T7  186
    U_G18_T7  PMAX_G18_T7  -186
    U_G18_T7  PMIN_G18_T7  -24
    MARK3170  'MARKER'                 'INTEND'
    MARK3180  'MARKER'                 'INTORG'
    U_G19_T7  TOTAL_COST  259
    U_G19_T7  RESERVE_T7  253
    U_G19_T7  PMAX_G19_T7  -253
    U_G19_T7  PMIN_G19_T7  -76
    MARK3190  'MARKER'                 'INTEND'
    P_G0_T7   TOTAL_COST  50.1
    P_G0_T7   DEMAND_T7  1
    P_G0_T7   PMAX_G0_T7  1
    P_G0_T7   PMIN_G0_T7  1
    P_G0_T7   RAMPUP_G0_T7  1
    P_G0_T7   RAMPDN_G0_T7  -1
    P_G0_T7   RAMPUP_G0_T8  -1
    P_G0_T7   RAMPDN_G0_T8  1
    P_G1_T7   TOTAL_COST  34.9
    P_G1_T7   DEMAND_T7  1
    P_G1_T7   PMAX_G1_T7  1
    P_G1_T7   PMIN_G1_T7  1
    P_G1_T7   RAMPUP_G1_T7  1
    P_G1_T7   RAMPDN_G1_T7  -1
    P_G1_T7   RAMPUP_G1_T8  -1
    P_G1_T7   RAMPDN_G1_T8  1
    P_G2_T7   TOTAL_COST  47.4
    P_G2_T7   DEMAND_T7  1
    P_G2_T7   PMAX_G2_T7  1
    P_G2_T7   PMIN_G2_T7  1
    P_G2_T7   RAMPUP_G2_T7  1
    P_G2_T7   RAMPDN_G2_T7  -1
    P_G2_T7   RAMPUP_G2_T8  -1
    P_G2_T7   RAMPDN_G2_T8  1
    P_G3_T7   TOTAL_COST  38
    P_G3_T7   DEMAND_T7  1
    P_G3_T7   PMAX_G3_T7  1
    P_G3_T7   PMIN_G3_T7  1
    P_G3_T7   RAMPUP_G3_T7  1
    P_G3_T7   RAMPDN_G3_T7  -1
    P_G3_T7   RAMPUP_G3_T8  -1
    P_G3_T7   RAMPDN_G3_T8  1
    P_G4_T7   TOTAL_COST  37
    P_G4_T7   DEMAND_T7  1
    P_G4_T7   PMAX_G4_T7  1
    P_G4_T7   PMIN_G4_T7  1
    P_G4_T7   RAMPUP_G4_T7  1
    P_G4_T7   RAMPDN_G4_T7  -1
    P_G4_T7   RAMPUP_G4_T8  -1
    P_G4_T7   RAMPDN_G4_T8  1
    P_G5_T7   TOTAL_COST  37.8
    P_G5_T7   DEMAND_T7  1
    P_G5_T7   PMAX_G5_T7  1
    P_G5_T7   PMIN_G5_T7  1
    P_G5_T7   RAMPUP_G5_T7  1
    P_G5_T7   RAMPDN_G5_T7  -1
    P_G5_T7   RAMPUP_G5_T8  -1
    P_G5_T7   RAMPDN_G5_T8  1
    P_G6_T7   TOTAL_COST  50
    P_G6_T7   DEMAND_T7  1
    P_G6_T7   PMAX_G6_T7  1
    P_G6_T7   PMIN_G6_T7  1
    P_G6_T7   RAMPUP_G6_T7  1
    P_G6_T7   RAMPDN_G6_T7  -1
    P_G6_T7   RAMPUP_G6_T8  -1
    P_G6_T7   RAMPDN_G6_T8  1
    P_G7_T7   TOTAL_COST  36.6
    P_G7_T7   DEMAND_T7  1
    P_G7_T7   PMAX_G7_T7  1
    P_G7_T7   PMIN_G7_T7  1
    P_G7_T7   RAMPUP_G7_T7  1
    P_G7_T7   RAMPDN_G7_T7  -1
    P_G7_T7   RAMPUP_G7_T8  -1
    P_G7_T7   RAMPDN_G7_T8  1
    P_G8_T7   TOTAL_COST  41.5
    P_G8_T7   DEMAND_T7  1
    P_G8_T7   PMAX_G8_T7  1
    P_G8_T7   PMIN_G8_T7  1
    P_G8_T7   RAMPUP_G8_T7  1
    P_G8_T7   RAMPDN_G8_T7  -1
    P_G8_T7   RAMPUP_G8_T8  -1
    P_G8_T7   RAMPDN_G8_T8  1
    P_G9_T7   TOTAL_COST  35.4
    P_G9_T7   DEMAND_T7  1
    P_G9_T7   PMAX_G9_T7  1
    P_G9_T7   PMIN_G9_T7  1
    P_G9_T7   RAMPUP_G9_T7  1
    P_G9_T7   RAMPDN_G9_T7  -1
    P_G9_T7   RAMPUP_G9_T8  -1
    P_G9_T7   RAMPDN_G9_T8  1
    P_G10_T7  TOTAL_COST  23
    P_G10_T7  DEMAND_T7  1
    P_G10_T7  PMAX_G10_T7  1
    P_G10_T7  PMIN_G10_T7  1
    P_G10_T7  RAMPUP_G10_T7  1
    P_G10_T7  RAMPDN_G10_T7  -1
    P_G10_T7  RAMPUP_G10_T8  -1
    P_G10_T7  RAMPDN_G10_T8  1
    P_G11_T7  TOTAL_COST  43.8
    P_G11_T7  DEMAND_T7  1
    P_G11_T7  PMAX_G11_T7  1
    P_G11_T7  PMIN_G11_T7  1
    P_G11_T7  RAMPUP_G11_T7  1
    P_G11_T7  RAMPDN_G11_T7  -1
    P_G11_T7  RAMPUP_G11_T8  -1
    P_G11_T7  RAMPDN_G11_T8  1
    P_G12_T7  TOTAL_COST  53
    P_G12_T7  DEMAND_T7  1
    P_G12_T7  PMAX_G12_T7  1
    P_G12_T7  PMIN_G12_T7  1
    P_G12_T7  RAMPUP_G12_T7  1
    P_G12_T7  RAMPDN_G12_T7  -1
    P_G12_T7  RAMPUP_G12_T8  -1
    P_G12_T7  RAMPDN_G12_T8  1
    P_G13_T7  TOTAL_COST  40.9
    P_G13_T7  DEMAND_T7  1
    P_G13_T7  PMAX_G13_T7  1
    P_G13_T7  PMIN_G13_T7  1
    P_G13_T7  RAMPUP_G13_T7  1
    P_G13_T7  RAMPDN_G13_T7  -1
    P_G13_T7  RAMPUP_G13_T8  -1
    P_G13_T7  RAMPDN_G13_T8  1
    P_G14_T7  TOTAL_COST  49.2
    P_G14_T7  DEMAND_T7  1
    P_G14_T7  PMAX_G14_T7  1
    P_G14_T7  PMIN_G14_T7  1
    P_G14_T7  RAMPUP_G14_T7  1
    P_G14_T7  RAMPDN_G14_T7  -1
    P_G14_T7  RAMPUP_G14_T8  -1
    P_G14_T7  RAMPDN_G14_T8  1
    P_G15_T7  TOTAL_COST  51.8
    P_G15_T7  DEMAND_T7  1
    P_G15_T7  PMAX_G15_T7  1
    P_G15_T7  PMIN_G15_T7  1
    P_G15_T7  RAMPUP_G15_T7  1
    P_G15_T7  RAMPDN_G15_T7  -1
    P_G15_T7  RAMPUP_G15_T8  -1
    P_G15_T7  RAMPDN_G15_T8  1
    P_G16_T7  TOTAL_COST  49.5
    P_G16_T7  DEMAND_T7  1
    P_G16_T7  PMAX_G16_T7  1
    P_G16_T7  PMIN_G16_T7  1
    P_G16_T7  RAMPUP_G16_T7  1
    P_G16_T7  RAMPDN_G16_T7  -1
    P_G16_T7  RAMPUP_G16_T8  -1
    P_G16_T7  RAMPDN_G16_T8  1
    P_G17_T7  TOTAL_COST  43.7
    P_G17_T7  DEMAND_T7  1
    P_G17_T7  PMAX_G17_T7  1
    P_G17_T7  PMIN_G17_T7  1
    P_G17_T7  RAMPUP_G17_T7  1
    P_G17_T7  RAMPDN_G17_T7  -1
    P_G17_T7  RAMPUP_G17_T8  -1
    P_G17_T7  RAMPDN_G17_T8  1
    P_G18_T7  TOTAL_COST  49.4
    P_G18_T7  DEMAND_T7  1
    P_G18_T7  PMAX_G18_T7  1
    P_G18_T7  PMIN_G18_T7  1
    P_G18_T7  RAMPUP_G18_T7  1
    P_G18_T7  RAMPDN_G18_T7  -1
    P_G18_T7  RAMPUP_G18_T8  -1
    P_G18_T7  RAMPDN_G18_T8  1
    P_G19_T7  TOTAL_COST  29.2
    P_G19_T7  DEMAND_T7  1
    P_G19_T7  PMAX_G19_T7  1
    P_G19_T7  PMIN_G19_T7  1
    P_G19_T7  RAMPUP_G19_T7  1
    P_G19_T7  RAMPDN_G19_T7  -1
    P_G19_T7  RAMPUP_G19_T8  -1
    P_G19_T7  RAMPDN_G19_T8  1
    MARK3200  'MARKER'                 'INTORG'
    U_G0_T8   TOTAL_COST  141
    U_G0_T8   RESERVE_T8  235
    U_G0_T8   PMAX_G0_T8  -235
    U_G0_T8   PMIN_G0_T8  -65
    MARK3210  'MARKER'                 'INTEND'
    MARK3220  'MARKER'                 'INTORG'
    U_G1_T8   TOTAL_COST  182
    U_G1_T8   RESERVE_T8  223
    U_G1_T8   PMAX_G1_T8  -223
    U_G1_T8   PMIN_G1_T8  -26
    MARK3230  'MARKER'                 'INTEND'
    MARK3240  'MARKER'                 'INTORG'
    U_G2_T8   TOTAL_COST  291
    U_G2_T8   RESERVE_T8  214
    U_G2_T8   PMAX_G2_T8  -214
    U_G2_T8   PMIN_G2_T8  -21
    MARK3250  'MARKER'                 'INTEND'
    MARK3260  'MARKER'                 'INTORG'
    U_G3_T8   TOTAL_COST  114
    U_G3_T8   RESERVE_T8  256
    U_G3_T8   PMAX_G3_T8  -256
    U_G3_T8   PMIN_G3_T8  -77
    MARK3270  'MARKER'                 'INTEND'
    MARK3280  'MARKER'                 'INTORG'
    U_G4_T8   TOTAL_COST  130
    U_G4_T8   RESERVE_T8  147
    U_G4_T8   PMAX_G4_T8  -147
    U_G4_T8   PMIN_G4_T8  -65
    MARK3290  'MARKER'                 'INTEND'
    MARK3300  'MARKER'                 'INTORG'
    U_G5_T8   TOTAL_COST  332
    U_G5_T8   RESERVE_T8  215
    U_G5_T8   PMAX_G5_T8  -215
    U_G5_T8   PMIN_G5_T8  -26
    MARK3310  'MARKER'                 'INTEND'
    MARK3320  'MARKER'                 'INTORG'
    U_G6_T8   TOTAL_COST  341
    U_G6_T8   RESERVE_T8  178
    U_G6_T8   PMAX_G6_T8  -178
    U_G6_T8   PMIN_G6_T8  -65
    MARK3330  'MARKER'                 'INTEND'
    MARK3340  'MARKER'                 'INTORG'
    U_G7_T8   TOTAL_COST  189
    U_G7_T8   RESERVE_T8  254
    U_G7_T8   PMAX_G7_T8  -254
    U_G7_T8   PMIN_G7_T8  -76
    MARK3350  'MARKER'                 'INTEND'
    MARK3360  'MARKER'                 'INTORG'
    U_G8_T8   TOTAL_COST  247
    U_G8_T8   RESERVE_T8  203
    U_G8_T8   PMAX_G8_T8  -203
    U_G8_T8   PMIN_G8_T8  -62
    MARK3370  'MARKER'                 'INTEND'
    MARK3380  'MARKER'                 'INTORG'
    U_G9_T8   TOTAL_COST  300
    U_G9_T8   RESERVE_T8  209
    U_G9_T8   PMAX_G9_T8  -209
    U_G9_T8   PMIN_G9_T8  -56
    MARK3390  'MARKER'                 'INTEND'
    MARK3400  'MARKER'                 'INTORG'
    U_G10_T8  TOTAL_COST  346
    U_G10_T8  RESERVE_T8  136
    U_G10_T8  PMAX_G10_T8  -136
    U_G10_T8  PMIN_G10_T8  -46
    MARK3410  'MARKER'                 'INTEND'
    MARK3420  'MARKER'                 'INTORG'
    U_G11_T8  TOTAL_COST  286
    U_G11_T8  RESERVE_T8  299
    U_G11_T8  PMAX_G11_T8  -299
    U_G11_T8  PMIN_G11_T8  -47
    MARK3430  'MARKER'                 'INTEND'
    MARK3440  'MARKER'                 'INTORG'
    U_G12_T8  TOTAL_COST  248
    U_G12_T8  RESERVE_T8  206
    U_G12_T8  PMAX_G12_T8  -206
    U_G12_T8  PMIN_G12_T8  -72
    MARK3450  'MARKER'                 'INTEND'
    MARK3460  'MARKER'                 'INTORG'
    U_G13_T8  TOTAL_COST  209
    U_G13_T8  RESERVE_T8  173
    U_G13_T8  PMAX_G13_T8  -173
    U_G13_T8  PMIN_G13_T8  -39
    MARK3470  'MARKER'                 'INTEND'
    MARK3480  'MARKER'                 'INTORG'
    U_G14_T8  TOTAL_COST  295
    U_G14_T8  RESERVE_T8  243
    U_G14_T8  PMAX_G14_T8  -243
    U_G14_T8  PMIN_G14_T8  -38
    MARK3490  'MARKER'                 'INTEND'
    MARK3500  'MARKER'                 'INTORG'
    U_G15_T8  TOTAL_COST  221
    U_G15_T8  RESERVE_T8  237
    U_G15_T8  PMAX_G15_T8  -237
    U_G15_T8  PMIN_G15_T8  -67
    MARK3510  'MARKER'                 'INTEND'
    MARK3520  'MARKER'                 'INTORG'
    U_G16_T8  TOTAL_COST  278
    U_G16_T8  RESERVE_T8  174
    U_G16_T8  PMAX_G16_T8  -174
    U_G16_T8  PMIN_G16_T8  -41
    MARK3530  'MARKER'                 'INTEND'
    MARK3540  'MARKER'                 'INTORG'
    U_G17_T8  TOTAL_COST  256
    U_G17_T8  RESERVE_T8  232
    U_G17_T8  PMAX_G17_T8  -232
    U_G17_T8  PMIN_G17_T8  -28
    MARK3550  'MARKER'                 'INTEND'
    MARK3560  'MARKER'                 'INTORG'
    U_G18_T8  TOTAL_COST  284
    U_G18_T8  RESERVE_T8  186
    U_G18_T8  PMAX_G18_T8  -186
    U_G18_T8  PMIN_G18_T8  -24
    MARK3570  'MARKER'                 'INTEND'
    MARK3580  'MARKER'                 'INTORG'
    U_G19_T8  TOTAL_COST  259
    U_G19_T8  RESERVE_T8  253
    U_G19_T8  PMAX_G19_T8  -253
    U_G19_T8  PMIN_G19_T8  -76
    MARK3590  'MARKER'                 'INTEND'
    P_G0_T8   TOTAL_COST  50.1
    P_G0_T8   DEMAND_T8  1
    P_G0_T8   PMAX_G0_T8  1
    P_G0_T8   PMIN_G0_T8  1
    P_G0_T8   RAMPUP_G0_T8  1
    P_G0_T8   RAMPDN_G0_T8  -1
    P_G0_T8   RAMPUP_G0_T9  -1
    P_G0_T8   RAMPDN_G0_T9  1
    P_G1_T8   TOTAL_COST  34.9
    P_G1_T8   DEMAND_T8  1
    P_G1_T8   PMAX_G1_T8  1
    P_G1_T8   PMIN_G1_T8  1
    P_G1_T8   RAMPUP_G1_T8  1
    P_G1_T8   RAMPDN_G1_T8  -1
    P_G1_T8   RAMPUP_G1_T9  -1
    P_G1_T8   RAMPDN_G1_T9  1
    P_G2_T8   TOTAL_COST  47.4
    P_G2_T8   DEMAND_T8  1
    P_G2_T8   PMAX_G2_T8  1
    P_G2_T8   PMIN_G2_T8  1
    P_G2_T8   RAMPUP_G2_T8  1
    P_G2_T8   RAMPDN_G2_T8  -1
    P_G2_T8   RAMPUP_G2_T9  -1
    P_G2_T8   RAMPDN_G2_T9  1
    P_G3_T8   TOTAL_COST  38
    P_G3_T8   DEMAND_T8  1
    P_G3_T8   PMAX_G3_T8  1
    P_G3_T8   PMIN_G3_T8  1
    P_G3_T8   RAMPUP_G3_T8  1
    P_G3_T8   RAMPDN_G3_T8  -1
    P_G3_T8   RAMPUP_G3_T9  -1
    P_G3_T8   RAMPDN_G3_T9  1
    P_G4_T8   TOTAL_COST  37
    P_G4_T8   DEMAND_T8  1
    P_G4_T8   PMAX_G4_T8  1
    P_G4_T8   PMIN_G4_T8  1
    P_G4_T8   RAMPUP_G4_T8  1
    P_G4_T8   RAMPDN_G4_T8  -1
    P_G4_T8   RAMPUP_G4_T9  -1
    P_G4_T8   RAMPDN_G4_T9  1
    P_G5_T8   TOTAL_COST  37.8
    P_G5_T8   DEMAND_T8  1
    P_G5_T8   PMAX_G5_T8  1
    P_G5_T8   PMIN_G5_T8  1
    P_G5_T8   RAMPUP_G5_T8  1
    P_G5_T8   RAMPDN_G5_T8  -1
    P_G5_T8   RAMPUP_G5_T9  -1
    P_G5_T8   RAMPDN_G5_T9  1
    P_G6_T8   TOTAL_COST  50
    P_G6_T8   DEMAND_T8  1
    P_G6_T8   PMAX_G6_T8  1
    P_G6_T8   PMIN_G6_T8  1
    P_G6_T8   RAMPUP_G6_T8  1
    P_G6_T8   RAMPDN_G6_T8  -1
    P_G6_T8   RAMPUP_G6_T9  -1
    P_G6_T8   RAMPDN_G6_T9  1
    P_G7_T8   TOTAL_COST  36.6
    P_G7_T8   DEMAND_T8  1
    P_G7_T8   PMAX_G7_T8  1
    P_G7_T8   PMIN_G7_T8  1
    P_G7_T8   RAMPUP_G7_T8  1
    P_G7_T8   RAMPDN_G7_T8  -1
    P_G7_T8   RAMPUP_G7_T9  -1
    P_G7_T8   RAMPDN_G7_T9  1
    P_G8_T8   TOTAL_COST  41.5
    P_G8_T8   DEMAND_T8  1
    P_G8_T8   PMAX_G8_T8  1
    P_G8_T8   PMIN_G8_T8  1
    P_G8_T8   RAMPUP_G8_T8  1
    P_G8_T8   RAMPDN_G8_T8  -1
    P_G8_T8   RAMPUP_G8_T9  -1
    P_G8_T8   RAMPDN_G8_T9  1
    P_G9_T8   TOTAL_COST  35.4
    P_G9_T8   DEMAND_T8  1
    P_G9_T8   PMAX_G9_T8  1
    P_G9_T8   PMIN_G9_T8  1
    P_G9_T8   RAMPUP_G9_T8  1
    P_G9_T8   RAMPDN_G9_T8  -1
    P_G9_T8   RAMPUP_G9_T9  -1
    P_G9_T8   RAMPDN_G9_T9  1
    P_G10_T8  TOTAL_COST  23
    P_G10_T8  DEMAND_T8  1
    P_G10_T8  PMAX_G10_T8  1
    P_G10_T8  PMIN_G10_T8  1
    P_G10_T8  RAMPUP_G10_T8  1
    P_G10_T8  RAMPDN_G10_T8  -1
    P_G10_T8  RAMPUP_G10_T9  -1
    P_G10_T8  RAMPDN_G10_T9  1
    P_G11_T8  TOTAL_COST  43.8
    P_G11_T8  DEMAND_T8  1
    P_G11_T8  PMAX_G11_T8  1
    P_G11_T8  PMIN_G11_T8  1
    P_G11_T8  RAMPUP_G11_T8  1
    P_G11_T8  RAMPDN_G11_T8  -1
    P_G11_T8  RAMPUP_G11_T9  -1
    P_G11_T8  RAMPDN_G11_T9  1
    P_G12_T8  TOTAL_COST  53
    P_G12_T8  DEMAND_T8  1
    P_G12_T8  PMAX_G12_T8  1
    P_G12_T8  PMIN_G12_T8  1
    P_G12_T8  RAMPUP_G12_T8  1
    P_G12_T8  RAMPDN_G12_T8  -1
    P_G12_T8  RAMPUP_G12_T9  -1
    P_G12_T8  RAMPDN_G12_T9  1
    P_G13_T8  TOTAL_COST  40.9
    P_G13_T8  DEMAND_T8  1
    P_G13_T8  PMAX_G13_T8  1
    P_G13_T8  PMIN_G13_T8  1
    P_G13_T8  RAMPUP_G13_T8  1
    P_G13_T8  RAMPDN_G13_T8  -1
    P_G13_T8  RAMPUP_G13_T9  -1
    P_G13_T8  RAMPDN_G13_T9  1
    P_G14_T8  TOTAL_COST  49.2
    P_G14_T8  DEMAND_T8  1
    P_G14_T8  PMAX_G14_T8  1
    P_G14_T8  PMIN_G14_T8  1
    P_G14_T8  RAMPUP_G14_T8  1
    P_G14_T8  RAMPDN_G14_T8  -1
    P_G14_T8  RAMPUP_G14_T9  -1
    P_G14_T8  RAMPDN_G14_T9  1
    P_G15_T8  TOTAL_COST  51.8
    P_G15_T8  DEMAND_T8  1
    P_G15_T8  PMAX_G15_T8  1
    P_G15_T8  PMIN_G15_T8  1
    P_G15_T8  RAMPUP_G15_T8  1
    P_G15_T8  RAMPDN_G15_T8  -1
    P_G15_T8  RAMPUP_G15_T9  -1
    P_G15_T8  RAMPDN_G15_T9  1
    P_G16_T8  TOTAL_COST  49.5
    P_G16_T8  DEMAND_T8  1
    P_G16_T8  PMAX_G16_T8  1
    P_G16_T8  PMIN_G16_T8  1
    P_G16_T8  RAMPUP_G16_T8  1
    P_G16_T8  RAMPDN_G16_T8  -1
    P_G16_T8  RAMPUP_G16_T9  -1
    P_G16_T8  RAMPDN_G16_T9  1
    P_G17_T8  TOTAL_COST  43.7
    P_G17_T8  DEMAND_T8  1
    P_G17_T8  PMAX_G17_T8  1
    P_G17_T8  PMIN_G17_T8  1
    P_G17_T8  RAMPUP_G17_T8  1
    P_G17_T8  RAMPDN_G17_T8  -1
    P_G17_T8  RAMPUP_G17_T9  -1
    P_G17_T8  RAMPDN_G17_T9  1
    P_G18_T8  TOTAL_COST  49.4
    P_G18_T8  DEMAND_T8  1
    P_G18_T8  PMAX_G18_T8  1
    P_G18_T8  PMIN_G18_T8  1
    P_G18_T8  RAMPUP_G18_T8  1
    P_G18_T8  RAMPDN_G18_T8  -1
    P_G18_T8  RAMPUP_G18_T9  -1
    P_G18_T8  RAMPDN_G18_T9  1
    P_G19_T8  TOTAL_COST  29.2
    P_G19_T8  DEMAND_T8  1
    P_G19_T8  PMAX_G19_T8  1
    P_G19_T8  PMIN_G19_T8  1
    P_G19_T8  RAMPUP_G19_T8  1
    P_G19_T8  RAMPDN_G19_T8  -1
    P_G19_T8  RAMPUP_G19_T9  -1
    P_G19_T8  RAMPDN_G19_T9  1
    MARK3600  'MARKER'                 'INTORG'
    U_G0_T9   TOTAL_COST  141
    U_G0_T9   RESERVE_T9  235
    U_G0_T9   PMAX_G0_T9  -235
    U_G0_T9   PMIN_G0_T9  -65
    MARK3610  'MARKER'                 'INTEND'
    MARK3620  'MARKER'                 'INTORG'
    U_G1_T9   TOTAL_COST  182
    U_G1_T9   RESERVE_T9  223
    U_G1_T9   PMAX_G1_T9  -223
    U_G1_T9   PMIN_G1_T9  -26
    MARK3630  'MARKER'                 'INTEND'
    MARK3640  'MARKER'                 'INTORG'
    U_G2_T9   TOTAL_COST  291
    U_G2_T9   RESERVE_T9  214
    U_G2_T9   PMAX_G2_T9  -214
    U_G2_T9   PMIN_G2_T9  -21
    MARK3650  'MARKER'                 'INTEND'
    MARK3660  'MARKER'                 'INTORG'
    U_G3_T9   TOTAL_COST  114
    U_G3_T9   RESERVE_T9  256
    U_G3_T9   PMAX_G3_T9  -256
    U_G3_T9   PMIN_G3_T9  -77
    MARK3670  'MARKER'                 'INTEND'
    MARK3680  'MARKER'                 'INTORG'
    U_G4_T9   TOTAL_COST  130
    U_G4_T9   RESERVE_T9  147
    U_G4_T9   PMAX_G4_T9  -147
    U_G4_T9   PMIN_G4_T9  -65
    MARK3690  'MARKER'                 'INTEND'
    MARK3700  'MARKER'                 'INTORG'
    U_G5_T9   TOTAL_COST  332
    U_G5_T9   RESERVE_T9  215
    U_G5_T9   PMAX_G5_T9  -215
    U_G5_T9   PMIN_G5_T9  -26
    MARK3710  'MARKER'                 'INTEND'
    MARK3720  'MARKER'                 'INTORG'
    U_G6_T9   TOTAL_COST  341
    U_G6_T9   RESERVE_T9  178
    U_G6_T9   PMAX_G6_T9  -178
    U_G6_T9   PMIN_G6_T9  -65
    MARK3730  'MARKER'                 'INTEND'
    MARK3740  'MARKER'                 'INTORG'
    U_G7_T9   TOTAL_COST  189
    U_G7_T9   RESERVE_T9  254
    U_G7_T9   PMAX_G7_T9  -254
    U_G7_T9   PMIN_G7_T9  -76
    MARK3750  'MARKER'                 'INTEND'
    MARK3760  'MARKER'                 'INTORG'
    U_G8_T9   TOTAL_COST  247
    U_G8_T9   RESERVE_T9  203
    U_G8_T9   PMAX_G8_T9  -203
    U_G8_T9   PMIN_G8_T9  -62
    MARK3770  'MARKER'                 'INTEND'
    MARK3780  'MARKER'                 'INTORG'
    U_G9_T9   TOTAL_COST  300
    U_G9_T9   RESERVE_T9  209
    U_G9_T9   PMAX_G9_T9  -209
    U_G9_T9   PMIN_G9_T9  -56
    MARK3790  'MARKER'                 'INTEND'
    MARK3800  'MARKER'                 'INTORG'
    U_G10_T9  TOTAL_COST  346
    U_G10_T9  RESERVE_T9  136
    U_G10_T9  PMAX_G10_T9  -136
    U_G10_T9  PMIN_G10_T9  -46
    MARK3810  'MARKER'                 'INTEND'
    MARK3820  'MARKER'                 'INTORG'
    U_G11_T9  TOTAL_COST  286
    U_G11_T9  RESERVE_T9  299
    U_G11_T9  PMAX_G11_T9  -299
    U_G11_T9  PMIN_G11_T9  -47
    MARK3830  'MARKER'                 'INTEND'
    MARK3840  'MARKER'                 'INTORG'
    U_G12_T9  TOTAL_COST  248
    U_G12_T9  RESERVE_T9  206
    U_G12_T9  PMAX_G12_T9  -206
    U_G12_T9  PMIN_G12_T9  -72
    MARK3850  'MARKER'                 'INTEND'
    MARK3860  'MARKER'                 'INTORG'
    U_G13_T9  TOTAL_COST  209
    U_G13_T9  RESERVE_T9  173
    U_G13_T9  PMAX_G13_T9  -173
    U_G13_T9  PMIN_G13_T9  -39
    MARK3870  'MARKER'                 'INTEND'
    MARK3880  'MARKER'                 'INTORG'
    U_G14_T9  TOTAL_COST  295
    U_G14_T9  RESERVE_T9  243
    U_G14_T9  PMAX_G14_T9  -243
    U_G14_T9  PMIN_G14_T9  -38
    MARK3890  'MARKER'                 'INTEND'
    MARK3900  'MARKER'                 'INTORG'
    U_G15_T9  TOTAL_COST  221
    U_G15_T9  RESERVE_T9  237
    U_G15_T9  PMAX_G15_T9  -237
    U_G15_T9  PMIN_G15_T9  -67
    MARK3910  'MARKER'                 'INTEND'
    MARK3920  'MARKER'                 'INTORG'
    U_G16_T9  TOTAL_COST  278
    U_G16_T9  RESERVE_T9  174
    U_G16_T9  PMAX_G16_T9  -174
    U_G16_T9  PMIN_G16_T9  -41
    MARK3930  'MARKER'                 'INTEND'
    MARK3940  'MARKER'                 'INTORG'
    U_G17_T9  TOTAL_COST  256
    U_G17_T9  RESERVE_T9  232
    U_G17_T9  PMAX_G17_T9  -232
    U_G17_T9  PMIN_G17_T9  -28
    MARK3950  'MARKER'                 'INTEND'
    MARK3960  'MARKER'                 'INTORG'
    U_G18_T9  TOTAL_COST  284
    U_G18_T9  RESERVE_T9  186
    U_G18_T9  PMAX_G18_T9  -186
    U_G18_T9  PMIN_G18_T9  -24
    MARK3970  'MARKER'                 'INTEND'
    MARK3980  'MARKER'                 'INTORG'
    U_G19_T9  TOTAL_COST  259
    U_G19_T9  RESERVE_T9  253
    U_G19_T9  PMAX_G19_T9  -253
    U_G19_T9  PMIN_G19_T9  -76
    MARK3990  'MARKER'                 'INTEND'
    P_G0_T9   TOTAL_COST  50.1
    P_G0_T9   DEMAND_T9  1
    P_G0_T9   PMAX_G0_T9  1
    P_G0_T9   PMIN_G0_T9  1
    P_G0_T9   RAMPUP_G0_T9  1
    P_G0_T9   RAMPDN_G0_T9  -1
    P_G0_T9   RAMPUP_G0_T10  -1
    P_G0_T9   RAMPDN_G0_T10  1
    P_G1_T9   TOTAL_COST  34.9
    P_G1_T9   DEMAND_T9  1
    P_G1_T9   PMAX_G1_T9  1
    P_G1_T9   PMIN_G1_T9  1
    P_G1_T9   RAMPUP_G1_T9  1
    P_G1_T9   RAMPDN_G1_T9  -1
    P_G1_T9   RAMPUP_G1_T10  -1
    P_G1_T9   RAMPDN_G1_T10  1
    P_G2_T9   TOTAL_COST  47.4
    P_G2_T9   DEMAND_T9  1
    P_G2_T9   PMAX_G2_T9  1
    P_G2_T9   PMIN_G2_T9  1
    P_G2_T9   RAMPUP_G2_T9  1
    P_G2_T9   RAMPDN_G2_T9  -1
    P_G2_T9   RAMPUP_G2_T10  -1
    P_G2_T9   RAMPDN_G2_T10  1
    P_G3_T9   TOTAL_COST  38
    P_G3_T9   DEMAND_T9  1
    P_G3_T9   PMAX_G3_T9  1
    P_G3_T9   PMIN_G3_T9  1
    P_G3_T9   RAMPUP_G3_T9  1
    P_G3_T9   RAMPDN_G3_T9  -1
    P_G3_T9   RAMPUP_G3_T10  -1
    P_G3_T9   RAMPDN_G3_T10  1
    P_G4_T9   TOTAL_COST  37
    P_G4_T9   DEMAND_T9  1
    P_G4_T9   PMAX_G4_T9  1
    P_G4_T9   PMIN_G4_T9  1
    P_G4_T9   RAMPUP_G4_T9  1
    P_G4_T9   RAMPDN_G4_T9  -1
    P_G4_T9   RAMPUP_G4_T10  -1
    P_G4_T9   RAMPDN_G4_T10  1
    P_G5_T9   TOTAL_COST  37.8
    P_G5_T9   DEMAND_T9  1
    P_G5_T9   PMAX_G5_T9  1
    P_G5_T9   PMIN_G5_T9  1
    P_G5_T9   RAMPUP_G5_T9  1
    P_G5_T9   RAMPDN_G5_T9  -1
    P_G5_T9   RAMPUP_G5_T10  -1
    P_G5_T9   RAMPDN_G5_T10  1
    P_G6_T9   TOTAL_COST  50
    P_G6_T9   DEMAND_T9  1
    P_G6_T9   PMAX_G6_T9  1
    P_G6_T9   PMIN_G6_T9  1
    P_G6_T9   RAMPUP_G6_T9  1
    P_G6_T9   RAMPDN_G6_T9  -1
    P_G6_T9   RAMPUP_G6_T10  -1
    P_G6_T9   RAMPDN_G6_T10  1
    P_G7_T9   TOTAL_COST  36.6
    P_G7_T9   DEMAND_T9  1
    P_G7_T9   PMAX_G7_T9  1
    P_G7_T9   PMIN_G7_T9  1
    P_G7_T9   RAMPUP_G7_T9  1
    P_G7_T9   RAMPDN_G7_T9  -1
    P_G7_T9   RAMPUP_G7_T10  -1
    P_G7_T9   RAMPDN_G7_T10  1
    P_G8_T9   TOTAL_COST  41.5
    P_G8_T9   DEMAND_T9  1
    P_G8_T9   PMAX_G8_T9  1
    P_G8_T9   PMIN_G8_T9  1
    P_G8_T9   RAMPUP_G8_T9  1
    P_G8_T9   RAMPDN_G8_T9  -1
    P_G8_T9   RAMPUP_G8_T10  -1
    P_G8_T9   RAMPDN_G8_T10  1
    P_G9_T9   TOTAL_COST  35.4
    P_G9_T9   DEMAND_T9  1
    P_G9_T9   PMAX_G9_T9  1
    P_G9_T9   PMIN_G9_T9  1
    P_G9_T9   RAMPUP_G9_T9  1
    P_G9_T9   RAMPDN_G9_T9  -1
    P_G9_T9   RAMPUP_G9_T10  -1
    P_G9_T9   RAMPDN_G9_T10  1
    P_G10_T9  TOTAL_COST  23
    P_G10_T9  DEMAND_T9  1
    P_G10_T9  PMAX_G10_T9  1
    P_G10_T9  PMIN_G10_T9  1
    P_G10_T9  RAMPUP_G10_T9  1
    P_G10_T9  RAMPDN_G10_T9  -1
    P_G10_T9  RAMPUP_G10_T10  -1
    P_G10_T9  RAMPDN_G10_T10  1
    P_G11_T9  TOTAL_COST  43.8
    P_G11_T9  DEMAND_T9  1
    P_G11_T9  PMAX_G11_T9  1
    P_G11_T9  PMIN_G11_T9  1
    P_G11_T9  RAMPUP_G11_T9  1
    P_G11_T9  RAMPDN_G11_T9  -1
    P_G11_T9  RAMPUP_G11_T10  -1
    P_G11_T9  RAMPDN_G11_T10  1
    P_G12_T9  TOTAL_COST  53
    P_G12_T9  DEMAND_T9  1
    P_G12_T9  PMAX_G12_T9  1
    P_G12_T9  PMIN_G12_T9  1
    P_G12_T9  RAMPUP_G12_T9  1
    P_G12_T9  RAMPDN_G12_T9  -1
    P_G12_T9  RAMPUP_G12_T10  -1
    P_G12_T9  RAMPDN_G12_T10  1
    P_G13_T9  TOTAL_COST  40.9
    P_G13_T9  DEMAND_T9  1
    P_G13_T9  PMAX_G13_T9  1
    P_G13_T9  PMIN_G13_T9  1
    P_G13_T9  RAMPUP_G13_T9  1
    P_G13_T9  RAMPDN_G13_T9  -1
    P_G13_T9  RAMPUP_G13_T10  -1
    P_G13_T9  RAMPDN_G13_T10  1
    P_G14_T9  TOTAL_COST  49.2
    P_G14_T9  DEMAND_T9  1
    P_G14_T9  PMAX_G14_T9  1
    P_G14_T9  PMIN_G14_T9  1
    P_G14_T9  RAMPUP_G14_T9  1
    P_G14_T9  RAMPDN_G14_T9  -1
    P_G14_T9  RAMPUP_G14_T10  -1
    P_G14_T9  RAMPDN_G14_T10  1
    P_G15_T9  TOTAL_COST  51.8
    P_G15_T9  DEMAND_T9  1
    P_G15_T9  PMAX_G15_T9  1
    P_G15_T9  PMIN_G15_T9  1
    P_G15_T9  RAMPUP_G15_T9  1
    P_G15_T9  RAMPDN_G15_T9  -1
    P_G15_T9  RAMPUP_G15_T10  -1
    P_G15_T9  RAMPDN_G15_T10  1
    P_G16_T9  TOTAL_COST  49.5
    P_G16_T9  DEMAND_T9  1
    P_G16_T9  PMAX_G16_T9  1
    P_G16_T9  PMIN_G16_T9  1
    P_G16_T9  RAMPUP_G16_T9  1
    P_G16_T9  RAMPDN_G16_T9  -1
    P_G16_T9  RAMPUP_G16_T10  -1
    P_G16_T9  RAMPDN_G16_T10  1
    P_G17_T9  TOTAL_COST  43.7
    P_G17_T9  DEMAND_T9  1
    P_G17_T9  PMAX_G17_T9  1
    P_G17_T9  PMIN_G17_T9  1
    P_G17_T9  RAMPUP_G17_T9  1
    P_G17_T9  RAMPDN_G17_T9  -1
    P_G17_T9  RAMPUP_G17_T10  -1
    P_G17_T9  RAMPDN_G17_T10  1
    P_G18_T9  TOTAL_COST  49.4
    P_G18_T9  DEMAND_T9  1
    P_G18_T9  PMAX_G18_T9  1
    P_G18_T9  PMIN_G18_T9  1
    P_G18_T9  RAMPUP_G18_T9  1
    P_G18_T9  RAMPDN_G18_T9  -1
    P_G18_T9  RAMPUP_G18_T10  -1
    P_G18_T9  RAMPDN_G18_T10  1
    P_G19_T9  TOTAL_COST  29.2
    P_G19_T9  DEMAND_T9  1
    P_G19_T9  PMAX_G19_T9  1
    P_G19_T9  PMIN_G19_T9  1
    P_G19_T9  RAMPUP_G19_T9  1
    P_G19_T9  RAMPDN_G19_T9  -1
    P_G19_T9  RAMPUP_G19_T10  -1
    P_G19_T9  RAMPDN_G19_T10  1
    MARK4000  'MARKER'                 'INTORG'
    U_G0_T10  TOTAL_COST  141
    U_G0_T10  RESERVE_T10  235
    U_G0_T10  PMAX_G0_T10  -235
    U_G0_T10  PMIN_G0_T10  -65
    MARK4010  'MARKER'                 'INTEND'
    MARK4020  'MARKER'                 'INTORG'
    U_G1_T10  TOTAL_COST  182
    U_G1_T10  RESERVE_T10  223
    U_G1_T10  PMAX_G1_T10  -223
    U_G1_T10  PMIN_G1_T10  -26
    MARK4030  'MARKER'                 'INTEND'
    MARK4040  'MARKER'                 'INTORG'
    U_G2_T10  TOTAL_COST  291
    U_G2_T10  RESERVE_T10  214
    U_G2_T10  PMAX_G2_T10  -214
    U_G2_T10  PMIN_G2_T10  -21
    MARK4050  'MARKER'                 'INTEND'
    MARK4060  'MARKER'                 'INTORG'
    U_G3_T10  TOTAL_COST  114
    U_G3_T10  RESERVE_T10  256
    U_G3_T10  PMAX_G3_T10  -256
    U_G3_T10  PMIN_G3_T10  -77
    MARK4070  'MARKER'                 'INTEND'
    MARK4080  'MARKER'                 'INTORG'
    U_G4_T10  TOTAL_COST  130
    U_G4_T10  RESERVE_T10  147
    U_G4_T10  PMAX_G4_T10  -147
    U_G4_T10  PMIN_G4_T10  -65
    MARK4090  'MARKER'                 'INTEND'
    MARK4100  'MARKER'                 'INTORG'
    U_G5_T10  TOTAL_COST  332
    U_G5_T10  RESERVE_T10  215
    U_G5_T10  PMAX_G5_T10  -215
    U_G5_T10  PMIN_G5_T10  -26
    MARK4110  'MARKER'                 'INTEND'
    MARK4120  'MARKER'                 'INTORG'
    U_G6_T10  TOTAL_COST  341
    U_G6_T10  RESERVE_T10  178
    U_G6_T10  PMAX_G6_T10  -178
    U_G6_T10  PMIN_G6_T10  -65
    MARK4130  'MARKER'                 'INTEND'
    MARK4140  'MARKER'                 'INTORG'
    U_G7_T10  TOTAL_COST  189
    U_G7_T10  RESERVE_T10  254
    U_G7_T10  PMAX_G7_T10  -254
    U_G7_T10  PMIN_G7_T10  -76
    MARK4150  'MARKER'                 'INTEND'
    MARK4160  'MARKER'                 'INTORG'
    U_G8_T10  TOTAL_COST  247
    U_G8_T10  RESERVE_T10  203
    U_G8_T10  PMAX_G8_T10  -203
    U_G8_T10  PMIN_G8_T10  -62
    MARK4170  'MARKER'                 'INTEND'
    MARK4180  'MARKER'                 'INTORG'
    U_G9_T10  TOTAL_COST  300
    U_G9_T10  RESERVE_T10  209
    U_G9_T10  PMAX_G9_T10  -209
    U_G9_T10  PMIN_G9_T10  -56
    MARK4190  'MARKER'                 'INTEND'
    MARK4200  'MARKER'                 'INTORG'
    U_G10_T10  TOTAL_COST  346
    U_G10_T10  RESERVE_T10  136
    U_G10_T10  PMAX_G10_T10  -136
    U_G10_T10  PMIN_G10_T10  -46
    MARK4210  'MARKER'                 'INTEND'
    MARK4220  'MARKER'                 'INTORG'
    U_G11_T10  TOTAL_COST  286
    U_G11_T10  RESERVE_T10  299
    U_G11_T10  PMAX_G11_T10  -299
    U_G11_T10  PMIN_G11_T10  -47
    MARK4230  'MARKER'                 'INTEND'
    MARK4240  'MARKER'                 'INTORG'
    U_G12_T10  TOTAL_COST  248
    U_G12_T10  RESERVE_T10  206
    U_G12_T10  PMAX_G12_T10  -206
    U_G12_T10  PMIN_G12_T10  -72
    MARK4250  'MARKER'                 'INTEND'
    MARK4260  'MARKER'                 'INTORG'
    U_G13_T10  TOTAL_COST  209
    U_G13_T10  RESERVE_T10  173
    U_G13_T10  PMAX_G13_T10  -173
    U_G13_T10  PMIN_G13_T10  -39
    MARK4270  'MARKER'                 'INTEND'
    MARK4280  'MARKER'                 'INTORG'
    U_G14_T10  TOTAL_COST  295
    U_G14_T10  RESERVE_T10  243
    U_G14_T10  PMAX_G14_T10  -243
    U_G14_T10  PMIN_G14_T10  -38
    MARK4290  'MARKER'                 'INTEND'
    MARK4300  'MARKER'                 'INTORG'
    U_G15_T10  TOTAL_COST  221
    U_G15_T10  RESERVE_T10  237
    U_G15_T10  PMAX_G15_T10  -237
    U_G15_T10  PMIN_G15_T10  -67
    MARK4310  'MARKER'                 'INTEND'
    MARK4320  'MARKER'                 'INTORG'
    U_G16_T10  TOTAL_COST  278
    U_G16_T10  RESERVE_T10  174
    U_G16_T10  PMAX_G16_T10  -174
    U_G16_T10  PMIN_G16_T10  -41
    MARK4330  'MARKER'                 'INTEND'
    MARK4340  'MARKER'                 'INTORG'
    U_G17_T10  TOTAL_COST  256
    U_G17_T10  RESERVE_T10  232
    U_G17_T10  PMAX_G17_T10  -232
    U_G17_T10  PMIN_G17_T10  -28
    MARK4350  'MARKER'                 'INTEND'
    MARK4360  'MARKER'                 'INTORG'
    U_G18_T10  TOTAL_COST  284
    U_G18_T10  RESERVE_T10  186
    U_G18_T10  PMAX_G18_T10  -186
    U_G18_T10  PMIN_G18_T10  -24
    MARK4370  'MARKER'                 'INTEND'
    MARK4380  'MARKER'                 'INTORG'
    U_G19_T10  TOTAL_COST  259
    U_G19_T10  RESERVE_T10  253
    U_G19_T10  PMAX_G19_T10  -253
    U_G19_T10  PMIN_G19_T10  -76
    MARK4390  'MARKER'                 'INTEND'
    P_G0_T10  TOTAL_COST  50.1
    P_G0_T10  DEMAND_T10  1
    P_G0_T10  PMAX_G0_T10  1
    P_G0_T10  PMIN_G0_T10  1
    P_G0_T10  RAMPUP_G0_T10  1
    P_G0_T10  RAMPDN_G0_T10  -1
    P_G0_T10  RAMPUP_G0_T11  -1
    P_G0_T10  RAMPDN_G0_T11  1
    P_G1_T10  TOTAL_COST  34.9
    P_G1_T10  DEMAND_T10  1
    P_G1_T10  PMAX_G1_T10  1
    P_G1_T10  PMIN_G1_T10  1
    P_G1_T10  RAMPUP_G1_T10  1
    P_G1_T10  RAMPDN_G1_T10  -1
    P_G1_T10  RAMPUP_G1_T11  -1
    P_G1_T10  RAMPDN_G1_T11  1
    P_G2_T10  TOTAL_COST  47.4
    P_G2_T10  DEMAND_T10  1
    P_G2_T10  PMAX_G2_T10  1
    P_G2_T10  PMIN_G2_T10  1
    P_G2_T10  RAMPUP_G2_T10  1
    P_G2_T10  RAMPDN_G2_T10  -1
    P_G2_T10  RAMPUP_G2_T11  -1
    P_G2_T10  RAMPDN_G2_T11  1
    P_G3_T10  TOTAL_COST  38
    P_G3_T10  DEMAND_T10  1
    P_G3_T10  PMAX_G3_T10  1
    P_G3_T10  PMIN_G3_T10  1
    P_G3_T10  RAMPUP_G3_T10  1
    P_G3_T10  RAMPDN_G3_T10  -1
    P_G3_T10  RAMPUP_G3_T11  -1
    P_G3_T10  RAMPDN_G3_T11  1
    P_G4_T10  TOTAL_COST  37
    P_G4_T10  DEMAND_T10  1
    P_G4_T10  PMAX_G4_T10  1
    P_G4_T10  PMIN_G4_T10  1
    P_G4_T10  RAMPUP_G4_T10  1
    P_G4_T10  RAMPDN_G4_T10  -1
    P_G4_T10  RAMPUP_G4_T11  -1
    P_G4_T10  RAMPDN_G4_T11  1
    P_G5_T10  TOTAL_COST  37.8
    P_G5_T10  DEMAND_T10  1
    P_G5_T10  PMAX_G5_T10  1
    P_G5_T10  PMIN_G5_T10  1
    P_G5_T10  RAMPUP_G5_T10  1
    P_G5_T10  RAMPDN_G5_T10  -1
    P_G5_T10  RAMPUP_G5_T11  -1
    P_G5_T10  RAMPDN_G5_T11  1
    P_G6_T10  TOTAL_COST  50
    P_G6_T10  DEMAND_T10  1
    P_G6_T10  PMAX_G6_T10  1
    P_G6_T10  PMIN_G6_T10  1
    P_G6_T10  RAMPUP_G6_T10  1
    P_G6_T10  RAMPDN_G6_T10  -1
    P_G6_T10  RAMPUP_G6_T11  -1
    P_G6_T10  RAMPDN_G6_T11  1
    P_G7_T10  TOTAL_COST  36.6
    P_G7_T10  DEMAND_T10  1
    P_G7_T10  PMAX_G7_T10  1
    P_G7_T10  PMIN_G7_T10  1
    P_G7_T10  RAMPUP_G7_T10  1
    P_G7_T10  RAMPDN_G7_T10  -1
    P_G7_T10  RAMPUP_G7_T11  -1
    P_G7_T10  RAMPDN_G7_T11  1
    P_G8_T10  TOTAL_COST  41.5
    P_G8_T10  DEMAND_T10  1
    P_G8_T10  PMAX_G8_T10  1
    P_G8_T10  PMIN_G8_T10  1
    P_G8_T10  RAMPUP_G8_T10  1
    P_G8_T10  RAMPDN_G8_T10  -1
    P_G8_T10  RAMPUP_G8_T11  -1
    P_G8_T10  RAMPDN_G8_T11  1
    P_G9_T10  TOTAL_COST  35.4
    P_G9_T10  DEMAND_T10  1
    P_G9_T10  PMAX_G9_T10  1
    P_G9_T10  PMIN_G9_T10  1
    P_G9_T10  RAMPUP_G9_T10  1
    P_G9_T10  RAMPDN_G9_T10  -1
    P_G9_T10  RAMPUP_G9_T11  -1
    P_G9_T10  RAMPDN_G9_T11  1
    P_G10_T10  TOTAL_COST  23
    P_G10_T10  DEMAND_T10  1
    P_G10_T10  PMAX_G10_T10  1
    P_G10_T10  PMIN_G10_T10  1
    P_G10_T10  RAMPUP_G10_T10  1
    P_G10_T10  RAMPDN_G10_T10  -1
    P_G10_T10  RAMPUP_G10_T11  -1
    P_G10_T10  RAMPDN_G10_T11  1
    P_G11_T10  TOTAL_COST  43.8
    P_G11_T10  DEMAND_T10  1
    P_G11_T10  PMAX_G11_T10  1
    P_G11_T10  PMIN_G11_T10  1
    P_G11_T10  RAMPUP_G11_T10  1
    P_G11_T10  RAMPDN_G11_T10  -1
    P_G11_T10  RAMPUP_G11_T11  -1
    P_G11_T10  RAMPDN_G11_T11  1
    P_G12_T10  TOTAL_COST  53
    P_G12_T10  DEMAND_T10  1
    P_G12_T10  PMAX_G12_T10  1
    P_G12_T10  PMIN_G12_T10  1
    P_G12_T10  RAMPUP_G12_T10  1
    P_G12_T10  RAMPDN_G12_T10  -1
    P_G12_T10  RAMPUP_G12_T11  -1
    P_G12_T10  RAMPDN_G12_T11  1
    P_G13_T10  TOTAL_COST  40.9
    P_G13_T10  DEMAND_T10  1
    P_G13_T10  PMAX_G13_T10  1
    P_G13_T10  PMIN_G13_T10  1
    P_G13_T10  RAMPUP_G13_T10  1
    P_G13_T10  RAMPDN_G13_T10  -1
    P_G13_T10  RAMPUP_G13_T11  -1
    P_G13_T10  RAMPDN_G13_T11  1
    P_G14_T10  TOTAL_COST  49.2
    P_G14_T10  DEMAND_T10  1
    P_G14_T10  PMAX_G14_T10  1
    P_G14_T10  PMIN_G14_T10  1
    P_G14_T10  RAMPUP_G14_T10  1
    P_G14_T10  RAMPDN_G14_T10  -1
    P_G14_T10  RAMPUP_G14_T11  -1
    P_G14_T10  RAMPDN_G14_T11  1
    P_G15_T10  TOTAL_COST  51.8
    P_G15_T10  DEMAND_T10  1
    P_G15_T10  PMAX_G15_T10  1
    P_G15_T10  PMIN_G15_T10  1
    P_G15_T10  RAMPUP_G15_T10  1
    P_G15_T10  RAMPDN_G15_T10  -1
    P_G15_T10  RAMPUP_G15_T11  -1
    P_G15_T10  RAMPDN_G15_T11  1
    P_G16_T10  TOTAL_COST  49.5
    P_G16_T10  DEMAND_T10  1
    P_G16_T10  PMAX_G16_T10  1
    P_G16_T10  PMIN_G16_T10  1
    P_G16_T10  RAMPUP_G16_T10  1
    P_G16_T10  RAMPDN_G16_T10  -1
    P_G16_T10  RAMPUP_G16_T11  -1
    P_G16_T10  RAMPDN_G16_T11  1
    P_G17_T10  TOTAL_COST  43.7
    P_G17_T10  DEMAND_T10  1
    P_G17_T10  PMAX_G17_T10  1
    P_G17_T10  PMIN_G17_T10  1
    P_G17_T10  RAMPUP_G17_T10  1
    P_G17_T10  RAMPDN_G17_T10  -1
    P_G17_T10  RAMPUP_G17_T11  -1
    P_G17_T10  RAMPDN_G17_T11  1
    P_G18_T10  TOTAL_COST  49.4
    P_G18_T10  DEMAND_T10  1
    P_G18_T10  PMAX_G18_T10  1
    P_G18_T10  PMIN_G18_T10  1
    P_G18_T10  RAMPUP_G18_T10  1
    P_G18_T10  RAMPDN_G18_T10  -1
    P_G18_T10  RAMPUP_G18_T11  -1
    P_G18_T10  RAMPDN_G18_T11  1
    P_G19_T10  TOTAL_COST  29.2
    P_G19_T10  DEMAND_T10  1
    P_G19_T10  PMAX_G19_T10  1
    P_G19_T10  PMIN_G19_T10  1
    P_G19_T10  RAMPUP_G19_T10  1
    P_G19_T10  RAMPDN_G19_T10  -1
    P_G19_T10  RAMPUP_G19_T11  -1
    P_G19_T10  RAMPDN_G19_T11  1
    MARK4400  'MARKER'                 'INTORG'
    U_G0_T11  TOTAL_COST  141
    U_G0_T11  RESERVE_T11  235
    U_G0_T11  PMAX_G0_T11  -235
    U_G0_T11  PMIN_G0_T11  -65
    MARK4410  'MARKER'                 'INTEND'
    MARK4420  'MARKER'                 'INTORG'
    U_G1_T11  TOTAL_COST  182
    U_G1_T11  RESERVE_T11  223
    U_G1_T11  PMAX_G1_T11  -223
    U_G1_T11  PMIN_G1_T11  -26
    MARK4430  'MARKER'                 'INTEND'
    MARK4440  'MARKER'                 'INTORG'
    U_G2_T11  TOTAL_COST  291
    U_G2_T11  RESERVE_T11  214
    U_G2_T11  PMAX_G2_T11  -214
    U_G2_T11  PMIN_G2_T11  -21
    MARK4450  'MARKER'                 'INTEND'
    MARK4460  'MARKER'                 'INTORG'
    U_G3_T11  TOTAL_COST  114
    U_G3_T11  RESERVE_T11  256
    U_G3_T11  PMAX_G3_T11  -256
    U_G3_T11  PMIN_G3_T11  -77
    MARK4470  'MARKER'                 'INTEND'
    MARK4480  'MARKER'                 'INTORG'
    U_G4_T11  TOTAL_COST  130
    U_G4_T11  RESERVE_T11  147
    U_G4_T11  PMAX_G4_T11  -147
    U_G4_T11  PMIN_G4_T11  -65
    MARK4490  'MARKER'                 'INTEND'
    MARK4500  'MARKER'                 'INTORG'
    U_G5_T11  TOTAL_COST  332
    U_G5_T11  RESERVE_T11  215
    U_G5_T11  PMAX_G5_T11  -215
    U_G5_T11  PMIN_G5_T11  -26
    MARK4510  'MARKER'                 'INTEND'
    MARK4520  'MARKER'                 'INTORG'
    U_G6_T11  TOTAL_COST  341
    U_G6_T11  RESERVE_T11  178
    U_G6_T11  PMAX_G6_T11  -178
    U_G6_T11  PMIN_G6_T11  -65
    MARK4530  'MARKER'                 'INTEND'
    MARK4540  'MARKER'                 'INTORG'
    U_G7_T11  TOTAL_COST  189
    U_G7_T11  RESERVE_T11  254
    U_G7_T11  PMAX_G7_T11  -254
    U_G7_T11  PMIN_G7_T11  -76
    MARK4550  'MARKER'                 'INTEND'
    MARK4560  'MARKER'                 'INTORG'
    U_G8_T11  TOTAL_COST  247
    U_G8_T11  RESERVE_T11  203
    U_G8_T11  PMAX_G8_T11  -203
    U_G8_T11  PMIN_G8_T11  -62
    MARK4570  'MARKER'                 'INTEND'
    MARK4580  'MARKER'                 'INTORG'
    U_G9_T11  TOTAL_COST  300
    U_G9_T11  RESERVE_T11  209
    U_G9_T11  PMAX_G9_T11  -209
    U_G9_T11  PMIN_G9_T11  -56
    MARK4590  'MARKER'                 'INTEND'
    MARK4600  'MARKER'                 'INTORG'
    U_G10_T11  TOTAL_COST  346
    U_G10_T11  RESERVE_T11  136
    U_G10_T11  PMAX_G10_T11  -136
    U_G10_T11  PMIN_G10_T11  -46
    MARK4610  'MARKER'                 'INTEND'
    MARK4620  'MARKER'                 'INTORG'
    U_G11_T11  TOTAL_COST  286
    U_G11_T11  RESERVE_T11  299
    U_G11_T11  PMAX_G11_T11  -299
    U_G11_T11  PMIN_G11_T11  -47
    MARK4630  'MARKER'                 'INTEND'
    MARK4640  'MARKER'                 'INTORG'
    U_G12_T11  TOTAL_COST  248
    U_G12_T11  RESERVE_T11  206
    U_G12_T11  PMAX_G12_T11  -206
    U_G12_T11  PMIN_G12_T11  -72
    MARK4650  'MARKER'                 'INTEND'
    MARK4660  'MARKER'                 'INTORG'
    U_G13_T11  TOTAL_COST  209
    U_G13_T11  RESERVE_T11  173
    U_G13_T11  PMAX_G13_T11  -173
    U_G13_T11  PMIN_G13_T11  -39
    MARK4670  'MARKER'                 'INTEND'
    MARK4680  'MARKER'                 'INTORG'
    U_G14_T11  TOTAL_COST  295
    U_G14_T11  RESERVE_T11  243
    U_G14_T11  PMAX_G14_T11  -243
    U_G14_T11  PMIN_G14_T11  -38
    MARK4690  'MARKER'                 'INTEND'
    MARK4700  'MARKER'                 'INTORG'
    U_G15_T11  TOTAL_COST  221
    U_G15_T11  RESERVE_T11  237
    U_G15_T11  PMAX_G15_T11  -237
    U_G15_T11  PMIN_G15_T11  -67
    MARK4710  'MARKER'                 'INTEND'
    MARK4720  'MARKER'                 'INTORG'
    U_G16_T11  TOTAL_COST  278
    U_G16_T11  RESERVE_T11  174
    U_G16_T11  PMAX_G16_T11  -174
    U_G16_T11  PMIN_G16_T11  -41
    MARK4730  'MARKER'                 'INTEND'
    MARK4740  'MARKER'                 'INTORG'
    U_G17_T11  TOTAL_COST  256
    U_G17_T11  RESERVE_T11  232
    U_G17_T11  PMAX_G17_T11  -232
    U_G17_T11  PMIN_G17_T11  -28
    MARK4750  'MARKER'                 'INTEND'
    MARK4760  'MARKER'                 'INTORG'
    U_G18_T11  TOTAL_COST  284
    U_G18_T11  RESERVE_T11  186
    U_G18_T11  PMAX_G18_T11  -186
    U_G18_T11  PMIN_G18_T11  -24
    MARK4770  'MARKER'                 'INTEND'
    MARK4780  'MARKER'                 'INTORG'
    U_G19_T11  TOTAL_COST  259
    U_G19_T11  RESERVE_T11  253
    U_G19_T11  PMAX_G19_T11  -253
    U_G19_T11  PMIN_G19_T11  -76
    MARK4790  'MARKER'                 'INTEND'
    P_G0_T11  TOTAL_COST  50.1
    P_G0_T11  DEMAND_T11  1
    P_G0_T11  PMAX_G0_T11  1
    P_G0_T11  PMIN_G0_T11  1
    P_G0_T11  RAMPUP_G0_T11  1
    P_G0_T11  RAMPDN_G0_T11  -1
    P_G0_T11  RAMPUP_G0_T12  -1
    P_G0_T11  RAMPDN_G0_T12  1
    P_G1_T11  TOTAL_COST  34.9
    P_G1_T11  DEMAND_T11  1
    P_G1_T11  PMAX_G1_T11  1
    P_G1_T11  PMIN_G1_T11  1
    P_G1_T11  RAMPUP_G1_T11  1
    P_G1_T11  RAMPDN_G1_T11  -1
    P_G1_T11  RAMPUP_G1_T12  -1
    P_G1_T11  RAMPDN_G1_T12  1
    P_G2_T11  TOTAL_COST  47.4
    P_G2_T11  DEMAND_T11  1
    P_G2_T11  PMAX_G2_T11  1
    P_G2_T11  PMIN_G2_T11  1
    P_G2_T11  RAMPUP_G2_T11  1
    P_G2_T11  RAMPDN_G2_T11  -1
    P_G2_T11  RAMPUP_G2_T12  -1
    P_G2_T11  RAMPDN_G2_T12  1
    P_G3_T11  TOTAL_COST  38
    P_G3_T11  DEMAND_T11  1
    P_G3_T11  PMAX_G3_T11  1
    P_G3_T11  PMIN_G3_T11  1
    P_G3_T11  RAMPUP_G3_T11  1
    P_G3_T11  RAMPDN_G3_T11  -1
    P_G3_T11  RAMPUP_G3_T12  -1
    P_G3_T11  RAMPDN_G3_T12  1
    P_G4_T11  TOTAL_COST  37
    P_G4_T11  DEMAND_T11  1
    P_G4_T11  PMAX_G4_T11  1
    P_G4_T11  PMIN_G4_T11  1
    P_G4_T11  RAMPUP_G4_T11  1
    P_G4_T11  RAMPDN_G4_T11  -1
    P_G4_T11  RAMPUP_G4_T12  -1
    P_G4_T11  RAMPDN_G4_T12  1
    P_G5_T11  TOTAL_COST  37.8
    P_G5_T11  DEMAND_T11  1
    P_G5_T11  PMAX_G5_T11  1
    P_G5_T11  PMIN_G5_T11  1
    P_G5_T11  RAMPUP_G5_T11  1
    P_G5_T11  RAMPDN_G5_T11  -1
    P_G5_T11  RAMPUP_G5_T12  -1
    P_G5_T11  RAMPDN_G5_T12  1
    P_G6_T11  TOTAL_COST  50
    P_G6_T11  DEMAND_T11  1
    P_G6_T11  PMAX_G6_T11  1
    P_G6_T11  PMIN_G6_T11  1
    P_G6_T11  RAMPUP_G6_T11  1
    P_G6_T11  RAMPDN_G6_T11  -1
    P_G6_T11  RAMPUP_G6_T12  -1
    P_G6_T11  RAMPDN_G6_T12  1
    P_G7_T11  TOTAL_COST  36.6
    P_G7_T11  DEMAND_T11  1
    P_G7_T11  PMAX_G7_T11  1
    P_G7_T11  PMIN_G7_T11  1
    P_G7_T11  RAMPUP_G7_T11  1
    P_G7_T11  RAMPDN_G7_T11  -1
    P_G7_T11  RAMPUP_G7_T12  -1
    P_G7_T11  RAMPDN_G7_T12  1
    P_G8_T11  TOTAL_COST  41.5
    P_G8_T11  DEMAND_T11  1
    P_G8_T11  PMAX_G8_T11  1
    P_G8_T11  PMIN_G8_T11  1
    P_G8_T11  RAMPUP_G8_T11  1
    P_G8_T11  RAMPDN_G8_T11  -1
    P_G8_T11  RAMPUP_G8_T12  -1
    P_G8_T11  RAMPDN_G8_T12  1
    P_G9_T11  TOTAL_COST  35.4
    P_G9_T11  DEMAND_T11  1
    P_G9_T11  PMAX_G9_T11  1
    P_G9_T11  PMIN_G9_T11  1
    P_G9_T11  RAMPUP_G9_T11  1
    P_G9_T11  RAMPDN_G9_T11  -1
    P_G9_T11  RAMPUP_G9_T12  -1
    P_G9_T11  RAMPDN_G9_T12  1
    P_G10_T11  TOTAL_COST  23
    P_G10_T11  DEMAND_T11  1
    P_G10_T11  PMAX_G10_T11  1
    P_G10_T11  PMIN_G10_T11  1
    P_G10_T11  RAMPUP_G10_T11  1
    P_G10_T11  RAMPDN_G10_T11  -1
    P_G10_T11  RAMPUP_G10_T12  -1
    P_G10_T11  RAMPDN_G10_T12  1
    P_G11_T11  TOTAL_COST  43.8
    P_G11_T11  DEMAND_T11  1
    P_G11_T11  PMAX_G11_T11  1
    P_G11_T11  PMIN_G11_T11  1
    P_G11_T11  RAMPUP_G11_T11  1
    P_G11_T11  RAMPDN_G11_T11  -1
    P_G11_T11  RAMPUP_G11_T12  -1
    P_G11_T11  RAMPDN_G11_T12  1
    P_G12_T11  TOTAL_COST  53
    P_G12_T11  DEMAND_T11  1
    P_G12_T11  PMAX_G12_T11  1
    P_G12_T11  PMIN_G12_T11  1
    P_G12_T11  RAMPUP_G12_T11  1
    P_G12_T11  RAMPDN_G12_T11  -1
    P_G12_T11  RAMPUP_G12_T12  -1
    P_G12_T11  RAMPDN_G12_T12  1
    P_G13_T11  TOTAL_COST  40.9
    P_G13_T11  DEMAND_T11  1
    P_G13_T11  PMAX_G13_T11  1
    P_G13_T11  PMIN_G13_T11  1
    P_G13_T11  RAMPUP_G13_T11  1
    P_G13_T11  RAMPDN_G13_T11  -1
    P_G13_T11  RAMPUP_G13_T12  -1
    P_G13_T11  RAMPDN_G13_T12  1
    P_G14_T11  TOTAL_COST  49.2
    P_G14_T11  DEMAND_T11  1
    P_G14_T11  PMAX_G14_T11  1
    P_G14_T11  PMIN_G14_T11  1
    P_G14_T11  RAMPUP_G14_T11  1
    P_G14_T11  RAMPDN_G14_T11  -1
    P_G14_T11  RAMPUP_G14_T12  -1
    P_G14_T11  RAMPDN_G14_T12  1
    P_G15_T11  TOTAL_COST  51.8
    P_G15_T11  DEMAND_T11  1
    P_G15_T11  PMAX_G15_T11  1
    P_G15_T11  PMIN_G15_T11  1
    P_G15_T11  RAMPUP_G15_T11  1
    P_G15_T11  RAMPDN_G15_T11  -1
    P_G15_T11  RAMPUP_G15_T12  -1
    P_G15_T11  RAMPDN_G15_T12  1
    P_G16_T11  TOTAL_COST  49.5
    P_G16_T11  DEMAND_T11  1
    P_G16_T11  PMAX_G16_T11  1
    P_G16_T11  PMIN_G16_T11  1
    P_G16_T11  RAMPUP_G16_T11  1
    P_G16_T11  RAMPDN_G16_T11  -1
    P_G16_T11  RAMPUP_G16_T12  -1
    P_G16_T11  RAMPDN_G16_T12  1
    P_G17_T11  TOTAL_COST  43.7
    P_G17_T11  DEMAND_T11  1
    P_G17_T11  PMAX_G17_T11  1
    P_G17_T11  PMIN_G17_T11  1
    P_G17_T11  RAMPUP_G17_T11  1
    P_G17_T11  RAMPDN_G17_T11  -1
    P_G17_T11  RAMPUP_G17_T12  -1
    P_G17_T11  RAMPDN_G17_T12  1
    P_G18_T11  TOTAL_COST  49.4
    P_G18_T11  DEMAND_T11  1
    P_G18_T11  PMAX_G18_T11  1
    P_G18_T11  PMIN_G18_T11  1
    P_G18_T11  RAMPUP_G18_T11  1
    P_G18_T11  RAMPDN_G18_T11  -1
    P_G18_T11  RAMPUP_G18_T12  -1
    P_G18_T11  RAMPDN_G18_T12  1
    P_G19_T11  TOTAL_COST  29.2
    P_G19_T11  DEMAND_T11  1
    P_G19_T11  PMAX_G19_T11  1
    P_G19_T11  PMIN_G19_T11  1
    P_G19_T11  RAMPUP_G19_T11  1
    P_G19_T11  RAMPDN_G19_T11  -1
    P_G19_T11  RAMPUP_G19_T12  -1
    P_G19_T11  RAMPDN_G19_T12  1
    MARK4800  'MARKER'                 'INTORG'
    U_G0_T12  TOTAL_COST  141
    U_G0_T12  RESERVE_T12  235
    U_G0_T12  PMAX_G0_T12  -235
    U_G0_T12  PMIN_G0_T12  -65
    MARK4810  'MARKER'                 'INTEND'
    MARK4820  'MARKER'                 'INTORG'
    U_G1_T12  TOTAL_COST  182
    U_G1_T12  RESERVE_T12  223
    U_G1_T12  PMAX_G1_T12  -223
    U_G1_T12  PMIN_G1_T12  -26
    MARK4830  'MARKER'                 'INTEND'
    MARK4840  'MARKER'                 'INTORG'
    U_G2_T12  TOTAL_COST  291
    U_G2_T12  RESERVE_T12  214
    U_G2_T12  PMAX_G2_T12  -214
    U_G2_T12  PMIN_G2_T12  -21
    MARK4850  'MARKER'                 'INTEND'
    MARK4860  'MARKER'                 'INTORG'
    U_G3_T12  TOTAL_COST  114
    U_G3_T12  RESERVE_T12  256
    U_G3_T12  PMAX_G3_T12  -256
    U_G3_T12  PMIN_G3_T12  -77
    MARK4870  'MARKER'                 'INTEND'
    MARK4880  'MARKER'                 'INTORG'
    U_G4_T12  TOTAL_COST  130
    U_G4_T12  RESERVE_T12  147
    U_G4_T12  PMAX_G4_T12  -147
    U_G4_T12  PMIN_G4_T12  -65
    MARK4890  'MARKER'                 'INTEND'
    MARK4900  'MARKER'                 'INTORG'
    U_G5_T12  TOTAL_COST  332
    U_G5_T12  RESERVE_T12  215
    U_G5_T12  PMAX_G5_T12  -215
    U_G5_T12  PMIN_G5_T12  -26
    MARK4910  'MARKER'                 'INTEND'
    MARK4920  'MARKER'                 'INTORG'
    U_G6_T12  TOTAL_COST  341
    U_G6_T12  RESERVE_T12  178
    U_G6_T12  PMAX_G6_T12  -178
    U_G6_T12  PMIN_G6_T12  -65
    MARK4930  'MARKER'                 'INTEND'
    MARK4940  'MARKER'                 'INTORG'
    U_G7_T12  TOTAL_COST  189
    U_G7_T12  RESERVE_T12  254
    U_G7_T12  PMAX_G7_T12  -254
    U_G7_T12  PMIN_G7_T12  -76
    MARK4950  'MARKER'                 'INTEND'
    MARK4960  'MARKER'                 'INTORG'
    U_G8_T12  TOTAL_COST  247
    U_G8_T12  RESERVE_T12  203
    U_G8_T12  PMAX_G8_T12  -203
    U_G8_T12  PMIN_G8_T12  -62
    MARK4970  'MARKER'                 'INTEND'
    MARK4980  'MARKER'                 'INTORG'
    U_G9_T12  TOTAL_COST  300
    U_G9_T12  RESERVE_T12  209
    U_G9_T12  PMAX_G9_T12  -209
    U_G9_T12  PMIN_G9_T12  -56
    MARK4990  'MARKER'                 'INTEND'
    MARK5000  'MARKER'                 'INTORG'
    U_G10_T12  TOTAL_COST  346
    U_G10_T12  RESERVE_T12  136
    U_G10_T12  PMAX_G10_T12  -136
    U_G10_T12  PMIN_G10_T12  -46
    MARK5010  'MARKER'                 'INTEND'
    MARK5020  'MARKER'                 'INTORG'
    U_G11_T12  TOTAL_COST  286
    U_G11_T12  RESERVE_T12  299
    U_G11_T12  PMAX_G11_T12  -299
    U_G11_T12  PMIN_G11_T12  -47
    MARK5030  'MARKER'                 'INTEND'
    MARK5040  'MARKER'                 'INTORG'
    U_G12_T12  TOTAL_COST  248
    U_G12_T12  RESERVE_T12  206
    U_G12_T12  PMAX_G12_T12  -206
    U_G12_T12  PMIN_G12_T12  -72
    MARK5050  'MARKER'                 'INTEND'
    MARK5060  'MARKER'                 'INTORG'
    U_G13_T12  TOTAL_COST  209
    U_G13_T12  RESERVE_T12  173
    U_G13_T12  PMAX_G13_T12  -173
    U_G13_T12  PMIN_G13_T12  -39
    MARK5070  'MARKER'                 'INTEND'
    MARK5080  'MARKER'                 'INTORG'
    U_G14_T12  TOTAL_COST  295
    U_G14_T12  RESERVE_T12  243
    U_G14_T12  PMAX_G14_T12  -243
    U_G14_T12  PMIN_G14_T12  -38
    MARK5090  'MARKER'                 'INTEND'
    MARK5100  'MARKER'                 'INTORG'
    U_G15_T12  TOTAL_COST  221
    U_G15_T12  RESERVE_T12  237
    U_G15_T12  PMAX_G15_T12  -237
    U_G15_T12  PMIN_G15_T12  -67
    MARK5110  'MARKER'                 'INTEND'
    MARK5120  'MARKER'                 'INTORG'
    U_G16_T12  TOTAL_COST  278
    U_G16_T12  RESERVE_T12  174
    U_G16_T12  PMAX_G16_T12  -174
    U_G16_T12  PMIN_G16_T12  -41
    MARK5130  'MARKER'                 'INTEND'
    MARK5140  'MARKER'                 'INTORG'
    U_G17_T12  TOTAL_COST  256
    U_G17_T12  RESERVE_T12  232
    U_G17_T12  PMAX_G17_T12  -232
    U_G17_T12  PMIN_G17_T12  -28
    MARK5150  'MARKER'                 'INTEND'
    MARK5160  'MARKER'                 'INTORG'
    U_G18_T12  TOTAL_COST  284
    U_G18_T12  RESERVE_T12  186
    U_G18_T12  PMAX_G18_T12  -186
    U_G18_T12  PMIN_G18_T12  -24
    MARK5170  'MARKER'                 'INTEND'
    MARK5180  'MARKER'                 'INTORG'
    U_G19_T12  TOTAL_COST  259
    U_G19_T12  RESERVE_T12  253
    U_G19_T12  PMAX_G19_T12  -253
    U_G19_T12  PMIN_G19_T12  -76
    MARK5190  'MARKER'                 'INTEND'
    P_G0_T12  TOTAL_COST  50.1
    P_G0_T12  DEMAND_T12  1
    P_G0_T12  PMAX_G0_T12  1
    P_G0_T12  PMIN_G0_T12  1
    P_G0_T12  RAMPUP_G0_T12  1
    P_G0_T12  RAMPDN_G0_T12  -1
    P_G0_T12  RAMPUP_G0_T13  -1
    P_G0_T12  RAMPDN_G0_T13  1
    P_G1_T12  TOTAL_COST  34.9
    P_G1_T12  DEMAND_T12  1
    P_G1_T12  PMAX_G1_T12  1
    P_G1_T12  PMIN_G1_T12  1
    P_G1_T12  RAMPUP_G1_T12  1
    P_G1_T12  RAMPDN_G1_T12  -1
    P_G1_T12  RAMPUP_G1_T13  -1
    P_G1_T12  RAMPDN_G1_T13  1
    P_G2_T12  TOTAL_COST  47.4
    P_G2_T12  DEMAND_T12  1
    P_G2_T12  PMAX_G2_T12  1
    P_G2_T12  PMIN_G2_T12  1
    P_G2_T12  RAMPUP_G2_T12  1
    P_G2_T12  RAMPDN_G2_T12  -1
    P_G2_T12  RAMPUP_G2_T13  -1
    P_G2_T12  RAMPDN_G2_T13  1
    P_G3_T12  TOTAL_COST  38
    P_G3_T12  DEMAND_T12  1
    P_G3_T12  PMAX_G3_T12  1
    P_G3_T12  PMIN_G3_T12  1
    P_G3_T12  RAMPUP_G3_T12  1
    P_G3_T12  RAMPDN_G3_T12  -1
    P_G3_T12  RAMPUP_G3_T13  -1
    P_G3_T12  RAMPDN_G3_T13  1
    P_G4_T12  TOTAL_COST  37
    P_G4_T12  DEMAND_T12  1
    P_G4_T12  PMAX_G4_T12  1
    P_G4_T12  PMIN_G4_T12  1
    P_G4_T12  RAMPUP_G4_T12  1
    P_G4_T12  RAMPDN_G4_T12  -1
    P_G4_T12  RAMPUP_G4_T13  -1
    P_G4_T12  RAMPDN_G4_T13  1
    P_G5_T12  TOTAL_COST  37.8
    P_G5_T12  DEMAND_T12  1
    P_G5_T12  PMAX_G5_T12  1
    P_G5_T12  PMIN_G5_T12  1
    P_G5_T12  RAMPUP_G5_T12  1
    P_G5_T12  RAMPDN_G5_T12  -1
    P_G5_T12  RAMPUP_G5_T13  -1
    P_G5_T12  RAMPDN_G5_T13  1
    P_G6_T12  TOTAL_COST  50
    P_G6_T12  DEMAND_T12  1
    P_G6_T12  PMAX_G6_T12  1
    P_G6_T12  PMIN_G6_T12  1
    P_G6_T12  RAMPUP_G6_T12  1
    P_G6_T12  RAMPDN_G6_T12  -1
    P_G6_T12  RAMPUP_G6_T13  -1
    P_G6_T12  RAMPDN_G6_T13  1
    P_G7_T12  TOTAL_COST  36.6
    P_G7_T12  DEMAND_T12  1
    P_G7_T12  PMAX_G7_T12  1
    P_G7_T12  PMIN_G7_T12  1
    P_G7_T12  RAMPUP_G7_T12  1
    P_G7_T12  RAMPDN_G7_T12  -1
    P_G7_T12  RAMPUP_G7_T13  -1
    P_G7_T12  RAMPDN_G7_T13  1
    P_G8_T12  TOTAL_COST  41.5
    P_G8_T12  DEMAND_T12  1
    P_G8_T12  PMAX_G8_T12  1
    P_G8_T12  PMIN_G8_T12  1
    P_G8_T12  RAMPUP_G8_T12  1
    P_G8_T12  RAMPDN_G8_T12  -1
    P_G8_T12  RAMPUP_G8_T13  -1
    P_G8_T12  RAMPDN_G8_T13  1
    P_G9_T12  TOTAL_COST  35.4
    P_G9_T12  DEMAND_T12  1
    P_G9_T12  PMAX_G9_T12  1
    P_G9_T12  PMIN_G9_T12  1
    P_G9_T12  RAMPUP_G9_T12  1
    P_G9_T12  RAMPDN_G9_T12  -1
    P_G9_T12  RAMPUP_G9_T13  -1
    P_G9_T12  RAMPDN_G9_T13  1
    P_G10_T12  TOTAL_COST  23
    P_G10_T12  DEMAND_T12  1
    P_G10_T12  PMAX_G10_T12  1
    P_G10_T12  PMIN_G10_T12  1
    P_G10_T12  RAMPUP_G10_T12  1
    P_G10_T12  RAMPDN_G10_T12  -1
    P_G10_T12  RAMPUP_G10_T13  -1
    P_G10_T12  RAMPDN_G10_T13  1
    P_G11_T12  TOTAL_COST  43.8
    P_G11_T12  DEMAND_T12  1
    P_G11_T12  PMAX_G11_T12  1
    P_G11_T12  PMIN_G11_T12  1
    P_G11_T12  RAMPUP_G11_T12  1
    P_G11_T12  RAMPDN_G11_T12  -1
    P_G11_T12  RAMPUP_G11_T13  -1
    P_G11_T12  RAMPDN_G11_T13  1
    P_G12_T12  TOTAL_COST  53
    P_G12_T12  DEMAND_T12  1
    P_G12_T12  PMAX_G12_T12  1
    P_G12_T12  PMIN_G12_T12  1
    P_G12_T12  RAMPUP_G12_T12  1
    P_G12_T12  RAMPDN_G12_T12  -1
    P_G12_T12  RAMPUP_G12_T13  -1
    P_G12_T12  RAMPDN_G12_T13  1
    P_G13_T12  TOTAL_COST  40.9
    P_G13_T12  DEMAND_T12  1
    P_G13_T12  PMAX_G13_T12  1
    P_G13_T12  PMIN_G13_T12  1
    P_G13_T12  RAMPUP_G13_T12  1
    P_G13_T12  RAMPDN_G13_T12  -1
    P_G13_T12  RAMPUP_G13_T13  -1
    P_G13_T12  RAMPDN_G13_T13  1
    P_G14_T12  TOTAL_COST  49.2
    P_G14_T12  DEMAND_T12  1
    P_G14_T12  PMAX_G14_T12  1
    P_G14_T12  PMIN_G14_T12  1
    P_G14_T12  RAMPUP_G14_T12  1
    P_G14_T12  RAMPDN_G14_T12  -1
    P_G14_T12  RAMPUP_G14_T13  -1
    P_G14_T12  RAMPDN_G14_T13  1
    P_G15_T12  TOTAL_COST  51.8
    P_G15_T12  DEMAND_T12  1
    P_G15_T12  PMAX_G15_T12  1
    P_G15_T12  PMIN_G15_T12  1
    P_G15_T12  RAMPUP_G15_T12  1
    P_G15_T12  RAMPDN_G15_T12  -1
    P_G15_T12  RAMPUP_G15_T13  -1
    P_G15_T12  RAMPDN_G15_T13  1
    P_G16_T12  TOTAL_COST  49.5
    P_G16_T12  DEMAND_T12  1
    P_G16_T12  PMAX_G16_T12  1
    P_G16_T12  PMIN_G16_T12  1
    P_G16_T12  RAMPUP_G16_T12  1
    P_G16_T12  RAMPDN_G16_T12  -1
    P_G16_T12  RAMPUP_G16_T13  -1
    P_G16_T12  RAMPDN_G16_T13  1
    P_G17_T12  TOTAL_COST  43.7
    P_G17_T12  DEMAND_T12  1
    P_G17_T12  PMAX_G17_T12  1
    P_G17_T12  PMIN_G17_T12  1
    P_G17_T12  RAMPUP_G17_T12  1
    P_G17_T12  RAMPDN_G17_T12  -1
    P_G17_T12  RAMPUP_G17_T13  -1
    P_G17_T12  RAMPDN_G17_T13  1
    P_G18_T12  TOTAL_COST  49.4
    P_G18_T12  DEMAND_T12  1
    P_G18_T12  PMAX_G18_T12  1
    P_G18_T12  PMIN_G18_T12  1
    P_G18_T12  RAMPUP_G18_T12  1
    P_G18_T12  RAMPDN_G18_T12  -1
    P_G18_T12  RAMPUP_G18_T13  -1
    P_G18_T12  RAMPDN_G18_T13  1
    P_G19_T12  TOTAL_COST  29.2
    P_G19_T12  DEMAND_T12  1
    P_G19_T12  PMAX_G19_T12  1
    P_G19_T12  PMIN_G19_T12  1
    P_G19_T12  RAMPUP_G19_T12  1
    P_G19_T12  RAMPDN_G19_T12  -1
    P_G19_T12  RAMPUP_G19_T13  -1
    P_G19_T12  RAMPDN_G19_T13  1
    MARK5200  'MARKER'                 'INTORG'
    U_G0_T13  TOTAL_COST  141
    U_G0_T13  RESERVE_T13  235
    U_G0_T13  PMAX_G0_T13  -235
    U_G0_T13  PMIN_G0_T13  -65
    MARK5210  'MARKER'                 'INTEND'
    MARK5220  'MARKER'                 'INTORG'
    U_G1_T13  TOTAL_COST  182
    U_G1_T13  RESERVE_T13  223
    U_G1_T13  PMAX_G1_T13  -223
    U_G1_T13  PMIN_G1_T13  -26
    MARK5230  'MARKER'                 'INTEND'
    MARK5240  'MARKER'                 'INTORG'
    U_G2_T13  TOTAL_COST  291
    U_G2_T13  RESERVE_T13  214
    U_G2_T13  PMAX_G2_T13  -214
    U_G2_T13  PMIN_G2_T13  -21
    MARK5250  'MARKER'                 'INTEND'
    MARK5260  'MARKER'                 'INTORG'
    U_G3_T13  TOTAL_COST  114
    U_G3_T13  RESERVE_T13  256
    U_G3_T13  PMAX_G3_T13  -256
    U_G3_T13  PMIN_G3_T13  -77
    MARK5270  'MARKER'                 'INTEND'
    MARK5280  'MARKER'                 'INTORG'
    U_G4_T13  TOTAL_COST  130
    U_G4_T13  RESERVE_T13  147
    U_G4_T13  PMAX_G4_T13  -147
    U_G4_T13  PMIN_G4_T13  -65
    MARK5290  'MARKER'                 'INTEND'
    MARK5300  'MARKER'                 'INTORG'
    U_G5_T13  TOTAL_COST  332
    U_G5_T13  RESERVE_T13  215
    U_G5_T13  PMAX_G5_T13  -215
    U_G5_T13  PMIN_G5_T13  -26
    MARK5310  'MARKER'                 'INTEND'
    MARK5320  'MARKER'                 'INTORG'
    U_G6_T13  TOTAL_COST  341
    U_G6_T13  RESERVE_T13  178
    U_G6_T13  PMAX_G6_T13  -178
    U_G6_T13  PMIN_G6_T13  -65
    MARK5330  'MARKER'                 'INTEND'
    MARK5340  'MARKER'                 'INTORG'
    U_G7_T13  TOTAL_COST  189
    U_G7_T13  RESERVE_T13  254
    U_G7_T13  PMAX_G7_T13  -254
    U_G7_T13  PMIN_G7_T13  -76
    MARK5350  'MARKER'                 'INTEND'
    MARK5360  'MARKER'                 'INTORG'
    U_G8_T13  TOTAL_COST  247
    U_G8_T13  RESERVE_T13  203
    U_G8_T13  PMAX_G8_T13  -203
    U_G8_T13  PMIN_G8_T13  -62
    MARK5370  'MARKER'                 'INTEND'
    MARK5380  'MARKER'                 'INTORG'
    U_G9_T13  TOTAL_COST  300
    U_G9_T13  RESERVE_T13  209
    U_G9_T13  PMAX_G9_T13  -209
    U_G9_T13  PMIN_G9_T13  -56
    MARK5390  'MARKER'                 'INTEND'
    MARK5400  'MARKER'                 'INTORG'
    U_G10_T13  TOTAL_COST  346
    U_G10_T13  RESERVE_T13  136
    U_G10_T13  PMAX_G10_T13  -136
    U_G10_T13  PMIN_G10_T13  -46
    MARK5410  'MARKER'                 'INTEND'
    MARK5420  'MARKER'                 'INTORG'
    U_G11_T13  TOTAL_COST  286
    U_G11_T13  RESERVE_T13  299
    U_G11_T13  PMAX_G11_T13  -299
    U_G11_T13  PMIN_G11_T13  -47
    MARK5430  'MARKER'                 'INTEND'
    MARK5440  'MARKER'                 'INTORG'
    U_G12_T13  TOTAL_COST  248
    U_G12_T13  RESERVE_T13  206
    U_G12_T13  PMAX_G12_T13  -206
    U_G12_T13  PMIN_G12_T13  -72
    MARK5450  'MARKER'                 'INTEND'
    MARK5460  'MARKER'                 'INTORG'
    U_G13_T13  TOTAL_COST  209
    U_G13_T13  RESERVE_T13  173
    U_G13_T13  PMAX_G13_T13  -173
    U_G13_T13  PMIN_G13_T13  -39
    MARK5470  'MARKER'                 'INTEND'
    MARK5480  'MARKER'                 'INTORG'
    U_G14_T13  TOTAL_COST  295
    U_G14_T13  RESERVE_T13  243
    U_G14_T13  PMAX_G14_T13  -243
    U_G14_T13  PMIN_G14_T13  -38
    MARK5490  'MARKER'                 'INTEND'
    MARK5500  'MARKER'                 'INTORG'
    U_G15_T13  TOTAL_COST  221
    U_G15_T13  RESERVE_T13  237
    U_G15_T13  PMAX_G15_T13  -237
    U_G15_T13  PMIN_G15_T13  -67
    MARK5510  'MARKER'                 'INTEND'
    MARK5520  'MARKER'                 'INTORG'
    U_G16_T13  TOTAL_COST  278
    U_G16_T13  RESERVE_T13  174
    U_G16_T13  PMAX_G16_T13  -174
    U_G16_T13  PMIN_G16_T13  -41
    MARK5530  'MARKER'                 'INTEND'
    MARK5540  'MARKER'                 'INTORG'
    U_G17_T13  TOTAL_COST  256
    U_G17_T13  RESERVE_T13  232
    U_G17_T13  PMAX_G17_T13  -232
    U_G17_T13  PMIN_G17_T13  -28
    MARK5550  'MARKER'                 'INTEND'
    MARK5560  'MARKER'                 'INTORG'
    U_G18_T13  TOTAL_COST  284
    U_G18_T13  RESERVE_T13  186
    U_G18_T13  PMAX_G18_T13  -186
    U_G18_T13  PMIN_G18_T13  -24
    MARK5570  'MARKER'                 'INTEND'
    MARK5580  'MARKER'                 'INTORG'
    U_G19_T13  TOTAL_COST  259
    U_G19_T13  RESERVE_T13  253
    U_G19_T13  PMAX_G19_T13  -253
    U_G19_T13  PMIN_G19_T13  -76
    MARK5590  'MARKER'                 'INTEND'
    P_G0_T13  TOTAL_COST  50.1
    P_G0_T13  DEMAND_T13  1
    P_G0_T13  PMAX_G0_T13  1
    P_G0_T13  PMIN_G0_T13  1
    P_G0_T13  RAMPUP_G0_T13  1
    P_G0_T13  RAMPDN_G0_T13  -1
    P_G0_T13  RAMPUP_G0_T14  -1
    P_G0_T13  RAMPDN_G0_T14  1
    P_G1_T13  TOTAL_COST  34.9
    P_G1_T13  DEMAND_T13  1
    P_G1_T13  PMAX_G1_T13  1
    P_G1_T13  PMIN_G1_T13  1
    P_G1_T13  RAMPUP_G1_T13  1
    P_G1_T13  RAMPDN_G1_T13  -1
    P_G1_T13  RAMPUP_G1_T14  -1
    P_G1_T13  RAMPDN_G1_T14  1
    P_G2_T13  TOTAL_COST  47.4
    P_G2_T13  DEMAND_T13  1
    P_G2_T13  PMAX_G2_T13  1
    P_G2_T13  PMIN_G2_T13  1
    P_G2_T13  RAMPUP_G2_T13  1
    P_G2_T13  RAMPDN_G2_T13  -1
    P_G2_T13  RAMPUP_G2_T14  -1
    P_G2_T13  RAMPDN_G2_T14  1
    P_G3_T13  TOTAL_COST  38
    P_G3_T13  DEMAND_T13  1
    P_G3_T13  PMAX_G3_T13  1
    P_G3_T13  PMIN_G3_T13  1
    P_G3_T13  RAMPUP_G3_T13  1
    P_G3_T13  RAMPDN_G3_T13  -1
    P_G3_T13  RAMPUP_G3_T14  -1
    P_G3_T13  RAMPDN_G3_T14  1
    P_G4_T13  TOTAL_COST  37
    P_G4_T13  DEMAND_T13  1
    P_G4_T13  PMAX_G4_T13  1
    P_G4_T13  PMIN_G4_T13  1
    P_G4_T13  RAMPUP_G4_T13  1
    P_G4_T13  RAMPDN_G4_T13  -1
    P_G4_T13  RAMPUP_G4_T14  -1
    P_G4_T13  RAMPDN_G4_T14  1
    P_G5_T13  TOTAL_COST  37.8
    P_G5_T13  DEMAND_T13  1
    P_G5_T13  PMAX_G5_T13  1
    P_G5_T13  PMIN_G5_T13  1
    P_G5_T13  RAMPUP_G5_T13  1
    P_G5_T13  RAMPDN_G5_T13  -1
    P_G5_T13  RAMPUP_G5_T14  -1
    P_G5_T13  RAMPDN_G5_T14  1
    P_G6_T13  TOTAL_COST  50
    P_G6_T13  DEMAND_T13  1
    P_G6_T13  PMAX_G6_T13  1
    P_G6_T13  PMIN_G6_T13  1
    P_G6_T13  RAMPUP_G6_T13  1
    P_G6_T13  RAMPDN_G6_T13  -1
    P_G6_T13  RAMPUP_G6_T14  -1
    P_G6_T13  RAMPDN_G6_T14  1
    P_G7_T13  TOTAL_COST  36.6
    P_G7_T13  DEMAND_T13  1
    P_G7_T13  PMAX_G7_T13  1
    P_G7_T13  PMIN_G7_T13  1
    P_G7_T13  RAMPUP_G7_T13  1
    P_G7_T13  RAMPDN_G7_T13  -1
    P_G7_T13  RAMPUP_G7_T14  -1
    P_G7_T13  RAMPDN_G7_T14  1
    P_G8_T13  TOTAL_COST  41.5
    P_G8_T13  DEMAND_T13  1
    P_G8_T13  PMAX_G8_T13  1
    P_G8_T13  PMIN_G8_T13  1
    P_G8_T13  RAMPUP_G8_T13  1
    P_G8_T13  RAMPDN_G8_T13  -1
    P_G8_T13  RAMPUP_G8_T14  -1
    P_G8_T13  RAMPDN_G8_T14  1
    P_G9_T13  TOTAL_COST  35.4
    P_G9_T13  DEMAND_T13  1
    P_G9_T13  PMAX_G9_T13  1
    P_G9_T13  PMIN_G9_T13  1
    P_G9_T13  RAMPUP_G9_T13  1
    P_G9_T13  RAMPDN_G9_T13  -1
    P_G9_T13  RAMPUP_G9_T14  -1
    P_G9_T13  RAMPDN_G9_T14  1
    P_G10_T13  TOTAL_COST  23
    P_G10_T13  DEMAND_T13  1
    P_G10_T13  PMAX_G10_T13  1
    P_G10_T13  PMIN_G10_T13  1
    P_G10_T13  RAMPUP_G10_T13  1
    P_G10_T13  RAMPDN_G10_T13  -1
    P_G10_T13  RAMPUP_G10_T14  -1
    P_G10_T13  RAMPDN_G10_T14  1
    P_G11_T13  TOTAL_COST  43.8
    P_G11_T13  DEMAND_T13  1
    P_G11_T13  PMAX_G11_T13  1
    P_G11_T13  PMIN_G11_T13  1
    P_G11_T13  RAMPUP_G11_T13  1
    P_G11_T13  RAMPDN_G11_T13  -1
    P_G11_T13  RAMPUP_G11_T14  -1
    P_G11_T13  RAMPDN_G11_T14  1
    P_G12_T13  TOTAL_COST  53
    P_G12_T13  DEMAND_T13  1
    P_G12_T13  PMAX_G12_T13  1
    P_G12_T13  PMIN_G12_T13  1
    P_G12_T13  RAMPUP_G12_T13  1
    P_G12_T13  RAMPDN_G12_T13  -1
    P_G12_T13  RAMPUP_G12_T14  -1
    P_G12_T13  RAMPDN_G12_T14  1
    P_G13_T13  TOTAL_COST  40.9
    P_G13_T13  DEMAND_T13  1
    P_G13_T13  PMAX_G13_T13  1
    P_G13_T13  PMIN_G13_T13  1
    P_G13_T13  RAMPUP_G13_T13  1
    P_G13_T13  RAMPDN_G13_T13  -1
    P_G13_T13  RAMPUP_G13_T14  -1
    P_G13_T13  RAMPDN_G13_T14  1
    P_G14_T13  TOTAL_COST  49.2
    P_G14_T13  DEMAND_T13  1
    P_G14_T13  PMAX_G14_T13  1
    P_G14_T13  PMIN_G14_T13  1
    P_G14_T13  RAMPUP_G14_T13  1
    P_G14_T13  RAMPDN_G14_T13  -1
    P_G14_T13  RAMPUP_G14_T14  -1
    P_G14_T13  RAMPDN_G14_T14  1
    P_G15_T13  TOTAL_COST  51.8
    P_G15_T13  DEMAND_T13  1
    P_G15_T13  PMAX_G15_T13  1
    P_G15_T13  PMIN_G15_T13  1
    P_G15_T13  RAMPUP_G15_T13  1
    P_G15_T13  RAMPDN_G15_T13  -1
    P_G15_T13  RAMPUP_G15_T14  -1
    P_G15_T13  RAMPDN_G15_T14  1
    P_G16_T13  TOTAL_COST  49.5
    P_G16_T13  DEMAND_T13  1
    P_G16_T13  PMAX_G16_T13  1
    P_G16_T13  PMIN_G16_T13  1
    P_G16_T13  RAMPUP_G16_T13  1
    P_G16_T13  RAMPDN_G16_T13  -1
    P_G16_T13  RAMPUP_G16_T14  -1
    P_G16_T13  RAMPDN_G16_T14  1
    P_G17_T13  TOTAL_COST  43.7
    P_G17_T13  DEMAND_T13  1
    P_G17_T13  PMAX_G17_T13  1
    P_G17_T13  PMIN_G17_T13  1
    P_G17_T13  RAMPUP_G17_T13  1
    P_G17_T13  RAMPDN_G17_T13  -1
    P_G17_T13  RAMPUP_G17_T14  -1
    P_G17_T13  RAMPDN_G17_T14  1
    P_G18_T13  TOTAL_COST  49.4
    P_G18_T13  DEMAND_T13  1
    P_G18_T13  PMAX_G18_T13  1
    P_G18_T13  PMIN_G18_T13  1
    P_G18_T13  RAMPUP_G18_T13  1
    P_G18_T13  RAMPDN_G18_T13  -1
    P_G18_T13  RAMPUP_G18_T14  -1
    P_G18_T13  RAMPDN_G18_T14  1
    P_G19_T13  TOTAL_COST  29.2
    P_G19_T13  DEMAND_T13  1
    P_G19_T13  PMAX_G19_T13  1
    P_G19_T13  PMIN_G19_T13  1
    P_G19_T13  RAMPUP_G19_T13  1
    P_G19_T13  RAMPDN_G19_T13  -1
    P_G19_T13  RAMPUP_G19_T14  -1
    P_G19_T13  RAMPDN_G19_T14  1
    MARK5600  'MARKER'                 'INTORG'
    U_G0_T14  TOTAL_COST  141
    U_G0_T14  RESERVE_T14  235
    U_G0_T14  PMAX_G0_T14  -235
    U_G0_T14  PMIN_G0_T14  -65
    MARK5610  'MARKER'                 'INTEND'
    MARK5620  'MARKER'                 'INTORG'
    U_G1_T14  TOTAL_COST  182
    U_G1_T14  RESERVE_T14  223
    U_G1_T14  PMAX_G1_T14  -223
    U_G1_T14  PMIN_G1_T14  -26
    MARK5630  'MARKER'                 'INTEND'
    MARK5640  'MARKER'                 'INTORG'
    U_G2_T14  TOTAL_COST  291
    U_G2_T14  RESERVE_T14  214
    U_G2_T14  PMAX_G2_T14  -214
    U_G2_T14  PMIN_G2_T14  -21
    MARK5650  'MARKER'                 'INTEND'
    MARK5660  'MARKER'                 'INTORG'
    U_G3_T14  TOTAL_COST  114
    U_G3_T14  RESERVE_T14  256
    U_G3_T14  PMAX_G3_T14  -256
    U_G3_T14  PMIN_G3_T14  -77
    MARK5670  'MARKER'                 'INTEND'
    MARK5680  'MARKER'                 'INTORG'
    U_G4_T14  TOTAL_COST  130
    U_G4_T14  RESERVE_T14  147
    U_G4_T14  PMAX_G4_T14  -147
    U_G4_T14  PMIN_G4_T14  -65
    MARK5690  'MARKER'                 'INTEND'
    MARK5700  'MARKER'                 'INTORG'
    U_G5_T14  TOTAL_COST  332
    U_G5_T14  RESERVE_T14  215
    U_G5_T14  PMAX_G5_T14  -215
    U_G5_T14  PMIN_G5_T14  -26
    MARK5710  'MARKER'                 'INTEND'
    MARK5720  'MARKER'                 'INTORG'
    U_G6_T14  TOTAL_COST  341
    U_G6_T14  RESERVE_T14  178
    U_G6_T14  PMAX_G6_T14  -178
    U_G6_T14  PMIN_G6_T14  -65
    MARK5730  'MARKER'                 'INTEND'
    MARK5740  'MARKER'                 'INTORG'
    U_G7_T14  TOTAL_COST  189
    U_G7_T14  RESERVE_T14  254
    U_G7_T14  PMAX_G7_T14  -254
    U_G7_T14  PMIN_G7_T14  -76
    MARK5750  'MARKER'                 'INTEND'
    MARK5760  'MARKER'                 'INTORG'
    U_G8_T14  TOTAL_COST  247
    U_G8_T14  RESERVE_T14  203
    U_G8_T14  PMAX_G8_T14  -203
    U_G8_T14  PMIN_G8_T14  -62
    MARK5770  'MARKER'                 'INTEND'
    MARK5780  'MARKER'                 'INTORG'
    U_G9_T14  TOTAL_COST  300
    U_G9_T14  RESERVE_T14  209
    U_G9_T14  PMAX_G9_T14  -209
    U_G9_T14  PMIN_G9_T14  -56
    MARK5790  'MARKER'                 'INTEND'
    MARK5800  'MARKER'                 'INTORG'
    U_G10_T14  TOTAL_COST  346
    U_G10_T14  RESERVE_T14  136
    U_G10_T14  PMAX_G10_T14  -136
    U_G10_T14  PMIN_G10_T14  -46
    MARK5810  'MARKER'                 'INTEND'
    MARK5820  'MARKER'                 'INTORG'
    U_G11_T14  TOTAL_COST  286
    U_G11_T14  RESERVE_T14  299
    U_G11_T14  PMAX_G11_T14  -299
    U_G11_T14  PMIN_G11_T14  -47
    MARK5830  'MARKER'                 'INTEND'
    MARK5840  'MARKER'                 'INTORG'
    U_G12_T14  TOTAL_COST  248
    U_G12_T14  RESERVE_T14  206
    U_G12_T14  PMAX_G12_T14  -206
    U_G12_T14  PMIN_G12_T14  -72
    MARK5850  'MARKER'                 'INTEND'
    MARK5860  'MARKER'                 'INTORG'
    U_G13_T14  TOTAL_COST  209
    U_G13_T14  RESERVE_T14  173
    U_G13_T14  PMAX_G13_T14  -173
    U_G13_T14  PMIN_G13_T14  -39
    MARK5870  'MARKER'                 'INTEND'
    MARK5880  'MARKER'                 'INTORG'
    U_G14_T14  TOTAL_COST  295
    U_G14_T14  RESERVE_T14  243
    U_G14_T14  PMAX_G14_T14  -243
    U_G14_T14  PMIN_G14_T14  -38
    MARK5890  'MARKER'                 'INTEND'
    MARK5900  'MARKER'                 'INTORG'
    U_G15_T14  TOTAL_COST  221
    U_G15_T14  RESERVE_T14  237
    U_G15_T14  PMAX_G15_T14  -237
    U_G15_T14  PMIN_G15_T14  -67
    MARK5910  'MARKER'                 'INTEND'
    MARK5920  'MARKER'                 'INTORG'
    U_G16_T14  TOTAL_COST  278
    U_G16_T14  RESERVE_T14  174
    U_G16_T14  PMAX_G16_T14  -174
    U_G16_T14  PMIN_G16_T14  -41
    MARK5930  'MARKER'                 'INTEND'
    MARK5940  'MARKER'                 'INTORG'
    U_G17_T14  TOTAL_COST  256
    U_G17_T14  RESERVE_T14  232
    U_G17_T14  PMAX_G17_T14  -232
    U_G17_T14  PMIN_G17_T14  -28
    MARK5950  'MARKER'                 'INTEND'
    MARK5960  'MARKER'                 'INTORG'
    U_G18_T14  TOTAL_COST  284
    U_G18_T14  RESERVE_T14  186
    U_G18_T14  PMAX_G18_T14  -186
    U_G18_T14  PMIN_G18_T14  -24
    MARK5970  'MARKER'                 'INTEND'
    MARK5980  'MARKER'                 'INTORG'
    U_G19_T14  TOTAL_COST  259
    U_G19_T14  RESERVE_T14  253
    U_G19_T14  PMAX_G19_T14  -253
    U_G19_T14  PMIN_G19_T14  -76
    MARK5990  'MARKER'                 'INTEND'
    P_G0_T14  TOTAL_COST  50.1
    P_G0_T14  DEMAND_T14  1
    P_G0_T14  PMAX_G0_T14  1
    P_G0_T14  PMIN_G0_T14  1
    P_G0_T14  RAMPUP_G0_T14  1
    P_G0_T14  RAMPDN_G0_T14  -1
    P_G0_T14  RAMPUP_G0_T15  -1
    P_G0_T14  RAMPDN_G0_T15  1
    P_G1_T14  TOTAL_COST  34.9
    P_G1_T14  DEMAND_T14  1
    P_G1_T14  PMAX_G1_T14  1
    P_G1_T14  PMIN_G1_T14  1
    P_G1_T14  RAMPUP_G1_T14  1
    P_G1_T14  RAMPDN_G1_T14  -1
    P_G1_T14  RAMPUP_G1_T15  -1
    P_G1_T14  RAMPDN_G1_T15  1
    P_G2_T14  TOTAL_COST  47.4
    P_G2_T14  DEMAND_T14  1
    P_G2_T14  PMAX_G2_T14  1
    P_G2_T14  PMIN_G2_T14  1
    P_G2_T14  RAMPUP_G2_T14  1
    P_G2_T14  RAMPDN_G2_T14  -1
    P_G2_T14  RAMPUP_G2_T15  -1
    P_G2_T14  RAMPDN_G2_T15  1
    P_G3_T14  TOTAL_COST  38
    P_G3_T14  DEMAND_T14  1
    P_G3_T14  PMAX_G3_T14  1
    P_G3_T14  PMIN_G3_T14  1
    P_G3_T14  RAMPUP_G3_T14  1
    P_G3_T14  RAMPDN_G3_T14  -1
    P_G3_T14  RAMPUP_G3_T15  -1
    P_G3_T14  RAMPDN_G3_T15  1
    P_G4_T14  TOTAL_COST  37
    P_G4_T14  DEMAND_T14  1
    P_G4_T14  PMAX_G4_T14  1
    P_G4_T14  PMIN_G4_T14  1
    P_G4_T14  RAMPUP_G4_T14  1
    P_G4_T14  RAMPDN_G4_T14  -1
    P_G4_T14  RAMPUP_G4_T15  -1
    P_G4_T14  RAMPDN_G4_T15  1
    P_G5_T14  TOTAL_COST  37.8
    P_G5_T14  DEMAND_T14  1
    P_G5_T14  PMAX_G5_T14  1
    P_G5_T14  PMIN_G5_T14  1
    P_G5_T14  RAMPUP_G5_T14  1
    P_G5_T14  RAMPDN_G5_T14  -1
    P_G5_T14  RAMPUP_G5_T15  -1
    P_G5_T14  RAMPDN_G5_T15  1
    P_G6_T14  TOTAL_COST  50
    P_G6_T14  DEMAND_T14  1
    P_G6_T14  PMAX_G6_T14  1
    P_G6_T14  PMIN_G6_T14  1
    P_G6_T14  RAMPUP_G6_T14  1
    P_G6_T14  RAMPDN_G6_T14  -1
    P_G6_T14  RAMPUP_G6_T15  -1
    P_G6_T14  RAMPDN_G6_T15  1
    P_G7_T14  TOTAL_COST  36.6
    P_G7_T14  DEMAND_T14  1
    P_G7_T14  PMAX_G7_T14  1
    P_G7_T14  PMIN_G7_T14  1
    P_G7_T14  RAMPUP_G7_T14  1
    P_G7_T14  RAMPDN_G7_T14  -1
    P_G7_T14  RAMPUP_G7_T15  -1
    P_G7_T14  RAMPDN_G7_T15  1
    P_G8_T14  TOTAL_COST  41.5
    P_G8_T14  DEMAND_T14  1
    P_G8_T14  PMAX_G8_T14  1
    P_G8_T14  PMIN_G8_T14  1
    P_G8_T14  RAMPUP_G8_T14  1
    P_G8_T14  RAMPDN_G8_T14  -1
    P_G8_T14  RAMPUP_G8_T15  -1
    P_G8_T14  RAMPDN_G8_T15  1
    P_G9_T14  TOTAL_COST  35.4
    P_G9_T14  DEMAND_T14  1
    P_G9_T14  PMAX_G9_T14  1
    P_G9_T14  PMIN_G9_T14  1
    P_G9_T14  RAMPUP_G9_T14  1
    P_G9_T14  RAMPDN_G9_T14  -1
    P_G9_T14  RAMPUP_G9_T15  -1
    P_G9_T14  RAMPDN_G9_T15  1
    P_G10_T14  TOTAL_COST  23
    P_G10_T14  DEMAND_T14  1
    P_G10_T14  PMAX_G10_T14  1
    P_G10_T14  PMIN_G10_T14  1
    P_G10_T14  RAMPUP_G10_T14  1
    P_G10_T14  RAMPDN_G10_T14  -1
    P_G10_T14  RAMPUP_G10_T15  -1
    P_G10_T14  RAMPDN_G10_T15  1
    P_G11_T14  TOTAL_COST  43.8
    P_G11_T14  DEMAND_T14  1
    P_G11_T14  PMAX_G11_T14  1
    P_G11_T14  PMIN_G11_T14  1
    P_G11_T14  RAMPUP_G11_T14  1
    P_G11_T14  RAMPDN_G11_T14  -1
    P_G11_T14  RAMPUP_G11_T15  -1
    P_G11_T14  RAMPDN_G11_T15  1
    P_G12_T14  TOTAL_COST  53
    P_G12_T14  DEMAND_T14  1
    P_G12_T14  PMAX_G12_T14  1
    P_G12_T14  PMIN_G12_T14  1
    P_G12_T14  RAMPUP_G12_T14  1
    P_G12_T14  RAMPDN_G12_T14  -1
    P_G12_T14  RAMPUP_G12_T15  -1
    P_G12_T14  RAMPDN_G12_T15  1
    P_G13_T14  TOTAL_COST  40.9
    P_G13_T14  DEMAND_T14  1
    P_G13_T14  PMAX_G13_T14  1
    P_G13_T14  PMIN_G13_T14  1
    P_G13_T14  RAMPUP_G13_T14  1
    P_G13_T14  RAMPDN_G13_T14  -1
    P_G13_T14  RAMPUP_G13_T15  -1
    P_G13_T14  RAMPDN_G13_T15  1
    P_G14_T14  TOTAL_COST  49.2
    P_G14_T14  DEMAND_T14  1
    P_G14_T14  PMAX_G14_T14  1
    P_G14_T14  PMIN_G14_T14  1
    P_G14_T14  RAMPUP_G14_T14  1
    P_G14_T14  RAMPDN_G14_T14  -1
    P_G14_T14  RAMPUP_G14_T15  -1
    P_G14_T14  RAMPDN_G14_T15  1
    P_G15_T14  TOTAL_COST  51.8
    P_G15_T14  DEMAND_T14  1
    P_G15_T14  PMAX_G15_T14  1
    P_G15_T14  PMIN_G15_T14  1
    P_G15_T14  RAMPUP_G15_T14  1
    P_G15_T14  RAMPDN_G15_T14  -1
    P_G15_T14  RAMPUP_G15_T15  -1
    P_G15_T14  RAMPDN_G15_T15  1
    P_G16_T14  TOTAL_COST  49.5
    P_G16_T14  DEMAND_T14  1
    P_G16_T14  PMAX_G16_T14  1
    P_G16_T14  PMIN_G16_T14  1
    P_G16_T14  RAMPUP_G16_T14  1
    P_G16_T14  RAMPDN_G16_T14  -1
    P_G16_T14  RAMPUP_G16_T15  -1
    P_G16_T14  RAMPDN_G16_T15  1
    P_G17_T14  TOTAL_COST  43.7
    P_G17_T14  DEMAND_T14  1
    P_G17_T14  PMAX_G17_T14  1
    P_G17_T14  PMIN_G17_T14  1
    P_G17_T14  RAMPUP_G17_T14  1
    P_G17_T14  RAMPDN_G17_T14  -1
    P_G17_T14  RAMPUP_G17_T15  -1
    P_G17_T14  RAMPDN_G17_T15  1
    P_G18_T14  TOTAL_COST  49.4
    P_G18_T14  DEMAND_T14  1
    P_G18_T14  PMAX_G18_T14  1
    P_G18_T14  PMIN_G18_T14  1
    P_G18_T14  RAMPUP_G18_T14  1
    P_G18_T14  RAMPDN_G18_T14  -1
    P_G18_T14  RAMPUP_G18_T15  -1
    P_G18_T14  RAMPDN_G18_T15  1
    P_G19_T14  TOTAL_COST  29.2
    P_G19_T14  DEMAND_T14  1
    P_G19_T14  PMAX_G19_T14  1
    P_G19_T14  PMIN_G19_T14  1
    P_G19_T14  RAMPUP_G19_T14  1
    P_G19_T14  RAMPDN_G19_T14  -1
    P_G19_T14  RAMPUP_G19_T15  -1
    P_G19_T14  RAMPDN_G19_T15  1
    MARK6000  'MARKER'                 'INTORG'
    U_G0_T15  TOTAL_COST  141
    U_G0_T15  RESERVE_T15  235
    U_G0_T15  PMAX_G0_T15  -235
    U_G0_T15  PMIN_G0_T15  -65
    MARK6010  'MARKER'                 'INTEND'
    MARK6020  'MARKER'                 'INTORG'
    U_G1_T15  TOTAL_COST  182
    U_G1_T15  RESERVE_T15  223
    U_G1_T15  PMAX_G1_T15  -223
    U_G1_T15  PMIN_G1_T15  -26
    MARK6030  'MARKER'                 'INTEND'
    MARK6040  'MARKER'                 'INTORG'
    U_G2_T15  TOTAL_COST  291
    U_G2_T15  RESERVE_T15  214
    U_G2_T15  PMAX_G2_T15  -214
    U_G2_T15  PMIN_G2_T15  -21
    MARK6050  'MARKER'                 'INTEND'
    MARK6060  'MARKER'                 'INTORG'
    U_G3_T15  TOTAL_COST  114
    U_G3_T15  RESERVE_T15  256
    U_G3_T15  PMAX_G3_T15  -256
    U_G3_T15  PMIN_G3_T15  -77
    MARK6070  'MARKER'                 'INTEND'
    MARK6080  'MARKER'                 'INTORG'
    U_G4_T15  TOTAL_COST  130
    U_G4_T15  RESERVE_T15  147
    U_G4_T15  PMAX_G4_T15  -147
    U_G4_T15  PMIN_G4_T15  -65
    MARK6090  'MARKER'                 'INTEND'
    MARK6100  'MARKER'                 'INTORG'
    U_G5_T15  TOTAL_COST  332
    U_G5_T15  RESERVE_T15  215
    U_G5_T15  PMAX_G5_T15  -215
    U_G5_T15  PMIN_G5_T15  -26
    MARK6110  'MARKER'                 'INTEND'
    MARK6120  'MARKER'                 'INTORG'
    U_G6_T15  TOTAL_COST  341
    U_G6_T15  RESERVE_T15  178
    U_G6_T15  PMAX_G6_T15  -178
    U_G6_T15  PMIN_G6_T15  -65
    MARK6130  'MARKER'                 'INTEND'
    MARK6140  'MARKER'                 'INTORG'
    U_G7_T15  TOTAL_COST  189
    U_G7_T15  RESERVE_T15  254
    U_G7_T15  PMAX_G7_T15  -254
    U_G7_T15  PMIN_G7_T15  -76
    MARK6150  'MARKER'                 'INTEND'
    MARK6160  'MARKER'                 'INTORG'
    U_G8_T15  TOTAL_COST  247
    U_G8_T15  RESERVE_T15  203
    U_G8_T15  PMAX_G8_T15  -203
    U_G8_T15  PMIN_G8_T15  -62
    MARK6170  'MARKER'                 'INTEND'
    MARK6180  'MARKER'                 'INTORG'
    U_G9_T15  TOTAL_COST  300
    U_G9_T15  RESERVE_T15  209
    U_G9_T15  PMAX_G9_T15  -209
    U_G9_T15  PMIN_G9_T15  -56
    MARK6190  'MARKER'                 'INTEND'
    MARK6200  'MARKER'                 'INTORG'
    U_G10_T15  TOTAL_COST  346
    U_G10_T15  RESERVE_T15  136
    U_G10_T15  PMAX_G10_T15  -136
    U_G10_T15  PMIN_G10_T15  -46
    MARK6210  'MARKER'                 'INTEND'
    MARK6220  'MARKER'                 'INTORG'
    U_G11_T15  TOTAL_COST  286
    U_G11_T15  RESERVE_T15  299
    U_G11_T15  PMAX_G11_T15  -299
    U_G11_T15  PMIN_G11_T15  -47
    MARK6230  'MARKER'                 'INTEND'
    MARK6240  'MARKER'                 'INTORG'
    U_G12_T15  TOTAL_COST  248
    U_G12_T15  RESERVE_T15  206
    U_G12_T15  PMAX_G12_T15  -206
    U_G12_T15  PMIN_G12_T15  -72
    MARK6250  'MARKER'                 'INTEND'
    MARK6260  'MARKER'                 'INTORG'
    U_G13_T15  TOTAL_COST  209
    U_G13_T15  RESERVE_T15  173
    U_G13_T15  PMAX_G13_T15  -173
    U_G13_T15  PMIN_G13_T15  -39
    MARK6270  'MARKER'                 'INTEND'
    MARK6280  'MARKER'                 'INTORG'
    U_G14_T15  TOTAL_COST  295
    U_G14_T15  RESERVE_T15  243
    U_G14_T15  PMAX_G14_T15  -243
    U_G14_T15  PMIN_G14_T15  -38
    MARK6290  'MARKER'                 'INTEND'
    MARK6300  'MARKER'                 'INTORG'
    U_G15_T15  TOTAL_COST  221
    U_G15_T15  RESERVE_T15  237
    U_G15_T15  PMAX_G15_T15  -237
    U_G15_T15  PMIN_G15_T15  -67
    MARK6310  'MARKER'                 'INTEND'
    MARK6320  'MARKER'                 'INTORG'
    U_G16_T15  TOTAL_COST  278
    U_G16_T15  RESERVE_T15  174
    U_G16_T15  PMAX_G16_T15  -174
    U_G16_T15  PMIN_G16_T15  -41
    MARK6330  'MARKER'                 'INTEND'
    MARK6340  'MARKER'                 'INTORG'
    U_G17_T15  TOTAL_COST  256
    U_G17_T15  RESERVE_T15  232
    U_G17_T15  PMAX_G17_T15  -232
    U_G17_T15  PMIN_G17_T15  -28
    MARK6350  'MARKER'                 'INTEND'
    MARK6360  'MARKER'                 'INTORG'
    U_G18_T15  TOTAL_COST  284
    U_G18_T15  RESERVE_T15  186
    U_G18_T15  PMAX_G18_T15  -186
    U_G18_T15  PMIN_G18_T15  -24
    MARK6370  'MARKER'                 'INTEND'
    MARK6380  'MARKER'                 'INTORG'
    U_G19_T15  TOTAL_COST  259
    U_G19_T15  RESERVE_T15  253
    U_G19_T15  PMAX_G19_T15  -253
    U_G19_T15  PMIN_G19_T15  -76
    MARK6390  'MARKER'                 'INTEND'
    P_G0_T15  TOTAL_COST  50.1
    P_G0_T15  DEMAND_T15  1
    P_G0_T15  PMAX_G0_T15  1
    P_G0_T15  PMIN_G0_T15  1
    P_G0_T15  RAMPUP_G0_T15  1
    P_G0_T15  RAMPDN_G0_T15  -1
    P_G0_T15  RAMPUP_G0_T16  -1
    P_G0_T15  RAMPDN_G0_T16  1
    P_G1_T15  TOTAL_COST  34.9
    P_G1_T15  DEMAND_T15  1
    P_G1_T15  PMAX_G1_T15  1
    P_G1_T15  PMIN_G1_T15  1
    P_G1_T15  RAMPUP_G1_T15  1
    P_G1_T15  RAMPDN_G1_T15  -1
    P_G1_T15  RAMPUP_G1_T16  -1
    P_G1_T15  RAMPDN_G1_T16  1
    P_G2_T15  TOTAL_COST  47.4
    P_G2_T15  DEMAND_T15  1
    P_G2_T15  PMAX_G2_T15  1
    P_G2_T15  PMIN_G2_T15  1
    P_G2_T15  RAMPUP_G2_T15  1
    P_G2_T15  RAMPDN_G2_T15  -1
    P_G2_T15  RAMPUP_G2_T16  -1
    P_G2_T15  RAMPDN_G2_T16  1
    P_G3_T15  TOTAL_COST  38
    P_G3_T15  DEMAND_T15  1
    P_G3_T15  PMAX_G3_T15  1
    P_G3_T15  PMIN_G3_T15  1
    P_G3_T15  RAMPUP_G3_T15  1
    P_G3_T15  RAMPDN_G3_T15  -1
    P_G3_T15  RAMPUP_G3_T16  -1
    P_G3_T15  RAMPDN_G3_T16  1
    P_G4_T15  TOTAL_COST  37
    P_G4_T15  DEMAND_T15  1
    P_G4_T15  PMAX_G4_T15  1
    P_G4_T15  PMIN_G4_T15  1
    P_G4_T15  RAMPUP_G4_T15  1
    P_G4_T15  RAMPDN_G4_T15  -1
    P_G4_T15  RAMPUP_G4_T16  -1
    P_G4_T15  RAMPDN_G4_T16  1
    P_G5_T15  TOTAL_COST  37.8
    P_G5_T15  DEMAND_T15  1
    P_G5_T15  PMAX_G5_T15  1
    P_G5_T15  PMIN_G5_T15  1
    P_G5_T15  RAMPUP_G5_T15  1
    P_G5_T15  RAMPDN_G5_T15  -1
    P_G5_T15  RAMPUP_G5_T16  -1
    P_G5_T15  RAMPDN_G5_T16  1
    P_G6_T15  TOTAL_COST  50
    P_G6_T15  DEMAND_T15  1
    P_G6_T15  PMAX_G6_T15  1
    P_G6_T15  PMIN_G6_T15  1
    P_G6_T15  RAMPUP_G6_T15  1
    P_G6_T15  RAMPDN_G6_T15  -1
    P_G6_T15  RAMPUP_G6_T16  -1
    P_G6_T15  RAMPDN_G6_T16  1
    P_G7_T15  TOTAL_COST  36.6
    P_G7_T15  DEMAND_T15  1
    P_G7_T15  PMAX_G7_T15  1
    P_G7_T15  PMIN_G7_T15  1
    P_G7_T15  RAMPUP_G7_T15  1
    P_G7_T15  RAMPDN_G7_T15  -1
    P_G7_T15  RAMPUP_G7_T16  -1
    P_G7_T15  RAMPDN_G7_T16  1
    P_G8_T15  TOTAL_COST  41.5
    P_G8_T15  DEMAND_T15  1
    P_G8_T15  PMAX_G8_T15  1
    P_G8_T15  PMIN_G8_T15  1
    P_G8_T15  RAMPUP_G8_T15  1
    P_G8_T15  RAMPDN_G8_T15  -1
    P_G8_T15  RAMPUP_G8_T16  -1
    P_G8_T15  RAMPDN_G8_T16  1
    P_G9_T15  TOTAL_COST  35.4
    P_G9_T15  DEMAND_T15  1
    P_G9_T15  PMAX_G9_T15  1
    P_G9_T15  PMIN_G9_T15  1
    P_G9_T15  RAMPUP_G9_T15  1
    P_G9_T15  RAMPDN_G9_T15  -1
    P_G9_T15  RAMPUP_G9_T16  -1
    P_G9_T15  RAMPDN_G9_T16  1
    P_G10_T15  TOTAL_COST  23
    P_G10_T15  DEMAND_T15  1
    P_G10_T15  PMAX_G10_T15  1
    P_G10_T15  PMIN_G10_T15  1
    P_G10_T15  RAMPUP_G10_T15  1
    P_G10_T15  RAMPDN_G10_T15  -1
    P_G10_T15  RAMPUP_G10_T16  -1
    P_G10_T15  RAMPDN_G10_T16  1
    P_G11_T15  TOTAL_COST  43.8
    P_G11_T15  DEMAND_T15  1
    P_G11_T15  PMAX_G11_T15  1
    P_G11_T15  PMIN_G11_T15  1
    P_G11_T15  RAMPUP_G11_T15  1
    P_G11_T15  RAMPDN_G11_T15  -1
    P_G11_T15  RAMPUP_G11_T16  -1
    P_G11_T15  RAMPDN_G11_T16  1
    P_G12_T15  TOTAL_COST  53
    P_G12_T15  DEMAND_T15  1
    P_G12_T15  PMAX_G12_T15  1
    P_G12_T15  PMIN_G12_T15  1
    P_G12_T15  RAMPUP_G12_T15  1
    P_G12_T15  RAMPDN_G12_T15  -1
    P_G12_T15  RAMPUP_G12_T16  -1
    P_G12_T15  RAMPDN_G12_T16  1
    P_G13_T15  TOTAL_COST  40.9
    P_G13_T15  DEMAND_T15  1
    P_G13_T15  PMAX_G13_T15  1
    P_G13_T15  PMIN_G13_T15  1
    P_G13_T15  RAMPUP_G13_T15  1
    P_G13_T15  RAMPDN_G13_T15  -1
    P_G13_T15  RAMPUP_G13_T16  -1
    P_G13_T15  RAMPDN_G13_T16  1
    P_G14_T15  TOTAL_COST  49.2
    P_G14_T15  DEMAND_T15  1
    P_G14_T15  PMAX_G14_T15  1
    P_G14_T15  PMIN_G14_T15  1
    P_G14_T15  RAMPUP_G14_T15  1
    P_G14_T15  RAMPDN_G14_T15  -1
    P_G14_T15  RAMPUP_G14_T16  -1
    P_G14_T15  RAMPDN_G14_T16  1
    P_G15_T15  TOTAL_COST  51.8
    P_G15_T15  DEMAND_T15  1
    P_G15_T15  PMAX_G15_T15  1
    P_G15_T15  PMIN_G15_T15  1
    P_G15_T15  RAMPUP_G15_T15  1
    P_G15_T15  RAMPDN_G15_T15  -1
    P_G15_T15  RAMPUP_G15_T16  -1
    P_G15_T15  RAMPDN_G15_T16  1
    P_G16_T15  TOTAL_COST  49.5
    P_G16_T15  DEMAND_T15  1
    P_G16_T15  PMAX_G16_T15  1
    P_G16_T15  PMIN_G16_T15  1
    P_G16_T15  RAMPUP_G16_T15  1
    P_G16_T15  RAMPDN_G16_T15  -1
    P_G16_T15  RAMPUP_G16_T16  -1
    P_G16_T15  RAMPDN_G16_T16  1
    P_G17_T15  TOTAL_COST  43.7
    P_G17_T15  DEMAND_T15  1
    P_G17_T15  PMAX_G17_T15  1
    P_G17_T15  PMIN_G17_T15  1
    P_G17_T15  RAMPUP_G17_T15  1
    P_G17_T15  RAMPDN_G17_T15  -1
    P_G17_T15  RAMPUP_G17_T16  -1
    P_G17_T15  RAMPDN_G17_T16  1
    P_G18_T15  TOTAL_COST  49.4
    P_G18_T15  DEMAND_T15  1
    P_G18_T15  PMAX_G18_T15  1
    P_G18_T15  PMIN_G18_T15  1
    P_G18_T15  RAMPUP_G18_T15  1
    P_G18_T15  RAMPDN_G18_T15  -1
    P_G18_T15  RAMPUP_G18_T16  -1
    P_G18_T15  RAMPDN_G18_T16  1
    P_G19_T15  TOTAL_COST  29.2
    P_G19_T15  DEMAND_T15  1
    P_G19_T15  PMAX_G19_T15  1
    P_G19_T15  PMIN_G19_T15  1
    P_G19_T15  RAMPUP_G19_T15  1
    P_G19_T15  RAMPDN_G19_T15  -1
    P_G19_T15  RAMPUP_G19_T16  -1
    P_G19_T15  RAMPDN_G19_T16  1
    MARK6400  'MARKER'                 'INTORG'
    U_G0_T16  TOTAL_COST  141
    U_G0_T16  RESERVE_T16  235
    U_G0_T16  PMAX_G0_T16  -235
    U_G0_T16  PMIN_G0_T16  -65
    MARK6410  'MARKER'                 'INTEND'
    MARK6420  'MARKER'                 'INTORG'
    U_G1_T16  TOTAL_COST  182
    U_G1_T16  RESERVE_T16  223
    U_G1_T16  PMAX_G1_T16  -223
    U_G1_T16  PMIN_G1_T16  -26
    MARK6430  'MARKER'                 'INTEND'
    MARK6440  'MARKER'                 'INTORG'
    U_G2_T16  TOTAL_COST  291
    U_G2_T16  RESERVE_T16  214
    U_G2_T16  PMAX_G2_T16  -214
    U_G2_T16  PMIN_G2_T16  -21
    MARK6450  'MARKER'                 'INTEND'
    MARK6460  'MARKER'                 'INTORG'
    U_G3_T16  TOTAL_COST  114
    U_G3_T16  RESERVE_T16  256
    U_G3_T16  PMAX_G3_T16  -256
    U_G3_T16  PMIN_G3_T16  -77
    MARK6470  'MARKER'                 'INTEND'
    MARK6480  'MARKER'                 'INTORG'
    U_G4_T16  TOTAL_COST  130
    U_G4_T16  RESERVE_T16  147
    U_G4_T16  PMAX_G4_T16  -147
    U_G4_T16  PMIN_G4_T16  -65
    MARK6490  'MARKER'                 'INTEND'
    MARK6500  'MARKER'                 'INTORG'
    U_G5_T16  TOTAL_COST  332
    U_G5_T16  RESERVE_T16  215
    U_G5_T16  PMAX_G5_T16  -215
    U_G5_T16  PMIN_G5_T16  -26
    MARK6510  'MARKER'                 'INTEND'
    MARK6520  'MARKER'                 'INTORG'
    U_G6_T16  TOTAL_COST  341
    U_G6_T16  RESERVE_T16  178
    U_G6_T16  PMAX_G6_T16  -178
    U_G6_T16  PMIN_G6_T16  -65
    MARK6530  'MARKER'                 'INTEND'
    MARK6540  'MARKER'                 'INTORG'
    U_G7_T16  TOTAL_COST  189
    U_G7_T16  RESERVE_T16  254
    U_G7_T16  PMAX_G7_T16  -254
    U_G7_T16  PMIN_G7_T16  -76
    MARK6550  'MARKER'                 'INTEND'
    MARK6560  'MARKER'                 'INTORG'
    U_G8_T16  TOTAL_COST  247
    U_G8_T16  RESERVE_T16  203
    U_G8_T16  PMAX_G8_T16  -203
    U_G8_T16  PMIN_G8_T16  -62
    MARK6570  'MARKER'                 'INTEND'
    MARK6580  'MARKER'                 'INTORG'
    U_G9_T16  TOTAL_COST  300
    U_G9_T16  RESERVE_T16  209
    U_G9_T16  PMAX_G9_T16  -209
    U_G9_T16  PMIN_G9_T16  -56
    MARK6590  'MARKER'                 'INTEND'
    MARK6600  'MARKER'                 'INTORG'
    U_G10_T16  TOTAL_COST  346
    U_G10_T16  RESERVE_T16  136
    U_G10_T16  PMAX_G10_T16  -136
    U_G10_T16  PMIN_G10_T16  -46
    MARK6610  'MARKER'                 'INTEND'
    MARK6620  'MARKER'                 'INTORG'
    U_G11_T16  TOTAL_COST  286
    U_G11_T16  RESERVE_T16  299
    U_G11_T16  PMAX_G11_T16  -299
    U_G11_T16  PMIN_G11_T16  -47
    MARK6630  'MARKER'                 'INTEND'
    MARK6640  'MARKER'                 'INTORG'
    U_G12_T16  TOTAL_COST  248
    U_G12_T16  RESERVE_T16  206
    U_G12_T16  PMAX_G12_T16  -206
    U_G12_T16  PMIN_G12_T16  -72
    MARK6650  'MARKER'                 'INTEND'
    MARK6660  'MARKER'                 'INTORG'
    U_G13_T16  TOTAL_COST  209
    U_G13_T16  RESERVE_T16  173
    U_G13_T16  PMAX_G13_T16  -173
    U_G13_T16  PMIN_G13_T16  -39
    MARK6670  'MARKER'                 'INTEND'
    MARK6680  'MARKER'                 'INTORG'
    U_G14_T16  TOTAL_COST  295
    U_G14_T16  RESERVE_T16  243
    U_G14_T16  PMAX_G14_T16  -243
    U_G14_T16  PMIN_G14_T16  -38
    MARK6690  'MARKER'                 'INTEND'
    MARK6700  'MARKER'                 'INTORG'
    U_G15_T16  TOTAL_COST  221
    U_G15_T16  RESERVE_T16  237
    U_G15_T16  PMAX_G15_T16  -237
    U_G15_T16  PMIN_G15_T16  -67
    MARK6710  'MARKER'                 'INTEND'
    MARK6720  'MARKER'                 'INTORG'
    U_G16_T16  TOTAL_COST  278
    U_G16_T16  RESERVE_T16  174
    U_G16_T16  PMAX_G16_T16  -174
    U_G16_T16  PMIN_G16_T16  -41
    MARK6730  'MARKER'                 'INTEND'
    MARK6740  'MARKER'                 'INTORG'
    U_G17_T16  TOTAL_COST  256
    U_G17_T16  RESERVE_T16  232
    U_G17_T16  PMAX_G17_T16  -232
    U_G17_T16  PMIN_G17_T16  -28
    MARK6750  'MARKER'                 'INTEND'
    MARK6760  'MARKER'                 'INTORG'
    U_G18_T16  TOTAL_COST  284
    U_G18_T16  RESERVE_T16  186
    U_G18_T16  PMAX_G18_T16  -186
    U_G18_T16  PMIN_G18_T16  -24
    MARK6770  'MARKER'                 'INTEND'
    MARK6780  'MARKER'                 'INTORG'
    U_G19_T16  TOTAL_COST  259
    U_G19_T16  RESERVE_T16  253
    U_G19_T16  PMAX_G19_T16  -253
    U_G19_T16  PMIN_G19_T16  -76
    MARK6790  'MARKER'                 'INTEND'
    P_G0_T16  TOTAL_COST  50.1
    P_G0_T16  DEMAND_T16  1
    P_G0_T16  PMAX_G0_T16  1
    P_G0_T16  PMIN_G0_T16  1
    P_G0_T16  RAMPUP_G0_T16  1
    P_G0_T16  RAMPDN_G0_T16  -1
    P_G0_T16  RAMPUP_G0_T17  -1
    P_G0_T16  RAMPDN_G0_T17  1
    P_G1_T16  TOTAL_COST  34.9
    P_G1_T16  DEMAND_T16  1
    P_G1_T16  PMAX_G1_T16  1
    P_G1_T16  PMIN_G1_T16  1
    P_G1_T16  RAMPUP_G1_T16  1
    P_G1_T16  RAMPDN_G1_T16  -1
    P_G1_T16  RAMPUP_G1_T17  -1
    P_G1_T16  RAMPDN_G1_T17  1
    P_G2_T16  TOTAL_COST  47.4
    P_G2_T16  DEMAND_T16  1
    P_G2_T16  PMAX_G2_T16  1
    P_G2_T16  PMIN_G2_T16  1
    P_G2_T16  RAMPUP_G2_T16  1
    P_G2_T16  RAMPDN_G2_T16  -1
    P_G2_T16  RAMPUP_G2_T17  -1
    P_G2_T16  RAMPDN_G2_T17  1
    P_G3_T16  TOTAL_COST  38
    P_G3_T16  DEMAND_T16  1
    P_G3_T16  PMAX_G3_T16  1
    P_G3_T16  PMIN_G3_T16  1
    P_G3_T16  RAMPUP_G3_T16  1
    P_G3_T16  RAMPDN_G3_T16  -1
    P_G3_T16  RAMPUP_G3_T17  -1
    P_G3_T16  RAMPDN_G3_T17  1
    P_G4_T16  TOTAL_COST  37
    P_G4_T16  DEMAND_T16  1
    P_G4_T16  PMAX_G4_T16  1
    P_G4_T16  PMIN_G4_T16  1
    P_G4_T16  RAMPUP_G4_T16  1
    P_G4_T16  RAMPDN_G4_T16  -1
    P_G4_T16  RAMPUP_G4_T17  -1
    P_G4_T16  RAMPDN_G4_T17  1
    P_G5_T16  TOTAL_COST  37.8
    P_G5_T16  DEMAND_T16  1
    P_G5_T16  PMAX_G5_T16  1
    P_G5_T16  PMIN_G5_T16  1
    P_G5_T16  RAMPUP_G5_T16  1
    P_G5_T16  RAMPDN_G5_T16  -1
    P_G5_T16  RAMPUP_G5_T17  -1
    P_G5_T16  RAMPDN_G5_T17  1
    P_G6_T16  TOTAL_COST  50
    P_G6_T16  DEMAND_T16  1
    P_G6_T16  PMAX_G6_T16  1
    P_G6_T16  PMIN_G6_T16  1
    P_G6_T16  RAMPUP_G6_T16  1
    P_G6_T16  RAMPDN_G6_T16  -1
    P_G6_T16  RAMPUP_G6_T17  -1
    P_G6_T16  RAMPDN_G6_T17  1
    P_G7_T16  TOTAL_COST  36.6
    P_G7_T16  DEMAND_T16  1
    P_G7_T16  PMAX_G7_T16  1
    P_G7_T16  PMIN_G7_T16  1
    P_G7_T16  RAMPUP_G7_T16  1
    P_G7_T16  RAMPDN_G7_T16  -1
    P_G7_T16  RAMPUP_G7_T17  -1
    P_G7_T16  RAMPDN_G7_T17  1
    P_G8_T16  TOTAL_COST  41.5
    P_G8_T16  DEMAND_T16  1
    P_G8_T16  PMAX_G8_T16  1
    P_G8_T16  PMIN_G8_T16  1
    P_G8_T16  RAMPUP_G8_T16  1
    P_G8_T16  RAMPDN_G8_T16  -1
    P_G8_T16  RAMPUP_G8_T17  -1
    P_G8_T16  RAMPDN_G8_T17  1
    P_G9_T16  TOTAL_COST  35.4
    P_G9_T16  DEMAND_T16  1
    P_G9_T16  PMAX_G9_T16  1
    P_G9_T16  PMIN_G9_T16  1
    P_G9_T16  RAMPUP_G9_T16  1
    P_G9_T16  RAMPDN_G9_T16  -1
    P_G9_T16  RAMPUP_G9_T17  -1
    P_G9_T16  RAMPDN_G9_T17  1
    P_G10_T16  TOTAL_COST  23
    P_G10_T16  DEMAND_T16  1
    P_G10_T16  PMAX_G10_T16  1
    P_G10_T16  PMIN_G10_T16  1
    P_G10_T16  RAMPUP_G10_T16  1
    P_G10_T16  RAMPDN_G10_T16  -1
    P_G10_T16  RAMPUP_G10_T17  -1
    P_G10_T16  RAMPDN_G10_T17  1
    P_G11_T16  TOTAL_COST  43.8
    P_G11_T16  DEMAND_T16  1
    P_G11_T16  PMAX_G11_T16  1
    P_G11_T16  PMIN_G11_T16  1
    P_G11_T16  RAMPUP_G11_T16  1
    P_G11_T16  RAMPDN_G11_T16  -1
    P_G11_T16  RAMPUP_G11_T17  -1
    P_G11_T16  RAMPDN_G11_T17  1
    P_G12_T16  TOTAL_COST  53
    P_G12_T16  DEMAND_T16  1
    P_G12_T16  PMAX_G12_T16  1
    P_G12_T16  PMIN_G12_T16  1
    P_G12_T16  RAMPUP_G12_T16  1
    P_G12_T16  RAMPDN_G12_T16  -1
    P_G12_T16  RAMPUP_G12_T17  -1
    P_G12_T16  RAMPDN_G12_T17  1
    P_G13_T16  TOTAL_COST  40.9
    P_G13_T16  DEMAND_T16  1
    P_G13_T16  PMAX_G13_T16  1
    P_G13_T16  PMIN_G13_T16  1
    P_G13_T16  RAMPUP_G13_T16  1
    P_G13_T16  RAMPDN_G13_T16  -1
    P_G13_T16  RAMPUP_G13_T17  -1
    P_G13_T16  RAMPDN_G13_T17  1
    P_G14_T16  TOTAL_COST  49.2
    P_G14_T16  DEMAND_T16  1
    P_G14_T16  PMAX_G14_T16  1
    P_G14_T16  PMIN_G14_T16  1
    P_G14_T16  RAMPUP_G14_T16  1
    P_G14_T16  RAMPDN_G14_T16  -1
    P_G14_T16  RAMPUP_G14_T17  -1
    P_G14_T16  RAMPDN_G14_T17  1
    P_G15_T16  TOTAL_COST  51.8
    P_G15_T16  DEMAND_T16  1
    P_G15_T16  PMAX_G15_T16  1
    P_G15_T16  PMIN_G15_T16  1
    P_G15_T16  RAMPUP_G15_T16  1
    P_G15_T16  RAMPDN_G15_T16  -1
    P_G15_T16  RAMPUP_G15_T17  -1
    P_G15_T16  RAMPDN_G15_T17  1
    P_G16_T16  TOTAL_COST  49.5
    P_G16_T16  DEMAND_T16  1
    P_G16_T16  PMAX_G16_T16  1
    P_G16_T16  PMIN_G16_T16  1
    P_G16_T16  RAMPUP_G16_T16  1
    P_G16_T16  RAMPDN_G16_T16  -1
    P_G16_T16  RAMPUP_G16_T17  -1
    P_G16_T16  RAMPDN_G16_T17  1
    P_G17_T16  TOTAL_COST  43.7
    P_G17_T16  DEMAND_T16  1
    P_G17_T16  PMAX_G17_T16  1
    P_G17_T16  PMIN_G17_T16  1
    P_G17_T16  RAMPUP_G17_T16  1
    P_G17_T16  RAMPDN_G17_T16  -1
    P_G17_T16  RAMPUP_G17_T17  -1
    P_G17_T16  RAMPDN_G17_T17  1
    P_G18_T16  TOTAL_COST  49.4
    P_G18_T16  DEMAND_T16  1
    P_G18_T16  PMAX_G18_T16  1
    P_G18_T16  PMIN_G18_T16  1
    P_G18_T16  RAMPUP_G18_T16  1
    P_G18_T16  RAMPDN_G18_T16  -1
    P_G18_T16  RAMPUP_G18_T17  -1
    P_G18_T16  RAMPDN_G18_T17  1
    P_G19_T16  TOTAL_COST  29.2
    P_G19_T16  DEMAND_T16  1
    P_G19_T16  PMAX_G19_T16  1
    P_G19_T16  PMIN_G19_T16  1
    P_G19_T16  RAMPUP_G19_T16  1
    P_G19_T16  RAMPDN_G19_T16  -1
    P_G19_T16  RAMPUP_G19_T17  -1
    P_G19_T16  RAMPDN_G19_T17  1
    MARK6800  'MARKER'                 'INTORG'
    U_G0_T17  TOTAL_COST  141
    U_G0_T17  RESERVE_T17  235
    U_G0_T17  PMAX_G0_T17  -235
    U_G0_T17  PMIN_G0_T17  -65
    MARK6810  'MARKER'                 'INTEND'
    MARK6820  'MARKER'                 'INTORG'
    U_G1_T17  TOTAL_COST  182
    U_G1_T17  RESERVE_T17  223
    U_G1_T17  PMAX_G1_T17  -223
    U_G1_T17  PMIN_G1_T17  -26
    MARK6830  'MARKER'                 'INTEND'
    MARK6840  'MARKER'                 'INTORG'
    U_G2_T17  TOTAL_COST  291
    U_G2_T17  RESERVE_T17  214
    U_G2_T17  PMAX_G2_T17  -214
    U_G2_T17  PMIN_G2_T17  -21
    MARK6850  'MARKER'                 'INTEND'
    MARK6860  'MARKER'                 'INTORG'
    U_G3_T17  TOTAL_COST  114
    U_G3_T17  RESERVE_T17  256
    U_G3_T17  PMAX_G3_T17  -256
    U_G3_T17  PMIN_G3_T17  -77
    MARK6870  'MARKER'                 'INTEND'
    MARK6880  'MARKER'                 'INTORG'
    U_G4_T17  TOTAL_COST  130
    U_G4_T17  RESERVE_T17  147
    U_G4_T17  PMAX_G4_T17  -147
    U_G4_T17  PMIN_G4_T17  -65
    MARK6890  'MARKER'                 'INTEND'
    MARK6900  'MARKER'                 'INTORG'
    U_G5_T17  TOTAL_COST  332
    U_G5_T17  RESERVE_T17  215
    U_G5_T17  PMAX_G5_T17  -215
    U_G5_T17  PMIN_G5_T17  -26
    MARK6910  'MARKER'                 'INTEND'
    MARK6920  'MARKER'                 'INTORG'
    U_G6_T17  TOTAL_COST  341
    U_G6_T17  RESERVE_T17  178
    U_G6_T17  PMAX_G6_T17  -178
    U_G6_T17  PMIN_G6_T17  -65
    MARK6930  'MARKER'                 'INTEND'
    MARK6940  'MARKER'                 'INTORG'
    U_G7_T17  TOTAL_COST  189
    U_G7_T17  RESERVE_T17  254
    U_G7_T17  PMAX_G7_T17  -254
    U_G7_T17  PMIN_G7_T17  -76
    MARK6950  'MARKER'                 'INTEND'
    MARK6960  'MARKER'                 'INTORG'
    U_G8_T17  TOTAL_COST  247
    U_G8_T17  RESERVE_T17  203
    U_G8_T17  PMAX_G8_T17  -203
    U_G8_T17  PMIN_G8_T17  -62
    MARK6970  'MARKER'                 'INTEND'
    MARK6980  'MARKER'                 'INTORG'
    U_G9_T17  TOTAL_COST  300
    U_G9_T17  RESERVE_T17  209
    U_G9_T17  PMAX_G9_T17  -209
    U_G9_T17  PMIN_G9_T17  -56
    MARK6990  'MARKER'                 'INTEND'
    MARK7000  'MARKER'                 'INTORG'
    U_G10_T17  TOTAL_COST  346
    U_G10_T17  RESERVE_T17  136
    U_G10_T17  PMAX_G10_T17  -136
    U_G10_T17  PMIN_G10_T17  -46
    MARK7010  'MARKER'                 'INTEND'
    MARK7020  'MARKER'                 'INTORG'
    U_G11_T17  TOTAL_COST  286
    U_G11_T17  RESERVE_T17  299
    U_G11_T17  PMAX_G11_T17  -299
    U_G11_T17  PMIN_G11_T17  -47
    MARK7030  'MARKER'                 'INTEND'
    MARK7040  'MARKER'                 'INTORG'
    U_G12_T17  TOTAL_COST  248
    U_G12_T17  RESERVE_T17  206
    U_G12_T17  PMAX_G12_T17  -206
    U_G12_T17  PMIN_G12_T17  -72
    MARK7050  'MARKER'                 'INTEND'
    MARK7060  'MARKER'                 'INTORG'
    U_G13_T17  TOTAL_COST  209
    U_G13_T17  RESERVE_T17  173
    U_G13_T17  PMAX_G13_T17  -173
    U_G13_T17  PMIN_G13_T17  -39
    MARK7070  'MARKER'                 'INTEND'
    MARK7080  'MARKER'                 'INTORG'
    U_G14_T17  TOTAL_COST  295
    U_G14_T17  RESERVE_T17  243
    U_G14_T17  PMAX_G14_T17  -243
    U_G14_T17  PMIN_G14_T17  -38
    MARK7090  'MARKER'                 'INTEND'
    MARK7100  'MARKER'                 'INTORG'
    U_G15_T17  TOTAL_COST  221
    U_G15_T17  RESERVE_T17  237
    U_G15_T17  PMAX_G15_T17  -237
    U_G15_T17  PMIN_G15_T17  -67
    MARK7110  'MARKER'                 'INTEND'
    MARK7120  'MARKER'                 'INTORG'
    U_G16_T17  TOTAL_COST  278
    U_G16_T17  RESERVE_T17  174
    U_G16_T17  PMAX_G16_T17  -174
    U_G16_T17  PMIN_G16_T17  -41
    MARK7130  'MARKER'                 'INTEND'
    MARK7140  'MARKER'                 'INTORG'
    U_G17_T17  TOTAL_COST  256
    U_G17_T17  RESERVE_T17  232
    U_G17_T17  PMAX_G17_T17  -232
    U_G17_T17  PMIN_G17_T17  -28
    MARK7150  'MARKER'                 'INTEND'
    MARK7160  'MARKER'                 'INTORG'
    U_G18_T17  TOTAL_COST  284
    U_G18_T17  RESERVE_T17  186
    U_G18_T17  PMAX_G18_T17  -186
    U_G18_T17  PMIN_G18_T17  -24
    MARK7170  'MARKER'                 'INTEND'
    MARK7180  'MARKER'                 'INTORG'
    U_G19_T17  TOTAL_COST  259
    U_G19_T17  RESERVE_T17  253
    U_G19_T17  PMAX_G19_T17  -253
    U_G19_T17  PMIN_G19_T17  -76
    MARK7190  'MARKER'                 'INTEND'
    P_G0_T17  TOTAL_COST  50.1
    P_G0_T17  DEMAND_T17  1
    P_G0_T17  PMAX_G0_T17  1
    P_G0_T17  PMIN_G0_T17  1
    P_G0_T17  RAMPUP_G0_T17  1
    P_G0_T17  RAMPDN_G0_T17  -1
    P_G0_T17  RAMPUP_G0_T18  -1
    P_G0_T17  RAMPDN_G0_T18  1
    P_G1_T17  TOTAL_COST  34.9
    P_G1_T17  DEMAND_T17  1
    P_G1_T17  PMAX_G1_T17  1
    P_G1_T17  PMIN_G1_T17  1
    P_G1_T17  RAMPUP_G1_T17  1
    P_G1_T17  RAMPDN_G1_T17  -1
    P_G1_T17  RAMPUP_G1_T18  -1
    P_G1_T17  RAMPDN_G1_T18  1
    P_G2_T17  TOTAL_COST  47.4
    P_G2_T17  DEMAND_T17  1
    P_G2_T17  PMAX_G2_T17  1
    P_G2_T17  PMIN_G2_T17  1
    P_G2_T17  RAMPUP_G2_T17  1
    P_G2_T17  RAMPDN_G2_T17  -1
    P_G2_T17  RAMPUP_G2_T18  -1
    P_G2_T17  RAMPDN_G2_T18  1
    P_G3_T17  TOTAL_COST  38
    P_G3_T17  DEMAND_T17  1
    P_G3_T17  PMAX_G3_T17  1
    P_G3_T17  PMIN_G3_T17  1
    P_G3_T17  RAMPUP_G3_T17  1
    P_G3_T17  RAMPDN_G3_T17  -1
    P_G3_T17  RAMPUP_G3_T18  -1
    P_G3_T17  RAMPDN_G3_T18  1
    P_G4_T17  TOTAL_COST  37
    P_G4_T17  DEMAND_T17  1
    P_G4_T17  PMAX_G4_T17  1
    P_G4_T17  PMIN_G4_T17  1
    P_G4_T17  RAMPUP_G4_T17  1
    P_G4_T17  RAMPDN_G4_T17  -1
    P_G4_T17  RAMPUP_G4_T18  -1
    P_G4_T17  RAMPDN_G4_T18  1
    P_G5_T17  TOTAL_COST  37.8
    P_G5_T17  DEMAND_T17  1
    P_G5_T17  PMAX_G5_T17  1
    P_G5_T17  PMIN_G5_T17  1
    P_G5_T17  RAMPUP_G5_T17  1
    P_G5_T17  RAMPDN_G5_T17  -1
    P_G5_T17  RAMPUP_G5_T18  -1
    P_G5_T17  RAMPDN_G5_T18  1
    P_G6_T17  TOTAL_COST  50
    P_G6_T17  DEMAND_T17  1
    P_G6_T17  PMAX_G6_T17  1
    P_G6_T17  PMIN_G6_T17  1
    P_G6_T17  RAMPUP_G6_T17  1
    P_G6_T17  RAMPDN_G6_T17  -1
    P_G6_T17  RAMPUP_G6_T18  -1
    P_G6_T17  RAMPDN_G6_T18  1
    P_G7_T17  TOTAL_COST  36.6
    P_G7_T17  DEMAND_T17  1
    P_G7_T17  PMAX_G7_T17  1
    P_G7_T17  PMIN_G7_T17  1
    P_G7_T17  RAMPUP_G7_T17  1
    P_G7_T17  RAMPDN_G7_T17  -1
    P_G7_T17  RAMPUP_G7_T18  -1
    P_G7_T17  RAMPDN_G7_T18  1
    P_G8_T17  TOTAL_COST  41.5
    P_G8_T17  DEMAND_T17  1
    P_G8_T17  PMAX_G8_T17  1
    P_G8_T17  PMIN_G8_T17  1
    P_G8_T17  RAMPUP_G8_T17  1
    P_G8_T17  RAMPDN_G8_T17  -1
    P_G8_T17  RAMPUP_G8_T18  -1
    P_G8_T17  RAMPDN_G8_T18  1
    P_G9_T17  TOTAL_COST  35.4
    P_G9_T17  DEMAND_T17  1
    P_G9_T17  PMAX_G9_T17  1
    P_G9_T17  PMIN_G9_T17  1
    P_G9_T17  RAMPUP_G9_T17  1
    P_G9_T17  RAMPDN_G9_T17  -1
    P_G9_T17  RAMPUP_G9_T18  -1
    P_G9_T17  RAMPDN_G9_T18  1
    P_G10_T17  TOTAL_COST  23
    P_G10_T17  DEMAND_T17  1
    P_G10_T17  PMAX_G10_T17  1
    P_G10_T17  PMIN_G10_T17  1
    P_G10_T17  RAMPUP_G10_T17  1
    P_G10_T17  RAMPDN_G10_T17  -1
    P_G10_T17  RAMPUP_G10_T18  -1
    P_G10_T17  RAMPDN_G10_T18  1
    P_G11_T17  TOTAL_COST  43.8
    P_G11_T17  DEMAND_T17  1
    P_G11_T17  PMAX_G11_T17  1
    P_G11_T17  PMIN_G11_T17  1
    P_G11_T17  RAMPUP_G11_T17  1
    P_G11_T17  RAMPDN_G11_T17  -1
    P_G11_T17  RAMPUP_G11_T18  -1
    P_G11_T17  RAMPDN_G11_T18  1
    P_G12_T17  TOTAL_COST  53
    P_G12_T17  DEMAND_T17  1
    P_G12_T17  PMAX_G12_T17  1
    P_G12_T17  PMIN_G12_T17  1
    P_G12_T17  RAMPUP_G12_T17  1
    P_G12_T17  RAMPDN_G12_T17  -1
    P_G12_T17  RAMPUP_G12_T18  -1
    P_G12_T17  RAMPDN_G12_T18  1
    P_G13_T17  TOTAL_COST  40.9
    P_G13_T17  DEMAND_T17  1
    P_G13_T17  PMAX_G13_T17  1
    P_G13_T17  PMIN_G13_T17  1
    P_G13_T17  RAMPUP_G13_T17  1
    P_G13_T17  RAMPDN_G13_T17  -1
    P_G13_T17  RAMPUP_G13_T18  -1
    P_G13_T17  RAMPDN_G13_T18  1
    P_G14_T17  TOTAL_COST  49.2
    P_G14_T17  DEMAND_T17  1
    P_G14_T17  PMAX_G14_T17  1
    P_G14_T17  PMIN_G14_T17  1
    P_G14_T17  RAMPUP_G14_T17  1
    P_G14_T17  RAMPDN_G14_T17  -1
    P_G14_T17  RAMPUP_G14_T18  -1
    P_G14_T17  RAMPDN_G14_T18  1
    P_G15_T17  TOTAL_COST  51.8
    P_G15_T17  DEMAND_T17  1
    P_G15_T17  PMAX_G15_T17  1
    P_G15_T17  PMIN_G15_T17  1
    P_G15_T17  RAMPUP_G15_T17  1
    P_G15_T17  RAMPDN_G15_T17  -1
    P_G15_T17  RAMPUP_G15_T18  -1
    P_G15_T17  RAMPDN_G15_T18  1
    P_G16_T17  TOTAL_COST  49.5
    P_G16_T17  DEMAND_T17  1
    P_G16_T17  PMAX_G16_T17  1
    P_G16_T17  PMIN_G16_T17  1
    P_G16_T17  RAMPUP_G16_T17  1
    P_G16_T17  RAMPDN_G16_T17  -1
    P_G16_T17  RAMPUP_G16_T18  -1
    P_G16_T17  RAMPDN_G16_T18  1
    P_G17_T17  TOTAL_COST  43.7
    P_G17_T17  DEMAND_T17  1
    P_G17_T17  PMAX_G17_T17  1
    P_G17_T17  PMIN_G17_T17  1
    P_G17_T17  RAMPUP_G17_T17  1
    P_G17_T17  RAMPDN_G17_T17  -1
    P_G17_T17  RAMPUP_G17_T18  -1
    P_G17_T17  RAMPDN_G17_T18  1
    P_G18_T17  TOTAL_COST  49.4
    P_G18_T17  DEMAND_T17  1
    P_G18_T17  PMAX_G18_T17  1
    P_G18_T17  PMIN_G18_T17  1
    P_G18_T17  RAMPUP_G18_T17  1
    P_G18_T17  RAMPDN_G18_T17  -1
    P_G18_T17  RAMPUP_G18_T18  -1
    P_G18_T17  RAMPDN_G18_T18  1
    P_G19_T17  TOTAL_COST  29.2
    P_G19_T17  DEMAND_T17  1
    P_G19_T17  PMAX_G19_T17  1
    P_G19_T17  PMIN_G19_T17  1
    P_G19_T17  RAMPUP_G19_T17  1
    P_G19_T17  RAMPDN_G19_T17  -1
    P_G19_T17  RAMPUP_G19_T18  -1
    P_G19_T17  RAMPDN_G19_T18  1
    MARK7200  'MARKER'                 'INTORG'
    U_G0_T18  TOTAL_COST  141
    U_G0_T18  RESERVE_T18  235
    U_G0_T18  PMAX_G0_T18  -235
    U_G0_T18  PMIN_G0_T18  -65
    MARK7210  'MARKER'                 'INTEND'
    MARK7220  'MARKER'                 'INTORG'
    U_G1_T18  TOTAL_COST  182
    U_G1_T18  RESERVE_T18  223
    U_G1_T18  PMAX_G1_T18  -223
    U_G1_T18  PMIN_G1_T18  -26
    MARK7230  'MARKER'                 'INTEND'
    MARK7240  'MARKER'                 'INTORG'
    U_G2_T18  TOTAL_COST  291
    U_G2_T18  RESERVE_T18  214
    U_G2_T18  PMAX_G2_T18  -214
    U_G2_T18  PMIN_G2_T18  -21
    MARK7250  'MARKER'                 'INTEND'
    MARK7260  'MARKER'                 'INTORG'
    U_G3_T18  TOTAL_COST  114
    U_G3_T18  RESERVE_T18  256
    U_G3_T18  PMAX_G3_T18  -256
    U_G3_T18  PMIN_G3_T18  -77
    MARK7270  'MARKER'                 'INTEND'
    MARK7280  'MARKER'                 'INTORG'
    U_G4_T18  TOTAL_COST  130
    U_G4_T18  RESERVE_T18  147
    U_G4_T18  PMAX_G4_T18  -147
    U_G4_T18  PMIN_G4_T18  -65
    MARK7290  'MARKER'                 'INTEND'
    MARK7300  'MARKER'                 'INTORG'
    U_G5_T18  TOTAL_COST  332
    U_G5_T18  RESERVE_T18  215
    U_G5_T18  PMAX_G5_T18  -215
    U_G5_T18  PMIN_G5_T18  -26
    MARK7310  'MARKER'                 'INTEND'
    MARK7320  'MARKER'                 'INTORG'
    U_G6_T18  TOTAL_COST  341
    U_G6_T18  RESERVE_T18  178
    U_G6_T18  PMAX_G6_T18  -178
    U_G6_T18  PMIN_G6_T18  -65
    MARK7330  'MARKER'                 'INTEND'
    MARK7340  'MARKER'                 'INTORG'
    U_G7_T18  TOTAL_COST  189
    U_G7_T18  RESERVE_T18  254
    U_G7_T18  PMAX_G7_T18  -254
    U_G7_T18  PMIN_G7_T18  -76
    MARK7350  'MARKER'                 'INTEND'
    MARK7360  'MARKER'                 'INTORG'
    U_G8_T18  TOTAL_COST  247
    U_G8_T18  RESERVE_T18  203
    U_G8_T18  PMAX_G8_T18  -203
    U_G8_T18  PMIN_G8_T18  -62
    MARK7370  'MARKER'                 'INTEND'
    MARK7380  'MARKER'                 'INTORG'
    U_G9_T18  TOTAL_COST  300
    U_G9_T18  RESERVE_T18  209
    U_G9_T18  PMAX_G9_T18  -209
    U_G9_T18  PMIN_G9_T18  -56
    MARK7390  'MARKER'                 'INTEND'
    MARK7400  'MARKER'                 'INTORG'
    U_G10_T18  TOTAL_COST  346
    U_G10_T18  RESERVE_T18  136
    U_G10_T18  PMAX_G10_T18  -136
    U_G10_T18  PMIN_G10_T18  -46
    MARK7410  'MARKER'                 'INTEND'
    MARK7420  'MARKER'                 'INTORG'
    U_G11_T18  TOTAL_COST  286
    U_G11_T18  RESERVE_T18  299
    U_G11_T18  PMAX_G11_T18  -299
    U_G11_T18  PMIN_G11_T18  -47
    MARK7430  'MARKER'                 'INTEND'
    MARK7440  'MARKER'                 'INTORG'
    U_G12_T18  TOTAL_COST  248
    U_G12_T18  RESERVE_T18  206
    U_G12_T18  PMAX_G12_T18  -206
    U_G12_T18  PMIN_G12_T18  -72
    MARK7450  'MARKER'                 'INTEND'
    MARK7460  'MARKER'                 'INTORG'
    U_G13_T18  TOTAL_COST  209
    U_G13_T18  RESERVE_T18  173
    U_G13_T18  PMAX_G13_T18  -173
    U_G13_T18  PMIN_G13_T18  -39
    MARK7470  'MARKER'                 'INTEND'
    MARK7480  'MARKER'                 'INTORG'
    U_G14_T18  TOTAL_COST  295
    U_G14_T18  RESERVE_T18  243
    U_G14_T18  PMAX_G14_T18  -243
    U_G14_T18  PMIN_G14_T18  -38
    MARK7490  'MARKER'                 'INTEND'
    MARK7500  'MARKER'                 'INTORG'
    U_G15_T18  TOTAL_COST  221
    U_G15_T18  RESERVE_T18  237
    U_G15_T18  PMAX_G15_T18  -237
    U_G15_T18  PMIN_G15_T18  -67
    MARK7510  'MARKER'                 'INTEND'
    MARK7520  'MARKER'                 'INTORG'
    U_G16_T18  TOTAL_COST  278
    U_G16_T18  RESERVE_T18  174
    U_G16_T18  PMAX_G16_T18  -174
    U_G16_T18  PMIN_G16_T18  -41
    MARK7530  'MARKER'                 'INTEND'
    MARK7540  'MARKER'                 'INTORG'
    U_G17_T18  TOTAL_COST  256
    U_G17_T18  RESERVE_T18  232
    U_G17_T18  PMAX_G17_T18  -232
    U_G17_T18  PMIN_G17_T18  -28
    MARK7550  'MARKER'                 'INTEND'
    MARK7560  'MARKER'                 'INTORG'
    U_G18_T18  TOTAL_COST  284
    U_G18_T18  RESERVE_T18  186
    U_G18_T18  PMAX_G18_T18  -186
    U_G18_T18  PMIN_G18_T18  -24
    MARK7570  'MARKER'                 'INTEND'
    MARK7580  'MARKER'                 'INTORG'
    U_G19_T18  TOTAL_COST  259
    U_G19_T18  RESERVE_T18  253
    U_G19_T18  PMAX_G19_T18  -253
    U_G19_T18  PMIN_G19_T18  -76
    MARK7590  'MARKER'                 'INTEND'
    P_G0_T18  TOTAL_COST  50.1
    P_G0_T18  DEMAND_T18  1
    P_G0_T18  PMAX_G0_T18  1
    P_G0_T18  PMIN_G0_T18  1
    P_G0_T18  RAMPUP_G0_T18  1
    P_G0_T18  RAMPDN_G0_T18  -1
    P_G0_T18  RAMPUP_G0_T19  -1
    P_G0_T18  RAMPDN_G0_T19  1
    P_G1_T18  TOTAL_COST  34.9
    P_G1_T18  DEMAND_T18  1
    P_G1_T18  PMAX_G1_T18  1
    P_G1_T18  PMIN_G1_T18  1
    P_G1_T18  RAMPUP_G1_T18  1
    P_G1_T18  RAMPDN_G1_T18  -1
    P_G1_T18  RAMPUP_G1_T19  -1
    P_G1_T18  RAMPDN_G1_T19  1
    P_G2_T18  TOTAL_COST  47.4
    P_G2_T18  DEMAND_T18  1
    P_G2_T18  PMAX_G2_T18  1
    P_G2_T18  PMIN_G2_T18  1
    P_G2_T18  RAMPUP_G2_T18  1
    P_G2_T18  RAMPDN_G2_T18  -1
    P_G2_T18  RAMPUP_G2_T19  -1
    P_G2_T18  RAMPDN_G2_T19  1
    P_G3_T18  TOTAL_COST  38
    P_G3_T18  DEMAND_T18  1
    P_G3_T18  PMAX_G3_T18  1
    P_G3_T18  PMIN_G3_T18  1
    P_G3_T18  RAMPUP_G3_T18  1
    P_G3_T18  RAMPDN_G3_T18  -1
    P_G3_T18  RAMPUP_G3_T19  -1
    P_G3_T18  RAMPDN_G3_T19  1
    P_G4_T18  TOTAL_COST  37
    P_G4_T18  DEMAND_T18  1
    P_G4_T18  PMAX_G4_T18  1
    P_G4_T18  PMIN_G4_T18  1
    P_G4_T18  RAMPUP_G4_T18  1
    P_G4_T18  RAMPDN_G4_T18  -1
    P_G4_T18  RAMPUP_G4_T19  -1
    P_G4_T18  RAMPDN_G4_T19  1
    P_G5_T18  TOTAL_COST  37.8
    P_G5_T18  DEMAND_T18  1
    P_G5_T18  PMAX_G5_T18  1
    P_G5_T18  PMIN_G5_T18  1
    P_G5_T18  RAMPUP_G5_T18  1
    P_G5_T18  RAMPDN_G5_T18  -1
    P_G5_T18  RAMPUP_G5_T19  -1
    P_G5_T18  RAMPDN_G5_T19  1
    P_G6_T18  TOTAL_COST  50
    P_G6_T18  DEMAND_T18  1
    P_G6_T18  PMAX_G6_T18  1
    P_G6_T18  PMIN_G6_T18  1
    P_G6_T18  RAMPUP_G6_T18  1
    P_G6_T18  RAMPDN_G6_T18  -1
    P_G6_T18  RAMPUP_G6_T19  -1
    P_G6_T18  RAMPDN_G6_T19  1
    P_G7_T18  TOTAL_COST  36.6
    P_G7_T18  DEMAND_T18  1
    P_G7_T18  PMAX_G7_T18  1
    P_G7_T18  PMIN_G7_T18  1
    P_G7_T18  RAMPUP_G7_T18  1
    P_G7_T18  RAMPDN_G7_T18  -1
    P_G7_T18  RAMPUP_G7_T19  -1
    P_G7_T18  RAMPDN_G7_T19  1
    P_G8_T18  TOTAL_COST  41.5
    P_G8_T18  DEMAND_T18  1
    P_G8_T18  PMAX_G8_T18  1
    P_G8_T18  PMIN_G8_T18  1
    P_G8_T18  RAMPUP_G8_T18  1
    P_G8_T18  RAMPDN_G8_T18  -1
    P_G8_T18  RAMPUP_G8_T19  -1
    P_G8_T18  RAMPDN_G8_T19  1
    P_G9_T18  TOTAL_COST  35.4
    P_G9_T18  DEMAND_T18  1
    P_G9_T18  PMAX_G9_T18  1
    P_G9_T18  PMIN_G9_T18  1
    P_G9_T18  RAMPUP_G9_T18  1
    P_G9_T18  RAMPDN_G9_T18  -1
    P_G9_T18  RAMPUP_G9_T19  -1
    P_G9_T18  RAMPDN_G9_T19  1
    P_G10_T18  TOTAL_COST  23
    P_G10_T18  DEMAND_T18  1
    P_G10_T18  PMAX_G10_T18  1
    P_G10_T18  PMIN_G10_T18  1
    P_G10_T18  RAMPUP_G10_T18  1
    P_G10_T18  RAMPDN_G10_T18  -1
    P_G10_T18  RAMPUP_G10_T19  -1
    P_G10_T18  RAMPDN_G10_T19  1
    P_G11_T18  TOTAL_COST  43.8
    P_G11_T18  DEMAND_T18  1
    P_G11_T18  PMAX_G11_T18  1
    P_G11_T18  PMIN_G11_T18  1
    P_G11_T18  RAMPUP_G11_T18  1
    P_G11_T18  RAMPDN_G11_T18  -1
    P_G11_T18  RAMPUP_G11_T19  -1
    P_G11_T18  RAMPDN_G11_T19  1
    P_G12_T18  TOTAL_COST  53
    P_G12_T18  DEMAND_T18  1
    P_G12_T18  PMAX_G12_T18  1
    P_G12_T18  PMIN_G12_T18  1
    P_G12_T18  RAMPUP_G12_T18  1
    P_G12_T18  RAMPDN_G12_T18  -1
    P_G12_T18  RAMPUP_G12_T19  -1
    P_G12_T18  RAMPDN_G12_T19  1
    P_G13_T18  TOTAL_COST  40.9
    P_G13_T18  DEMAND_T18  1
    P_G13_T18  PMAX_G13_T18  1
    P_G13_T18  PMIN_G13_T18  1
    P_G13_T18  RAMPUP_G13_T18  1
    P_G13_T18  RAMPDN_G13_T18  -1
    P_G13_T18  RAMPUP_G13_T19  -1
    P_G13_T18  RAMPDN_G13_T19  1
    P_G14_T18  TOTAL_COST  49.2
    P_G14_T18  DEMAND_T18  1
    P_G14_T18  PMAX_G14_T18  1
    P_G14_T18  PMIN_G14_T18  1
    P_G14_T18  RAMPUP_G14_T18  1
    P_G14_T18  RAMPDN_G14_T18  -1
    P_G14_T18  RAMPUP_G14_T19  -1
    P_G14_T18  RAMPDN_G14_T19  1
    P_G15_T18  TOTAL_COST  51.8
    P_G15_T18  DEMAND_T18  1
    P_G15_T18  PMAX_G15_T18  1
    P_G15_T18  PMIN_G15_T18  1
    P_G15_T18  RAMPUP_G15_T18  1
    P_G15_T18  RAMPDN_G15_T18  -1
    P_G15_T18  RAMPUP_G15_T19  -1
    P_G15_T18  RAMPDN_G15_T19  1
    P_G16_T18  TOTAL_COST  49.5
    P_G16_T18  DEMAND_T18  1
    P_G16_T18  PMAX_G16_T18  1
    P_G16_T18  PMIN_G16_T18  1
    P_G16_T18  RAMPUP_G16_T18  1
    P_G16_T18  RAMPDN_G16_T18  -1
    P_G16_T18  RAMPUP_G16_T19  -1
    P_G16_T18  RAMPDN_G16_T19  1
    P_G17_T18  TOTAL_COST  43.7
    P_G17_T18  DEMAND_T18  1
    P_G17_T18  PMAX_G17_T18  1
    P_G17_T18  PMIN_G17_T18  1
    P_G17_T18  RAMPUP_G17_T18  1
    P_G17_T18  RAMPDN_G17_T18  -1
    P_G17_T18  RAMPUP_G17_T19  -1
    P_G17_T18  RAMPDN_G17_T19  1
    P_G18_T18  TOTAL_COST  49.4
    P_G18_T18  DEMAND_T18  1
    P_G18_T18  PMAX_G18_T18  1
    P_G18_T18  PMIN_G18_T18  1
    P_G18_T18  RAMPUP_G18_T18  1
    P_G18_T18  RAMPDN_G18_T18  -1
    P_G18_T18  RAMPUP_G18_T19  -1
    P_G18_T18  RAMPDN_G18_T19  1
    P_G19_T18  TOTAL_COST  29.2
    P_G19_T18  DEMAND_T18  1
    P_G19_T18  PMAX_G19_T18  1
    P_G19_T18  PMIN_G19_T18  1
    P_G19_T18  RAMPUP_G19_T18  1
    P_G19_T18  RAMPDN_G19_T18  -1
    P_G19_T18  RAMPUP_G19_T19  -1
    P_G19_T18  RAMPDN_G19_T19  1
    MARK7600  'MARKER'                 'INTORG'
    U_G0_T19  TOTAL_COST  141
    U_G0_T19  RESERVE_T19  235
    U_G0_T19  PMAX_G0_T19  -235
    U_G0_T19  PMIN_G0_T19  -65
    MARK7610  'MARKER'                 'INTEND'
    MARK7620  'MARKER'                 'INTORG'
    U_G1_T19  TOTAL_COST  182
    U_G1_T19  RESERVE_T19  223
    U_G1_T19  PMAX_G1_T19  -223
    U_G1_T19  PMIN_G1_T19  -26
    MARK7630  'MARKER'                 'INTEND'
    MARK7640  'MARKER'                 'INTORG'
    U_G2_T19  TOTAL_COST  291
    U_G2_T19  RESERVE_T19  214
    U_G2_T19  PMAX_G2_T19  -214
    U_G2_T19  PMIN_G2_T19  -21
    MARK7650  'MARKER'                 'INTEND'
    MARK7660  'MARKER'                 'INTORG'
    U_G3_T19  TOTAL_COST  114
    U_G3_T19  RESERVE_T19  256
    U_G3_T19  PMAX_G3_T19  -256
    U_G3_T19  PMIN_G3_T19  -77
    MARK7670  'MARKER'                 'INTEND'
    MARK7680  'MARKER'                 'INTORG'
    U_G4_T19  TOTAL_COST  130
    U_G4_T19  RESERVE_T19  147
    U_G4_T19  PMAX_G4_T19  -147
    U_G4_T19  PMIN_G4_T19  -65
    MARK7690  'MARKER'                 'INTEND'
    MARK7700  'MARKER'                 'INTORG'
    U_G5_T19  TOTAL_COST  332
    U_G5_T19  RESERVE_T19  215
    U_G5_T19  PMAX_G5_T19  -215
    U_G5_T19  PMIN_G5_T19  -26
    MARK7710  'MARKER'                 'INTEND'
    MARK7720  'MARKER'                 'INTORG'
    U_G6_T19  TOTAL_COST  341
    U_G6_T19  RESERVE_T19  178
    U_G6_T19  PMAX_G6_T19  -178
    U_G6_T19  PMIN_G6_T19  -65
    MARK7730  'MARKER'                 'INTEND'
    MARK7740  'MARKER'                 'INTORG'
    U_G7_T19  TOTAL_COST  189
    U_G7_T19  RESERVE_T19  254
    U_G7_T19  PMAX_G7_T19  -254
    U_G7_T19  PMIN_G7_T19  -76
    MARK7750  'MARKER'                 'INTEND'
    MARK7760  'MARKER'                 'INTORG'
    U_G8_T19  TOTAL_COST  247
    U_G8_T19  RESERVE_T19  203
    U_G8_T19  PMAX_G8_T19  -203
    U_G8_T19  PMIN_G8_T19  -62
    MARK7770  'MARKER'                 'INTEND'
    MARK7780  'MARKER'                 'INTORG'
    U_G9_T19  TOTAL_COST  300
    U_G9_T19  RESERVE_T19  209
    U_G9_T19  PMAX_G9_T19  -209
    U_G9_T19  PMIN_G9_T19  -56
    MARK7790  'MARKER'                 'INTEND'
    MARK7800  'MARKER'                 'INTORG'
    U_G10_T19  TOTAL_COST  346
    U_G10_T19  RESERVE_T19  136
    U_G10_T19  PMAX_G10_T19  -136
    U_G10_T19  PMIN_G10_T19  -46
    MARK7810  'MARKER'                 'INTEND'
    MARK7820  'MARKER'                 'INTORG'
    U_G11_T19  TOTAL_COST  286
    U_G11_T19  RESERVE_T19  299
    U_G11_T19  PMAX_G11_T19  -299
    U_G11_T19  PMIN_G11_T19  -47
    MARK7830  'MARKER'                 'INTEND'
    MARK7840  'MARKER'                 'INTORG'
    U_G12_T19  TOTAL_COST  248
    U_G12_T19  RESERVE_T19  206
    U_G12_T19  PMAX_G12_T19  -206
    U_G12_T19  PMIN_G12_T19  -72
    MARK7850  'MARKER'                 'INTEND'
    MARK7860  'MARKER'                 'INTORG'
    U_G13_T19  TOTAL_COST  209
    U_G13_T19  RESERVE_T19  173
    U_G13_T19  PMAX_G13_T19  -173
    U_G13_T19  PMIN_G13_T19  -39
    MARK7870  'MARKER'                 'INTEND'
    MARK7880  'MARKER'                 'INTORG'
    U_G14_T19  TOTAL_COST  295
    U_G14_T19  RESERVE_T19  243
    U_G14_T19  PMAX_G14_T19  -243
    U_G14_T19  PMIN_G14_T19  -38
    MARK7890  'MARKER'                 'INTEND'
    MARK7900  'MARKER'                 'INTORG'
    U_G15_T19  TOTAL_COST  221
    U_G15_T19  RESERVE_T19  237
    U_G15_T19  PMAX_G15_T19  -237
    U_G15_T19  PMIN_G15_T19  -67
    MARK7910  'MARKER'                 'INTEND'
    MARK7920  'MARKER'                 'INTORG'
    U_G16_T19  TOTAL_COST  278
    U_G16_T19  RESERVE_T19  174
    U_G16_T19  PMAX_G16_T19  -174
    U_G16_T19  PMIN_G16_T19  -41
    MARK7930  'MARKER'                 'INTEND'
    MARK7940  'MARKER'                 'INTORG'
    U_G17_T19  TOTAL_COST  256
    U_G17_T19  RESERVE_T19  232
    U_G17_T19  PMAX_G17_T19  -232
    U_G17_T19  PMIN_G17_T19  -28
    MARK7950  'MARKER'                 'INTEND'
    MARK7960  'MARKER'                 'INTORG'
    U_G18_T19  TOTAL_COST  284
    U_G18_T19  RESERVE_T19  186
    U_G18_T19  PMAX_G18_T19  -186
    U_G18_T19  PMIN_G18_T19  -24
    MARK7970  'MARKER'                 'INTEND'
    MARK7980  'MARKER'                 'INTORG'
    U_G19_T19  TOTAL_COST  259
    U_G19_T19  RESERVE_T19  253
    U_G19_T19  PMAX_G19_T19  -253
    U_G19_T19  PMIN_G19_T19  -76
    MARK7990  'MARKER'                 'INTEND'
    P_G0_T19  TOTAL_COST  50.1
    P_G0_T19  DEMAND_T19  1
    P_G0_T19  PMAX_G0_T19  1
    P_G0_T19  PMIN_G0_T19  1
    P_G0_T19  RAMPUP_G0_T19  1
    P_G0_T19  RAMPDN_G0_T19  -1
    P_G0_T19  RAMPUP_G0_T20  -1
    P_G0_T19  RAMPDN_G0_T20  1
    P_G1_T19  TOTAL_COST  34.9
    P_G1_T19  DEMAND_T19  1
    P_G1_T19  PMAX_G1_T19  1
    P_G1_T19  PMIN_G1_T19  1
    P_G1_T19  RAMPUP_G1_T19  1
    P_G1_T19  RAMPDN_G1_T19  -1
    P_G1_T19  RAMPUP_G1_T20  -1
    P_G1_T19  RAMPDN_G1_T20  1
    P_G2_T19  TOTAL_COST  47.4
    P_G2_T19  DEMAND_T19  1
    P_G2_T19  PMAX_G2_T19  1
    P_G2_T19  PMIN_G2_T19  1
    P_G2_T19  RAMPUP_G2_T19  1
    P_G2_T19  RAMPDN_G2_T19  -1
    P_G2_T19  RAMPUP_G2_T20  -1
    P_G2_T19  RAMPDN_G2_T20  1
    P_G3_T19  TOTAL_COST  38
    P_G3_T19  DEMAND_T19  1
    P_G3_T19  PMAX_G3_T19  1
    P_G3_T19  PMIN_G3_T19  1
    P_G3_T19  RAMPUP_G3_T19  1
    P_G3_T19  RAMPDN_G3_T19  -1
    P_G3_T19  RAMPUP_G3_T20  -1
    P_G3_T19  RAMPDN_G3_T20  1
    P_G4_T19  TOTAL_COST  37
    P_G4_T19  DEMAND_T19  1
    P_G4_T19  PMAX_G4_T19  1
    P_G4_T19  PMIN_G4_T19  1
    P_G4_T19  RAMPUP_G4_T19  1
    P_G4_T19  RAMPDN_G4_T19  -1
    P_G4_T19  RAMPUP_G4_T20  -1
    P_G4_T19  RAMPDN_G4_T20  1
    P_G5_T19  TOTAL_COST  37.8
    P_G5_T19  DEMAND_T19  1
    P_G5_T19  PMAX_G5_T19  1
    P_G5_T19  PMIN_G5_T19  1
    P_G5_T19  RAMPUP_G5_T19  1
    P_G5_T19  RAMPDN_G5_T19  -1
    P_G5_T19  RAMPUP_G5_T20  -1
    P_G5_T19  RAMPDN_G5_T20  1
    P_G6_T19  TOTAL_COST  50
    P_G6_T19  DEMAND_T19  1
    P_G6_T19  PMAX_G6_T19  1
    P_G6_T19  PMIN_G6_T19  1
    P_G6_T19  RAMPUP_G6_T19  1
    P_G6_T19  RAMPDN_G6_T19  -1
    P_G6_T19  RAMPUP_G6_T20  -1
    P_G6_T19  RAMPDN_G6_T20  1
    P_G7_T19  TOTAL_COST  36.6
    P_G7_T19  DEMAND_T19  1
    P_G7_T19  PMAX_G7_T19  1
    P_G7_T19  PMIN_G7_T19  1
    P_G7_T19  RAMPUP_G7_T19  1
    P_G7_T19  RAMPDN_G7_T19  -1
    P_G7_T19  RAMPUP_G7_T20  -1
    P_G7_T19  RAMPDN_G7_T20  1
    P_G8_T19  TOTAL_COST  41.5
    P_G8_T19  DEMAND_T19  1
    P_G8_T19  PMAX_G8_T19  1
    P_G8_T19  PMIN_G8_T19  1
    P_G8_T19  RAMPUP_G8_T19  1
    P_G8_T19  RAMPDN_G8_T19  -1
    P_G8_T19  RAMPUP_G8_T20  -1
    P_G8_T19  RAMPDN_G8_T20  1
    P_G9_T19  TOTAL_COST  35.4
    P_G9_T19  DEMAND_T19  1
    P_G9_T19  PMAX_G9_T19  1
    P_G9_T19  PMIN_G9_T19  1
    P_G9_T19  RAMPUP_G9_T19  1
    P_G9_T19  RAMPDN_G9_T19  -1
    P_G9_T19  RAMPUP_G9_T20  -1
    P_G9_T19  RAMPDN_G9_T20  1
    P_G10_T19  TOTAL_COST  23
    P_G10_T19  DEMAND_T19  1
    P_G10_T19  PMAX_G10_T19  1
    P_G10_T19  PMIN_G10_T19  1
    P_G10_T19  RAMPUP_G10_T19  1
    P_G10_T19  RAMPDN_G10_T19  -1
    P_G10_T19  RAMPUP_G10_T20  -1
    P_G10_T19  RAMPDN_G10_T20  1
    P_G11_T19  TOTAL_COST  43.8
    P_G11_T19  DEMAND_T19  1
    P_G11_T19  PMAX_G11_T19  1
    P_G11_T19  PMIN_G11_T19  1
    P_G11_T19  RAMPUP_G11_T19  1
    P_G11_T19  RAMPDN_G11_T19  -1
    P_G11_T19  RAMPUP_G11_T20  -1
    P_G11_T19  RAMPDN_G11_T20  1
    P_G12_T19  TOTAL_COST  53
    P_G12_T19  DEMAND_T19  1
    P_G12_T19  PMAX_G12_T19  1
    P_G12_T19  PMIN_G12_T19  1
    P_G12_T19  RAMPUP_G12_T19  1
    P_G12_T19  RAMPDN_G12_T19  -1
    P_G12_T19  RAMPUP_G12_T20  -1
    P_G12_T19  RAMPDN_G12_T20  1
    P_G13_T19  TOTAL_COST  40.9
    P_G13_T19  DEMAND_T19  1
    P_G13_T19  PMAX_G13_T19  1
    P_G13_T19  PMIN_G13_T19  1
    P_G13_T19  RAMPUP_G13_T19  1
    P_G13_T19  RAMPDN_G13_T19  -1
    P_G13_T19  RAMPUP_G13_T20  -1
    P_G13_T19  RAMPDN_G13_T20  1
    P_G14_T19  TOTAL_COST  49.2
    P_G14_T19  DEMAND_T19  1
    P_G14_T19  PMAX_G14_T19  1
    P_G14_T19  PMIN_G14_T19  1
    P_G14_T19  RAMPUP_G14_T19  1
    P_G14_T19  RAMPDN_G14_T19  -1
    P_G14_T19  RAMPUP_G14_T20  -1
    P_G14_T19  RAMPDN_G14_T20  1
    P_G15_T19  TOTAL_COST  51.8
    P_G15_T19  DEMAND_T19  1
    P_G15_T19  PMAX_G15_T19  1
    P_G15_T19  PMIN_G15_T19  1
    P_G15_T19  RAMPUP_G15_T19  1
    P_G15_T19  RAMPDN_G15_T19  -1
    P_G15_T19  RAMPUP_G15_T20  -1
    P_G15_T19  RAMPDN_G15_T20  1
    P_G16_T19  TOTAL_COST  49.5
    P_G16_T19  DEMAND_T19  1
    P_G16_T19  PMAX_G16_T19  1
    P_G16_T19  PMIN_G16_T19  1
    P_G16_T19  RAMPUP_G16_T19  1
    P_G16_T19  RAMPDN_G16_T19  -1
    P_G16_T19  RAMPUP_G16_T20  -1
    P_G16_T19  RAMPDN_G16_T20  1
    P_G17_T19  TOTAL_COST  43.7
    P_G17_T19  DEMAND_T19  1
    P_G17_T19  PMAX_G17_T19  1
    P_G17_T19  PMIN_G17_T19  1
    P_G17_T19  RAMPUP_G17_T19  1
    P_G17_T19  RAMPDN_G17_T19  -1
    P_G17_T19  RAMPUP_G17_T20  -1
    P_G17_T19  RAMPDN_G17_T20  1
    P_G18_T19  TOTAL_COST  49.4
    P_G18_T19  DEMAND_T19  1
    P_G18_T19  PMAX_G18_T19  1
    P_G18_T19  PMIN_G18_T19  1
    P_G18_T19  RAMPUP_G18_T19  1
    P_G18_T19  RAMPDN_G18_T19  -1
    P_G18_T19  RAMPUP_G18_T20  -1
    P_G18_T19  RAMPDN_G18_T20  1
    P_G19_T19  TOTAL_COST  29.2
    P_G19_T19  DEMAND_T19  1
    P_G19_T19  PMAX_G19_T19  1
    P_G19_T19  PMIN_G19_T19  1
    P_G19_T19  RAMPUP_G19_T19  1
    P_G19_T19  RAMPDN_G19_T19  -1
    P_G19_T19  RAMPUP_G19_T20  -1
    P_G19_T19  RAMPDN_G19_T20  1
    MARK8000  'MARKER'                 'INTORG'
    U_G0_T20  TOTAL_COST  141
    U_G0_T20  RESERVE_T20  235
    U_G0_T20  PMAX_G0_T20  -235
    U_G0_T20  PMIN_G0_T20  -65
    MARK8010  'MARKER'                 'INTEND'
    MARK8020  'MARKER'                 'INTORG'
    U_G1_T20  TOTAL_COST  182
    U_G1_T20  RESERVE_T20  223
    U_G1_T20  PMAX_G1_T20  -223
    U_G1_T20  PMIN_G1_T20  -26
    MARK8030  'MARKER'                 'INTEND'
    MARK8040  'MARKER'                 'INTORG'
    U_G2_T20  TOTAL_COST  291
    U_G2_T20  RESERVE_T20  214
    U_G2_T20  PMAX_G2_T20  -214
    U_G2_T20  PMIN_G2_T20  -21
    MARK8050  'MARKER'                 'INTEND'
    MARK8060  'MARKER'                 'INTORG'
    U_G3_T20  TOTAL_COST  114
    U_G3_T20  RESERVE_T20  256
    U_G3_T20  PMAX_G3_T20  -256
    U_G3_T20  PMIN_G3_T20  -77
    MARK8070  'MARKER'                 'INTEND'
    MARK8080  'MARKER'                 'INTORG'
    U_G4_T20  TOTAL_COST  130
    U_G4_T20  RESERVE_T20  147
    U_G4_T20  PMAX_G4_T20  -147
    U_G4_T20  PMIN_G4_T20  -65
    MARK8090  'MARKER'                 'INTEND'
    MARK8100  'MARKER'                 'INTORG'
    U_G5_T20  TOTAL_COST  332
    U_G5_T20  RESERVE_T20  215
    U_G5_T20  PMAX_G5_T20  -215
    U_G5_T20  PMIN_G5_T20  -26
    MARK8110  'MARKER'                 'INTEND'
    MARK8120  'MARKER'                 'INTORG'
    U_G6_T20  TOTAL_COST  341
    U_G6_T20  RESERVE_T20  178
    U_G6_T20  PMAX_G6_T20  -178
    U_G6_T20  PMIN_G6_T20  -65
    MARK8130  'MARKER'                 'INTEND'
    MARK8140  'MARKER'                 'INTORG'
    U_G7_T20  TOTAL_COST  189
    U_G7_T20  RESERVE_T20  254
    U_G7_T20  PMAX_G7_T20  -254
    U_G7_T20  PMIN_G7_T20  -76
    MARK8150  'MARKER'                 'INTEND'
    MARK8160  'MARKER'                 'INTORG'
    U_G8_T20  TOTAL_COST  247
    U_G8_T20  RESERVE_T20  203
    U_G8_T20  PMAX_G8_T20  -203
    U_G8_T20  PMIN_G8_T20  -62
    MARK8170  'MARKER'                 'INTEND'
    MARK8180  'MARKER'                 'INTORG'
    U_G9_T20  TOTAL_COST  300
    U_G9_T20  RESERVE_T20  209
    U_G9_T20  PMAX_G9_T20  -209
    U_G9_T20  PMIN_G9_T20  -56
    MARK8190  'MARKER'                 'INTEND'
    MARK8200  'MARKER'                 'INTORG'
    U_G10_T20  TOTAL_COST  346
    U_G10_T20  RESERVE_T20  136
    U_G10_T20  PMAX_G10_T20  -136
    U_G10_T20  PMIN_G10_T20  -46
    MARK8210  'MARKER'                 'INTEND'
    MARK8220  'MARKER'                 'INTORG'
    U_G11_T20  TOTAL_COST  286
    U_G11_T20  RESERVE_T20  299
    U_G11_T20  PMAX_G11_T20  -299
    U_G11_T20  PMIN_G11_T20  -47
    MARK8230  'MARKER'                 'INTEND'
    MARK8240  'MARKER'                 'INTORG'
    U_G12_T20  TOTAL_COST  248
    U_G12_T20  RESERVE_T20  206
    U_G12_T20  PMAX_G12_T20  -206
    U_G12_T20  PMIN_G12_T20  -72
    MARK8250  'MARKER'                 'INTEND'
    MARK8260  'MARKER'                 'INTORG'
    U_G13_T20  TOTAL_COST  209
    U_G13_T20  RESERVE_T20  173
    U_G13_T20  PMAX_G13_T20  -173
    U_G13_T20  PMIN_G13_T20  -39
    MARK8270  'MARKER'                 'INTEND'
    MARK8280  'MARKER'                 'INTORG'
    U_G14_T20  TOTAL_COST  295
    U_G14_T20  RESERVE_T20  243
    U_G14_T20  PMAX_G14_T20  -243
    U_G14_T20  PMIN_G14_T20  -38
    MARK8290  'MARKER'                 'INTEND'
    MARK8300  'MARKER'                 'INTORG'
    U_G15_T20  TOTAL_COST  221
    U_G15_T20  RESERVE_T20  237
    U_G15_T20  PMAX_G15_T20  -237
    U_G15_T20  PMIN_G15_T20  -67
    MARK8310  'MARKER'                 'INTEND'
    MARK8320  'MARKER'                 'INTORG'
    U_G16_T20  TOTAL_COST  278
    U_G16_T20  RESERVE_T20  174
    U_G16_T20  PMAX_G16_T20  -174
    U_G16_T20  PMIN_G16_T20  -41
    MARK8330  'MARKER'                 'INTEND'
    MARK8340  'MARKER'                 'INTORG'
    U_G17_T20  TOTAL_COST  256
    U_G17_T20  RESERVE_T20  232
    U_G17_T20  PMAX_G17_T20  -232
    U_G17_T20  PMIN_G17_T20  -28
    MARK8350  'MARKER'                 'INTEND'
    MARK8360  'MARKER'                 'INTORG'
    U_G18_T20  TOTAL_COST  284
    U_G18_T20  RESERVE_T20  186
    U_G18_T20  PMAX_G18_T20  -186
    U_G18_T20  PMIN_G18_T20  -24
    MARK8370  'MARKER'                 'INTEND'
    MARK8380  'MARKER'                 'INTORG'
    U_G19_T20  TOTAL_COST  259
    U_G19_T20  RESERVE_T20  253
    U_G19_T20  PMAX_G19_T20  -253
    U_G19_T20  PMIN_G19_T20  -76
    MARK8390  'MARKER'                 'INTEND'
    P_G0_T20  TOTAL_COST  50.1
    P_G0_T20  DEMAND_T20  1
    P_G0_T20  PMAX_G0_T20  1
    P_G0_T20  PMIN_G0_T20  1
    P_G0_T20  RAMPUP_G0_T20  1
    P_G0_T20  RAMPDN_G0_T20  -1
    P_G0_T20  RAMPUP_G0_T21  -1
    P_G0_T20  RAMPDN_G0_T21  1
    P_G1_T20  TOTAL_COST  34.9
    P_G1_T20  DEMAND_T20  1
    P_G1_T20  PMAX_G1_T20  1
    P_G1_T20  PMIN_G1_T20  1
    P_G1_T20  RAMPUP_G1_T20  1
    P_G1_T20  RAMPDN_G1_T20  -1
    P_G1_T20  RAMPUP_G1_T21  -1
    P_G1_T20  RAMPDN_G1_T21  1
    P_G2_T20  TOTAL_COST  47.4
    P_G2_T20  DEMAND_T20  1
    P_G2_T20  PMAX_G2_T20  1
    P_G2_T20  PMIN_G2_T20  1
    P_G2_T20  RAMPUP_G2_T20  1
    P_G2_T20  RAMPDN_G2_T20  -1
    P_G2_T20  RAMPUP_G2_T21  -1
    P_G2_T20  RAMPDN_G2_T21  1
    P_G3_T20  TOTAL_COST  38
    P_G3_T20  DEMAND_T20  1
    P_G3_T20  PMAX_G3_T20  1
    P_G3_T20  PMIN_G3_T20  1
    P_G3_T20  RAMPUP_G3_T20  1
    P_G3_T20  RAMPDN_G3_T20  -1
    P_G3_T20  RAMPUP_G3_T21  -1
    P_G3_T20  RAMPDN_G3_T21  1
    P_G4_T20  TOTAL_COST  37
    P_G4_T20  DEMAND_T20  1
    P_G4_T20  PMAX_G4_T20  1
    P_G4_T20  PMIN_G4_T20  1
    P_G4_T20  RAMPUP_G4_T20  1
    P_G4_T20  RAMPDN_G4_T20  -1
    P_G4_T20  RAMPUP_G4_T21  -1
    P_G4_T20  RAMPDN_G4_T21  1
    P_G5_T20  TOTAL_COST  37.8
    P_G5_T20  DEMAND_T20  1
    P_G5_T20  PMAX_G5_T20  1
    P_G5_T20  PMIN_G5_T20  1
    P_G5_T20  RAMPUP_G5_T20  1
    P_G5_T20  RAMPDN_G5_T20  -1
    P_G5_T20  RAMPUP_G5_T21  -1
    P_G5_T20  RAMPDN_G5_T21  1
    P_G6_T20  TOTAL_COST  50
    P_G6_T20  DEMAND_T20  1
    P_G6_T20  PMAX_G6_T20  1
    P_G6_T20  PMIN_G6_T20  1
    P_G6_T20  RAMPUP_G6_T20  1
    P_G6_T20  RAMPDN_G6_T20  -1
    P_G6_T20  RAMPUP_G6_T21  -1
    P_G6_T20  RAMPDN_G6_T21  1
    P_G7_T20  TOTAL_COST  36.6
    P_G7_T20  DEMAND_T20  1
    P_G7_T20  PMAX_G7_T20  1
    P_G7_T20  PMIN_G7_T20  1
    P_G7_T20  RAMPUP_G7_T20  1
    P_G7_T20  RAMPDN_G7_T20  -1
    P_G7_T20  RAMPUP_G7_T21  -1
    P_G7_T20  RAMPDN_G7_T21  1
    P_G8_T20  TOTAL_COST  41.5
    P_G8_T20  DEMAND_T20  1
    P_G8_T20  PMAX_G8_T20  1
    P_G8_T20  PMIN_G8_T20  1
    P_G8_T20  RAMPUP_G8_T20  1
    P_G8_T20  RAMPDN_G8_T20  -1
    P_G8_T20  RAMPUP_G8_T21  -1
    P_G8_T20  RAMPDN_G8_T21  1
    P_G9_T20  TOTAL_COST  35.4
    P_G9_T20  DEMAND_T20  1
    P_G9_T20  PMAX_G9_T20  1
    P_G9_T20  PMIN_G9_T20  1
    P_G9_T20  RAMPUP_G9_T20  1
    P_G9_T20  RAMPDN_G9_T20  -1
    P_G9_T20  RAMPUP_G9_T21  -1
    P_G9_T20  RAMPDN_G9_T21  1
    P_G10_T20  TOTAL_COST  23
    P_G10_T20  DEMAND_T20  1
    P_G10_T20  PMAX_G10_T20  1
    P_G10_T20  PMIN_G10_T20  1
    P_G10_T20  RAMPUP_G10_T20  1
    P_G10_T20  RAMPDN_G10_T20  -1
    P_G10_T20  RAMPUP_G10_T21  -1
    P_G10_T20  RAMPDN_G10_T21  1
    P_G11_T20  TOTAL_COST  43.8
    P_G11_T20  DEMAND_T20  1
    P_G11_T20  PMAX_G11_T20  1
    P_G11_T20  PMIN_G11_T20  1
    P_G11_T20  RAMPUP_G11_T20  1
    P_G11_T20  RAMPDN_G11_T20  -1
    P_G11_T20  RAMPUP_G11_T21  -1
    P_G11_T20  RAMPDN_G11_T21  1
    P_G12_T20  TOTAL_COST  53
    P_G12_T20  DEMAND_T20  1
    P_G12_T20  PMAX_G12_T20  1
    P_G12_T20  PMIN_G12_T20  1
    P_G12_T20  RAMPUP_G12_T20  1
    P_G12_T20  RAMPDN_G12_T20  -1
    P_G12_T20  RAMPUP_G12_T21  -1
    P_G12_T20  RAMPDN_G12_T21  1
    P_G13_T20  TOTAL_COST  40.9
    P_G13_T20  DEMAND_T20  1
    P_G13_T20  PMAX_G13_T20  1
    P_G13_T20  PMIN_G13_T20  1
    P_G13_T20  RAMPUP_G13_T20  1
    P_G13_T20  RAMPDN_G13_T20  -1
    P_G13_T20  RAMPUP_G13_T21  -1
    P_G13_T20  RAMPDN_G13_T21  1
    P_G14_T20  TOTAL_COST  49.2
    P_G14_T20  DEMAND_T20  1
    P_G14_T20  PMAX_G14_T20  1
    P_G14_T20  PMIN_G14_T20  1
    P_G14_T20  RAMPUP_G14_T20  1
    P_G14_T20  RAMPDN_G14_T20  -1
    P_G14_T20  RAMPUP_G14_T21  -1
    P_G14_T20  RAMPDN_G14_T21  1
    P_G15_T20  TOTAL_COST  51.8
    P_G15_T20  DEMAND_T20  1
    P_G15_T20  PMAX_G15_T20  1
    P_G15_T20  PMIN_G15_T20  1
    P_G15_T20  RAMPUP_G15_T20  1
    P_G15_T20  RAMPDN_G15_T20  -1
    P_G15_T20  RAMPUP_G15_T21  -1
    P_G15_T20  RAMPDN_G15_T21  1
    P_G16_T20  TOTAL_COST  49.5
    P_G16_T20  DEMAND_T20  1
    P_G16_T20  PMAX_G16_T20  1
    P_G16_T20  PMIN_G16_T20  1
    P_G16_T20  RAMPUP_G16_T20  1
    P_G16_T20  RAMPDN_G16_T20  -1
    P_G16_T20  RAMPUP_G16_T21  -1
    P_G16_T20  RAMPDN_G16_T21  1
    P_G17_T20  TOTAL_COST  43.7
    P_G17_T20  DEMAND_T20  1
    P_G17_T20  PMAX_G17_T20  1
    P_G17_T20  PMIN_G17_T20  1
    P_G17_T20  RAMPUP_G17_T20  1
    P_G17_T20  RAMPDN_G17_T20  -1
    P_G17_T20  RAMPUP_G17_T21  -1
    P_G17_T20  RAMPDN_G17_T21  1
    P_G18_T20  TOTAL_COST  49.4
    P_G18_T20  DEMAND_T20  1
    P_G18_T20  PMAX_G18_T20  1
    P_G18_T20  PMIN_G18_T20  1
    P_G18_T20  RAMPUP_G18_T20  1
    P_G18_T20  RAMPDN_G18_T20  -1
    P_G18_T20  RAMPUP_G18_T21  -1
    P_G18_T20  RAMPDN_G18_T21  1
    P_G19_T20  TOTAL_COST  29.2
    P_G19_T20  DEMAND_T20  1
    P_G19_T20  PMAX_G19_T20  1
    P_G19_T20  PMIN_G19_T20  1
    P_G19_T20  RAMPUP_G19_T20  1
    P_G19_T20  RAMPDN_G19_T20  -1
    P_G19_T20  RAMPUP_G19_T21  -1
    P_G19_T20  RAMPDN_G19_T21  1
    MARK8400  'MARKER'                 'INTORG'
    U_G0_T21  TOTAL_COST  141
    U_G0_T21  RESERVE_T21  235
    U_G0_T21  PMAX_G0_T21  -235
    U_G0_T21  PMIN_G0_T21  -65
    MARK8410  'MARKER'                 'INTEND'
    MARK8420  'MARKER'                 'INTORG'
    U_G1_T21  TOTAL_COST  182
    U_G1_T21  RESERVE_T21  223
    U_G1_T21  PMAX_G1_T21  -223
    U_G1_T21  PMIN_G1_T21  -26
    MARK8430  'MARKER'                 'INTEND'
    MARK8440  'MARKER'                 'INTORG'
    U_G2_T21  TOTAL_COST  291
    U_G2_T21  RESERVE_T21  214
    U_G2_T21  PMAX_G2_T21  -214
    U_G2_T21  PMIN_G2_T21  -21
    MARK8450  'MARKER'                 'INTEND'
    MARK8460  'MARKER'                 'INTORG'
    U_G3_T21  TOTAL_COST  114
    U_G3_T21  RESERVE_T21  256
    U_G3_T21  PMAX_G3_T21  -256
    U_G3_T21  PMIN_G3_T21  -77
    MARK8470  'MARKER'                 'INTEND'
    MARK8480  'MARKER'                 'INTORG'
    U_G4_T21  TOTAL_COST  130
    U_G4_T21  RESERVE_T21  147
    U_G4_T21  PMAX_G4_T21  -147
    U_G4_T21  PMIN_G4_T21  -65
    MARK8490  'MARKER'                 'INTEND'
    MARK8500  'MARKER'                 'INTORG'
    U_G5_T21  TOTAL_COST  332
    U_G5_T21  RESERVE_T21  215
    U_G5_T21  PMAX_G5_T21  -215
    U_G5_T21  PMIN_G5_T21  -26
    MARK8510  'MARKER'                 'INTEND'
    MARK8520  'MARKER'                 'INTORG'
    U_G6_T21  TOTAL_COST  341
    U_G6_T21  RESERVE_T21  178
    U_G6_T21  PMAX_G6_T21  -178
    U_G6_T21  PMIN_G6_T21  -65
    MARK8530  'MARKER'                 'INTEND'
    MARK8540  'MARKER'                 'INTORG'
    U_G7_T21  TOTAL_COST  189
    U_G7_T21  RESERVE_T21  254
    U_G7_T21  PMAX_G7_T21  -254
    U_G7_T21  PMIN_G7_T21  -76
    MARK8550  'MARKER'                 'INTEND'
    MARK8560  'MARKER'                 'INTORG'
    U_G8_T21  TOTAL_COST  247
    U_G8_T21  RESERVE_T21  203
    U_G8_T21  PMAX_G8_T21  -203
    U_G8_T21  PMIN_G8_T21  -62
    MARK8570  'MARKER'                 'INTEND'
    MARK8580  'MARKER'                 'INTORG'
    U_G9_T21  TOTAL_COST  300
    U_G9_T21  RESERVE_T21  209
    U_G9_T21  PMAX_G9_T21  -209
    U_G9_T21  PMIN_G9_T21  -56
    MARK8590  'MARKER'                 'INTEND'
    MARK8600  'MARKER'                 'INTORG'
    U_G10_T21  TOTAL_COST  346
    U_G10_T21  RESERVE_T21  136
    U_G10_T21  PMAX_G10_T21  -136
    U_G10_T21  PMIN_G10_T21  -46
    MARK8610  'MARKER'                 'INTEND'
    MARK8620  'MARKER'                 'INTORG'
    U_G11_T21  TOTAL_COST  286
    U_G11_T21  RESERVE_T21  299
    U_G11_T21  PMAX_G11_T21  -299
    U_G11_T21  PMIN_G11_T21  -47
    MARK8630  'MARKER'                 'INTEND'
    MARK8640  'MARKER'                 'INTORG'
    U_G12_T21  TOTAL_COST  248
    U_G12_T21  RESERVE_T21  206
    U_G12_T21  PMAX_G12_T21  -206
    U_G12_T21  PMIN_G12_T21  -72
    MARK8650  'MARKER'                 'INTEND'
    MARK8660  'MARKER'                 'INTORG'
    U_G13_T21  TOTAL_COST  209
    U_G13_T21  RESERVE_T21  173
    U_G13_T21  PMAX_G13_T21  -173
    U_G13_T21  PMIN_G13_T21  -39
    MARK8670  'MARKER'                 'INTEND'
    MARK8680  'MARKER'                 'INTORG'
    U_G14_T21  TOTAL_COST  295
    U_G14_T21  RESERVE_T21  243
    U_G14_T21  PMAX_G14_T21  -243
    U_G14_T21  PMIN_G14_T21  -38
    MARK8690  'MARKER'                 'INTEND'
    MARK8700  'MARKER'                 'INTORG'
    U_G15_T21  TOTAL_COST  221
    U_G15_T21  RESERVE_T21  237
    U_G15_T21  PMAX_G15_T21  -237
    U_G15_T21  PMIN_G15_T21  -67
    MARK8710  'MARKER'                 'INTEND'
    MARK8720  'MARKER'                 'INTORG'
    U_G16_T21  TOTAL_COST  278
    U_G16_T21  RESERVE_T21  174
    U_G16_T21  PMAX_G16_T21  -174
    U_G16_T21  PMIN_G16_T21  -41
    MARK8730  'MARKER'                 'INTEND'
    MARK8740  'MARKER'                 'INTORG'
    U_G17_T21  TOTAL_COST  256
    U_G17_T21  RESERVE_T21  232
    U_G17_T21  PMAX_G17_T21  -232
    U_G17_T21  PMIN_G17_T21  -28
    MARK8750  'MARKER'                 'INTEND'
    MARK8760  'MARKER'                 'INTORG'
    U_G18_T21  TOTAL_COST  284
    U_G18_T21  RESERVE_T21  186
    U_G18_T21  PMAX_G18_T21  -186
    U_G18_T21  PMIN_G18_T21  -24
    MARK8770  'MARKER'                 'INTEND'
    MARK8780  'MARKER'                 'INTORG'
    U_G19_T21  TOTAL_COST  259
    U_G19_T21  RESERVE_T21  253
    U_G19_T21  PMAX_G19_T21  -253
    U_G19_T21  PMIN_G19_T21  -76
    MARK8790  'MARKER'                 'INTEND'
    P_G0_T21  TOTAL_COST  50.1
    P_G0_T21  DEMAND_T21  1
    P_G0_T21  PMAX_G0_T21  1
    P_G0_T21  PMIN_G0_T21  1
    P_G0_T21  RAMPUP_G0_T21  1
    P_G0_T21  RAMPDN_G0_T21  -1
    P_G0_T21  RAMPUP_G0_T22  -1
    P_G0_T21  RAMPDN_G0_T22  1
    P_G1_T21  TOTAL_COST  34.9
    P_G1_T21  DEMAND_T21  1
    P_G1_T21  PMAX_G1_T21  1
    P_G1_T21  PMIN_G1_T21  1
    P_G1_T21  RAMPUP_G1_T21  1
    P_G1_T21  RAMPDN_G1_T21  -1
    P_G1_T21  RAMPUP_G1_T22  -1
    P_G1_T21  RAMPDN_G1_T22  1
    P_G2_T21  TOTAL_COST  47.4
    P_G2_T21  DEMAND_T21  1
    P_G2_T21  PMAX_G2_T21  1
    P_G2_T21  PMIN_G2_T21  1
    P_G2_T21  RAMPUP_G2_T21  1
    P_G2_T21  RAMPDN_G2_T21  -1
    P_G2_T21  RAMPUP_G2_T22  -1
    P_G2_T21  RAMPDN_G2_T22  1
    P_G3_T21  TOTAL_COST  38
    P_G3_T21  DEMAND_T21  1
    P_G3_T21  PMAX_G3_T21  1
    P_G3_T21  PMIN_G3_T21  1
    P_G3_T21  RAMPUP_G3_T21  1
    P_G3_T21  RAMPDN_G3_T21  -1
    P_G3_T21  RAMPUP_G3_T22  -1
    P_G3_T21  RAMPDN_G3_T22  1
    P_G4_T21  TOTAL_COST  37
    P_G4_T21  DEMAND_T21  1
    P_G4_T21  PMAX_G4_T21  1
    P_G4_T21  PMIN_G4_T21  1
    P_G4_T21  RAMPUP_G4_T21  1
    P_G4_T21  RAMPDN_G4_T21  -1
    P_G4_T21  RAMPUP_G4_T22  -1
    P_G4_T21  RAMPDN_G4_T22  1
    P_G5_T21  TOTAL_COST  37.8
    P_G5_T21  DEMAND_T21  1
    P_G5_T21  PMAX_G5_T21  1
    P_G5_T21  PMIN_G5_T21  1
    P_G5_T21  RAMPUP_G5_T21  1
    P_G5_T21  RAMPDN_G5_T21  -1
    P_G5_T21  RAMPUP_G5_T22  -1
    P_G5_T21  RAMPDN_G5_T22  1
    P_G6_T21  TOTAL_COST  50
    P_G6_T21  DEMAND_T21  1
    P_G6_T21  PMAX_G6_T21  1
    P_G6_T21  PMIN_G6_T21  1
    P_G6_T21  RAMPUP_G6_T21  1
    P_G6_T21  RAMPDN_G6_T21  -1
    P_G6_T21  RAMPUP_G6_T22  -1
    P_G6_T21  RAMPDN_G6_T22  1
    P_G7_T21  TOTAL_COST  36.6
    P_G7_T21  DEMAND_T21  1
    P_G7_T21  PMAX_G7_T21  1
    P_G7_T21  PMIN_G7_T21  1
    P_G7_T21  RAMPUP_G7_T21  1
    P_G7_T21  RAMPDN_G7_T21  -1
    P_G7_T21  RAMPUP_G7_T22  -1
    P_G7_T21  RAMPDN_G7_T22  1
    P_G8_T21  TOTAL_COST  41.5
    P_G8_T21  DEMAND_T21  1
    P_G8_T21  PMAX_G8_T21  1
    P_G8_T21  PMIN_G8_T21  1
    P_G8_T21  RAMPUP_G8_T21  1
    P_G8_T21  RAMPDN_G8_T21  -1
    P_G8_T21  RAMPUP_G8_T22  -1
    P_G8_T21  RAMPDN_G8_T22  1
    P_G9_T21  TOTAL_COST  35.4
    P_G9_T21  DEMAND_T21  1
    P_G9_T21  PMAX_G9_T21  1
    P_G9_T21  PMIN_G9_T21  1
    P_G9_T21  RAMPUP_G9_T21  1
    P_G9_T21  RAMPDN_G9_T21  -1
    P_G9_T21  RAMPUP_G9_T22  -1
    P_G9_T21  RAMPDN_G9_T22  1
    P_G10_T21  TOTAL_COST  23
    P_G10_T21  DEMAND_T21  1
    P_G10_T21  PMAX_G10_T21  1
    P_G10_T21  PMIN_G10_T21  1
    P_G10_T21  RAMPUP_G10_T21  1
    P_G10_T21  RAMPDN_G10_T21  -1
    P_G10_T21  RAMPUP_G10_T22  -1
    P_G10_T21  RAMPDN_G10_T22  1
    P_G11_T21  TOTAL_COST  43.8
    P_G11_T21  DEMAND_T21  1
    P_G11_T21  PMAX_G11_T21  1
    P_G11_T21  PMIN_G11_T21  1
    P_G11_T21  RAMPUP_G11_T21  1
    P_G11_T21  RAMPDN_G11_T21  -1
    P_G11_T21  RAMPUP_G11_T22  -1
    P_G11_T21  RAMPDN_G11_T22  1
    P_G12_T21  TOTAL_COST  53
    P_G12_T21  DEMAND_T21  1
    P_G12_T21  PMAX_G12_T21  1
    P_G12_T21  PMIN_G12_T21  1
    P_G12_T21  RAMPUP_G12_T21  1
    P_G12_T21  RAMPDN_G12_T21  -1
    P_G12_T21  RAMPUP_G12_T22  -1
    P_G12_T21  RAMPDN_G12_T22  1
    P_G13_T21  TOTAL_COST  40.9
    P_G13_T21  DEMAND_T21  1
    P_G13_T21  PMAX_G13_T21  1
    P_G13_T21  PMIN_G13_T21  1
    P_G13_T21  RAMPUP_G13_T21  1
    P_G13_T21  RAMPDN_G13_T21  -1
    P_G13_T21  RAMPUP_G13_T22  -1
    P_G13_T21  RAMPDN_G13_T22  1
    P_G14_T21  TOTAL_COST  49.2
    P_G14_T21  DEMAND_T21  1
    P_G14_T21  PMAX_G14_T21  1
    P_G14_T21  PMIN_G14_T21  1
    P_G14_T21  RAMPUP_G14_T21  1
    P_G14_T21  RAMPDN_G14_T21  -1
    P_G14_T21  RAMPUP_G14_T22  -1
    P_G14_T21  RAMPDN_G14_T22  1
    P_G15_T21  TOTAL_COST  51.8
    P_G15_T21  DEMAND_T21  1
    P_G15_T21  PMAX_G15_T21  1
    P_G15_T21  PMIN_G15_T21  1
    P_G15_T21  RAMPUP_G15_T21  1
    P_G15_T21  RAMPDN_G15_T21  -1
    P_G15_T21  RAMPUP_G15_T22  -1
    P_G15_T21  RAMPDN_G15_T22  1
    P_G16_T21  TOTAL_COST  49.5
    P_G16_T21  DEMAND_T21  1
    P_G16_T21  PMAX_G16_T21  1
    P_G16_T21  PMIN_G16_T21  1
    P_G16_T21  RAMPUP_G16_T21  1
    P_G16_T21  RAMPDN_G16_T21  -1
    P_G16_T21  RAMPUP_G16_T22  -1
    P_G16_T21  RAMPDN_G16_T22  1
    P_G17_T21  TOTAL_COST  43.7
    P_G17_T21  DEMAND_T21  1
    P_G17_T21  PMAX_G17_T21  1
    P_G17_T21  PMIN_G17_T21  1
    P_G17_T21  RAMPUP_G17_T21  1
    P_G17_T21  RAMPDN_G17_T21  -1
    P_G17_T21  RAMPUP_G17_T22  -1
    P_G17_T21  RAMPDN_G17_T22  1
    P_G18_T21  TOTAL_COST  49.4
    P_G18_T21  DEMAND_T21  1
    P_G18_T21  PMAX_G18_T21  1
    P_G18_T21  PMIN_G18_T21  1
    P_G18_T21  RAMPUP_G18_T21  1
    P_G18_T21  RAMPDN_G18_T21  -1
    P_G18_T21  RAMPUP_G18_T22  -1
    P_G18_T21  RAMPDN_G18_T22  1
    P_G19_T21  TOTAL_COST  29.2
    P_G19_T21  DEMAND_T21  1
    P_G19_T21  PMAX_G19_T21  1
    P_G19_T21  PMIN_G19_T21  1
    P_G19_T21  RAMPUP_G19_T21  1
    P_G19_T21  RAMPDN_G19_T21  -1
    P_G19_T21  RAMPUP_G19_T22  -1
    P_G19_T21  RAMPDN_G19_T22  1
    MARK8800  'MARKER'                 'INTORG'
    U_G0_T22  TOTAL_COST  141
    U_G0_T22  RESERVE_T22  235
    U_G0_T22  PMAX_G0_T22  -235
    U_G0_T22  PMIN_G0_T22  -65
    MARK8810  'MARKER'                 'INTEND'
    MARK8820  'MARKER'                 'INTORG'
    U_G1_T22  TOTAL_COST  182
    U_G1_T22  RESERVE_T22  223
    U_G1_T22  PMAX_G1_T22  -223
    U_G1_T22  PMIN_G1_T22  -26
    MARK8830  'MARKER'                 'INTEND'
    MARK8840  'MARKER'                 'INTORG'
    U_G2_T22  TOTAL_COST  291
    U_G2_T22  RESERVE_T22  214
    U_G2_T22  PMAX_G2_T22  -214
    U_G2_T22  PMIN_G2_T22  -21
    MARK8850  'MARKER'                 'INTEND'
    MARK8860  'MARKER'                 'INTORG'
    U_G3_T22  TOTAL_COST  114
    U_G3_T22  RESERVE_T22  256
    U_G3_T22  PMAX_G3_T22  -256
    U_G3_T22  PMIN_G3_T22  -77
    MARK8870  'MARKER'                 'INTEND'
    MARK8880  'MARKER'                 'INTORG'
    U_G4_T22  TOTAL_COST  130
    U_G4_T22  RESERVE_T22  147
    U_G4_T22  PMAX_G4_T22  -147
    U_G4_T22  PMIN_G4_T22  -65
    MARK8890  'MARKER'                 'INTEND'
    MARK8900  'MARKER'                 'INTORG'
    U_G5_T22  TOTAL_COST  332
    U_G5_T22  RESERVE_T22  215
    U_G5_T22  PMAX_G5_T22  -215
    U_G5_T22  PMIN_G5_T22  -26
    MARK8910  'MARKER'                 'INTEND'
    MARK8920  'MARKER'                 'INTORG'
    U_G6_T22  TOTAL_COST  341
    U_G6_T22  RESERVE_T22  178
    U_G6_T22  PMAX_G6_T22  -178
    U_G6_T22  PMIN_G6_T22  -65
    MARK8930  'MARKER'                 'INTEND'
    MARK8940  'MARKER'                 'INTORG'
    U_G7_T22  TOTAL_COST  189
    U_G7_T22  RESERVE_T22  254
    U_G7_T22  PMAX_G7_T22  -254
    U_G7_T22  PMIN_G7_T22  -76
    MARK8950  'MARKER'                 'INTEND'
    MARK8960  'MARKER'                 'INTORG'
    U_G8_T22  TOTAL_COST  247
    U_G8_T22  RESERVE_T22  203
    U_G8_T22  PMAX_G8_T22  -203
    U_G8_T22  PMIN_G8_T22  -62
    MARK8970  'MARKER'                 'INTEND'
    MARK8980  'MARKER'                 'INTORG'
    U_G9_T22  TOTAL_COST  300
    U_G9_T22  RESERVE_T22  209
    U_G9_T22  PMAX_G9_T22  -209
    U_G9_T22  PMIN_G9_T22  -56
    MARK8990  'MARKER'                 'INTEND'
    MARK9000  'MARKER'                 'INTORG'
    U_G10_T22  TOTAL_COST  346
    U_G10_T22  RESERVE_T22  136
    U_G10_T22  PMAX_G10_T22  -136
    U_G10_T22  PMIN_G10_T22  -46
    MARK9010  'MARKER'                 'INTEND'
    MARK9020  'MARKER'                 'INTORG'
    U_G11_T22  TOTAL_COST  286
    U_G11_T22  RESERVE_T22  299
    U_G11_T22  PMAX_G11_T22  -299
    U_G11_T22  PMIN_G11_T22  -47
    MARK9030  'MARKER'                 'INTEND'
    MARK9040  'MARKER'                 'INTORG'
    U_G12_T22  TOTAL_COST  248
    U_G12_T22  RESERVE_T22  206
    U_G12_T22  PMAX_G12_T22  -206
    U_G12_T22  PMIN_G12_T22  -72
    MARK9050  'MARKER'                 'INTEND'
    MARK9060  'MARKER'                 'INTORG'
    U_G13_T22  TOTAL_COST  209
    U_G13_T22  RESERVE_T22  173
    U_G13_T22  PMAX_G13_T22  -173
    U_G13_T22  PMIN_G13_T22  -39
    MARK9070  'MARKER'                 'INTEND'
    MARK9080  'MARKER'                 'INTORG'
    U_G14_T22  TOTAL_COST  295
    U_G14_T22  RESERVE_T22  243
    U_G14_T22  PMAX_G14_T22  -243
    U_G14_T22  PMIN_G14_T22  -38
    MARK9090  'MARKER'                 'INTEND'
    MARK9100  'MARKER'                 'INTORG'
    U_G15_T22  TOTAL_COST  221
    U_G15_T22  RESERVE_T22  237
    U_G15_T22  PMAX_G15_T22  -237
    U_G15_T22  PMIN_G15_T22  -67
    MARK9110  'MARKER'                 'INTEND'
    MARK9120  'MARKER'                 'INTORG'
    U_G16_T22  TOTAL_COST  278
    U_G16_T22  RESERVE_T22  174
    U_G16_T22  PMAX_G16_T22  -174
    U_G16_T22  PMIN_G16_T22  -41
    MARK9130  'MARKER'                 'INTEND'
    MARK9140  'MARKER'                 'INTORG'
    U_G17_T22  TOTAL_COST  256
    U_G17_T22  RESERVE_T22  232
    U_G17_T22  PMAX_G17_T22  -232
    U_G17_T22  PMIN_G17_T22  -28
    MARK9150  'MARKER'                 'INTEND'
    MARK9160  'MARKER'                 'INTORG'
    U_G18_T22  TOTAL_COST  284
    U_G18_T22  RESERVE_T22  186
    U_G18_T22  PMAX_G18_T22  -186
    U_G18_T22  PMIN_G18_T22  -24
    MARK9170  'MARKER'                 'INTEND'
    MARK9180  'MARKER'                 'INTORG'
    U_G19_T22  TOTAL_COST  259
    U_G19_T22  RESERVE_T22  253
    U_G19_T22  PMAX_G19_T22  -253
    U_G19_T22  PMIN_G19_T22  -76
    MARK9190  'MARKER'                 'INTEND'
    P_G0_T22  TOTAL_COST  50.1
    P_G0_T22  DEMAND_T22  1
    P_G0_T22  PMAX_G0_T22  1
    P_G0_T22  PMIN_G0_T22  1
    P_G0_T22  RAMPUP_G0_T22  1
    P_G0_T22  RAMPDN_G0_T22  -1
    P_G0_T22  RAMPUP_G0_T23  -1
    P_G0_T22  RAMPDN_G0_T23  1
    P_G1_T22  TOTAL_COST  34.9
    P_G1_T22  DEMAND_T22  1
    P_G1_T22  PMAX_G1_T22  1
    P_G1_T22  PMIN_G1_T22  1
    P_G1_T22  RAMPUP_G1_T22  1
    P_G1_T22  RAMPDN_G1_T22  -1
    P_G1_T22  RAMPUP_G1_T23  -1
    P_G1_T22  RAMPDN_G1_T23  1
    P_G2_T22  TOTAL_COST  47.4
    P_G2_T22  DEMAND_T22  1
    P_G2_T22  PMAX_G2_T22  1
    P_G2_T22  PMIN_G2_T22  1
    P_G2_T22  RAMPUP_G2_T22  1
    P_G2_T22  RAMPDN_G2_T22  -1
    P_G2_T22  RAMPUP_G2_T23  -1
    P_G2_T22  RAMPDN_G2_T23  1
    P_G3_T22  TOTAL_COST  38
    P_G3_T22  DEMAND_T22  1
    P_G3_T22  PMAX_G3_T22  1
    P_G3_T22  PMIN_G3_T22  1
    P_G3_T22  RAMPUP_G3_T22  1
    P_G3_T22  RAMPDN_G3_T22  -1
    P_G3_T22  RAMPUP_G3_T23  -1
    P_G3_T22  RAMPDN_G3_T23  1
    P_G4_T22  TOTAL_COST  37
    P_G4_T22  DEMAND_T22  1
    P_G4_T22  PMAX_G4_T22  1
    P_G4_T22  PMIN_G4_T22  1
    P_G4_T22  RAMPUP_G4_T22  1
    P_G4_T22  RAMPDN_G4_T22  -1
    P_G4_T22  RAMPUP_G4_T23  -1
    P_G4_T22  RAMPDN_G4_T23  1
    P_G5_T22  TOTAL_COST  37.8
    P_G5_T22  DEMAND_T22  1
    P_G5_T22  PMAX_G5_T22  1
    P_G5_T22  PMIN_G5_T22  1
    P_G5_T22  RAMPUP_G5_T22  1
    P_G5_T22  RAMPDN_G5_T22  -1
    P_G5_T22  RAMPUP_G5_T23  -1
    P_G5_T22  RAMPDN_G5_T23  1
    P_G6_T22  TOTAL_COST  50
    P_G6_T22  DEMAND_T22  1
    P_G6_T22  PMAX_G6_T22  1
    P_G6_T22  PMIN_G6_T22  1
    P_G6_T22  RAMPUP_G6_T22  1
    P_G6_T22  RAMPDN_G6_T22  -1
    P_G6_T22  RAMPUP_G6_T23  -1
    P_G6_T22  RAMPDN_G6_T23  1
    P_G7_T22  TOTAL_COST  36.6
    P_G7_T22  DEMAND_T22  1
    P_G7_T22  PMAX_G7_T22  1
    P_G7_T22  PMIN_G7_T22  1
    P_G7_T22  RAMPUP_G7_T22  1
    P_G7_T22  RAMPDN_G7_T22  -1
    P_G7_T22  RAMPUP_G7_T23  -1
    P_G7_T22  RAMPDN_G7_T23  1
    P_G8_T22  TOTAL_COST  41.5
    P_G8_T22  DEMAND_T22  1
    P_G8_T22  PMAX_G8_T22  1
    P_G8_T22  PMIN_G8_T22  1
    P_G8_T22  RAMPUP_G8_T22  1
    P_G8_T22  RAMPDN_G8_T22  -1
    P_G8_T22  RAMPUP_G8_T23  -1
    P_G8_T22  RAMPDN_G8_T23  1
    P_G9_T22  TOTAL_COST  35.4
    P_G9_T22  DEMAND_T22  1
    P_G9_T22  PMAX_G9_T22  1
    P_G9_T22  PMIN_G9_T22  1
    P_G9_T22  RAMPUP_G9_T22  1
    P_G9_T22  RAMPDN_G9_T22  -1
    P_G9_T22  RAMPUP_G9_T23  -1
    P_G9_T22  RAMPDN_G9_T23  1
    P_G10_T22  TOTAL_COST  23
    P_G10_T22  DEMAND_T22  1
    P_G10_T22  PMAX_G10_T22  1
    P_G10_T22  PMIN_G10_T22  1
    P_G10_T22  RAMPUP_G10_T22  1
    P_G10_T22  RAMPDN_G10_T22  -1
    P_G10_T22  RAMPUP_G10_T23  -1
    P_G10_T22  RAMPDN_G10_T23  1
    P_G11_T22  TOTAL_COST  43.8
    P_G11_T22  DEMAND_T22  1
    P_G11_T22  PMAX_G11_T22  1
    P_G11_T22  PMIN_G11_T22  1
    P_G11_T22  RAMPUP_G11_T22  1
    P_G11_T22  RAMPDN_G11_T22  -1
    P_G11_T22  RAMPUP_G11_T23  -1
    P_G11_T22  RAMPDN_G11_T23  1
    P_G12_T22  TOTAL_COST  53
    P_G12_T22  DEMAND_T22  1
    P_G12_T22  PMAX_G12_T22  1
    P_G12_T22  PMIN_G12_T22  1
    P_G12_T22  RAMPUP_G12_T22  1
    P_G12_T22  RAMPDN_G12_T22  -1
    P_G12_T22  RAMPUP_G12_T23  -1
    P_G12_T22  RAMPDN_G12_T23  1
    P_G13_T22  TOTAL_COST  40.9
    P_G13_T22  DEMAND_T22  1
    P_G13_T22  PMAX_G13_T22  1
    P_G13_T22  PMIN_G13_T22  1
    P_G13_T22  RAMPUP_G13_T22  1
    P_G13_T22  RAMPDN_G13_T22  -1
    P_G13_T22  RAMPUP_G13_T23  -1
    P_G13_T22  RAMPDN_G13_T23  1
    P_G14_T22  TOTAL_COST  49.2
    P_G14_T22  DEMAND_T22  1
    P_G14_T22  PMAX_G14_T22  1
    P_G14_T22  PMIN_G14_T22  1
    P_G14_T22  RAMPUP_G14_T22  1
    P_G14_T22  RAMPDN_G14_T22  -1
    P_G14_T22  RAMPUP_G14_T23  -1
    P_G14_T22  RAMPDN_G14_T23  1
    P_G15_T22  TOTAL_COST  51.8
    P_G15_T22  DEMAND_T22  1
    P_G15_T22  PMAX_G15_T22  1
    P_G15_T22  PMIN_G15_T22  1
    P_G15_T22  RAMPUP_G15_T22  1
    P_G15_T22  RAMPDN_G15_T22  -1
    P_G15_T22  RAMPUP_G15_T23  -1
    P_G15_T22  RAMPDN_G15_T23  1
    P_G16_T22  TOTAL_COST  49.5
    P_G16_T22  DEMAND_T22  1
    P_G16_T22  PMAX_G16_T22  1
    P_G16_T22  PMIN_G16_T22  1
    P_G16_T22  RAMPUP_G16_T22  1
    P_G16_T22  RAMPDN_G16_T22  -1
    P_G16_T22  RAMPUP_G16_T23  -1
    P_G16_T22  RAMPDN_G16_T23  1
    P_G17_T22  TOTAL_COST  43.7
    P_G17_T22  DEMAND_T22  1
    P_G17_T22  PMAX_G17_T22  1
    P_G17_T22  PMIN_G17_T22  1
    P_G17_T22  RAMPUP_G17_T22  1
    P_G17_T22  RAMPDN_G17_T22  -1
    P_G17_T22  RAMPUP_G17_T23  -1
    P_G17_T22  RAMPDN_G17_T23  1
    P_G18_T22  TOTAL_COST  49.4
    P_G18_T22  DEMAND_T22  1
    P_G18_T22  PMAX_G18_T22  1
    P_G18_T22  PMIN_G18_T22  1
    P_G18_T22  RAMPUP_G18_T22  1
    P_G18_T22  RAMPDN_G18_T22  -1
    P_G18_T22  RAMPUP_G18_T23  -1
    P_G18_T22  RAMPDN_G18_T23  1
    P_G19_T22  TOTAL_COST  29.2
    P_G19_T22  DEMAND_T22  1
    P_G19_T22  PMAX_G19_T22  1
    P_G19_T22  PMIN_G19_T22  1
    P_G19_T22  RAMPUP_G19_T22  1
    P_G19_T22  RAMPDN_G19_T22  -1
    P_G19_T22  RAMPUP_G19_T23  -1
    P_G19_T22  RAMPDN_G19_T23  1
    MARK9200  'MARKER'                 'INTORG'
    U_G0_T23  TOTAL_COST  141
    U_G0_T23  RESERVE_T23  235
    U_G0_T23  PMAX_G0_T23  -235
    U_G0_T23  PMIN_G0_T23  -65
    MARK9210  'MARKER'                 'INTEND'
    MARK9220  'MARKER'                 'INTORG'
    U_G1_T23  TOTAL_COST  182
    U_G1_T23  RESERVE_T23  223
    U_G1_T23  PMAX_G1_T23  -223
    U_G1_T23  PMIN_G1_T23  -26
    MARK9230  'MARKER'                 'INTEND'
    MARK9240  'MARKER'                 'INTORG'
    U_G2_T23  TOTAL_COST  291
    U_G2_T23  RESERVE_T23  214
    U_G2_T23  PMAX_G2_T23  -214
    U_G2_T23  PMIN_G2_T23  -21
    MARK9250  'MARKER'                 'INTEND'
    MARK9260  'MARKER'                 'INTORG'
    U_G3_T23  TOTAL_COST  114
    U_G3_T23  RESERVE_T23  256
    U_G3_T23  PMAX_G3_T23  -256
    U_G3_T23  PMIN_G3_T23  -77
    MARK9270  'MARKER'                 'INTEND'
    MARK9280  'MARKER'                 'INTORG'
    U_G4_T23  TOTAL_COST  130
    U_G4_T23  RESERVE_T23  147
    U_G4_T23  PMAX_G4_T23  -147
    U_G4_T23  PMIN_G4_T23  -65
    MARK9290  'MARKER'                 'INTEND'
    MARK9300  'MARKER'                 'INTORG'
    U_G5_T23  TOTAL_COST  332
    U_G5_T23  RESERVE_T23  215
    U_G5_T23  PMAX_G5_T23  -215
    U_G5_T23  PMIN_G5_T23  -26
    MARK9310  'MARKER'                 'INTEND'
    MARK9320  'MARKER'                 'INTORG'
    U_G6_T23  TOTAL_COST  341
    U_G6_T23  RESERVE_T23  178
    U_G6_T23  PMAX_G6_T23  -178
    U_G6_T23  PMIN_G6_T23  -65
    MARK9330  'MARKER'                 'INTEND'
    MARK9340  'MARKER'                 'INTORG'
    U_G7_T23  TOTAL_COST  189
    U_G7_T23  RESERVE_T23  254
    U_G7_T23  PMAX_G7_T23  -254
    U_G7_T23  PMIN_G7_T23  -76
    MARK9350  'MARKER'                 'INTEND'
    MARK9360  'MARKER'                 'INTORG'
    U_G8_T23  TOTAL_COST  247
    U_G8_T23  RESERVE_T23  203
    U_G8_T23  PMAX_G8_T23  -203
    U_G8_T23  PMIN_G8_T23  -62
    MARK9370  'MARKER'                 'INTEND'
    MARK9380  'MARKER'                 'INTORG'
    U_G9_T23  TOTAL_COST  300
    U_G9_T23  RESERVE_T23  209
    U_G9_T23  PMAX_G9_T23  -209
    U_G9_T23  PMIN_G9_T23  -56
    MARK9390  'MARKER'                 'INTEND'
    MARK9400  'MARKER'                 'INTORG'
    U_G10_T23  TOTAL_COST  346
    U_G10_T23  RESERVE_T23  136
    U_G10_T23  PMAX_G10_T23  -136
    U_G10_T23  PMIN_G10_T23  -46
    MARK9410  'MARKER'                 'INTEND'
    MARK9420  'MARKER'                 'INTORG'
    U_G11_T23  TOTAL_COST  286
    U_G11_T23  RESERVE_T23  299
    U_G11_T23  PMAX_G11_T23  -299
    U_G11_T23  PMIN_G11_T23  -47
    MARK9430  'MARKER'                 'INTEND'
    MARK9440  'MARKER'                 'INTORG'
    U_G12_T23  TOTAL_COST  248
    U_G12_T23  RESERVE_T23  206
    U_G12_T23  PMAX_G12_T23  -206
    U_G12_T23  PMIN_G12_T23  -72
    MARK9450  'MARKER'                 'INTEND'
    MARK9460  'MARKER'                 'INTORG'
    U_G13_T23  TOTAL_COST  209
    U_G13_T23  RESERVE_T23  173
    U_G13_T23  PMAX_G13_T23  -173
    U_G13_T23  PMIN_G13_T23  -39
    MARK9470  'MARKER'                 'INTEND'
    MARK9480  'MARKER'                 'INTORG'
    U_G14_T23  TOTAL_COST  295
    U_G14_T23  RESERVE_T23  243
    U_G14_T23  PMAX_G14_T23  -243
    U_G14_T23  PMIN_G14_T23  -38
    MARK9490  'MARKER'                 'INTEND'
    MARK9500  'MARKER'                 'INTORG'
    U_G15_T23  TOTAL_COST  221
    U_G15_T23  RESERVE_T23  237
    U_G15_T23  PMAX_G15_T23  -237
    U_G15_T23  PMIN_G15_T23  -67
    MARK9510  'MARKER'                 'INTEND'
    MARK9520  'MARKER'                 'INTORG'
    U_G16_T23  TOTAL_COST  278
    U_G16_T23  RESERVE_T23  174
    U_G16_T23  PMAX_G16_T23  -174
    U_G16_T23  PMIN_G16_T23  -41
    MARK9530  'MARKER'                 'INTEND'
    MARK9540  'MARKER'                 'INTORG'
    U_G17_T23  TOTAL_COST  256
    U_G17_T23  RESERVE_T23  232
    U_G17_T23  PMAX_G17_T23  -232
    U_G17_T23  PMIN_G17_T23  -28
    MARK9550  'MARKER'                 'INTEND'
    MARK9560  'MARKER'                 'INTORG'
    U_G18_T23  TOTAL_COST  284
    U_G18_T23  RESERVE_T23  186
    U_G18_T23  PMAX_G18_T23  -186
    U_G18_T23  PMIN_G18_T23  -24
    MARK9570  'MARKER'                 'INTEND'
    MARK9580  'MARKER'                 'INTORG'
    U_G19_T23  TOTAL_COST  259
    U_G19_T23  RESERVE_T23  253
    U_G19_T23  PMAX_G19_T23  -253
    U_G19_T23  PMIN_G19_T23  -76
    MARK9590  'MARKER'                 'INTEND'
    P_G0_T23  TOTAL_COST  50.1
    P_G0_T23  DEMAND_T23  1
    P_G0_T23  PMAX_G0_T23  1
    P_G0_T23  PMIN_G0_T23  1
    P_G0_T23  RAMPUP_G0_T23  1
    P_G0_T23  RAMPDN_G0_T23  -1
    P_G0_T23  RAMPUP_G0_T24  -1
    P_G0_T23  RAMPDN_G0_T24  1
    P_G1_T23  TOTAL_COST  34.9
    P_G1_T23  DEMAND_T23  1
    P_G1_T23  PMAX_G1_T23  1
    P_G1_T23  PMIN_G1_T23  1
    P_G1_T23  RAMPUP_G1_T23  1
    P_G1_T23  RAMPDN_G1_T23  -1
    P_G1_T23  RAMPUP_G1_T24  -1
    P_G1_T23  RAMPDN_G1_T24  1
    P_G2_T23  TOTAL_COST  47.4
    P_G2_T23  DEMAND_T23  1
    P_G2_T23  PMAX_G2_T23  1
    P_G2_T23  PMIN_G2_T23  1
    P_G2_T23  RAMPUP_G2_T23  1
    P_G2_T23  RAMPDN_G2_T23  -1
    P_G2_T23  RAMPUP_G2_T24  -1
    P_G2_T23  RAMPDN_G2_T24  1
    P_G3_T23  TOTAL_COST  38
    P_G3_T23  DEMAND_T23  1
    P_G3_T23  PMAX_G3_T23  1
    P_G3_T23  PMIN_G3_T23  1
    P_G3_T23  RAMPUP_G3_T23  1
    P_G3_T23  RAMPDN_G3_T23  -1
    P_G3_T23  RAMPUP_G3_T24  -1
    P_G3_T23  RAMPDN_G3_T24  1
    P_G4_T23  TOTAL_COST  37
    P_G4_T23  DEMAND_T23  1
    P_G4_T23  PMAX_G4_T23  1
    P_G4_T23  PMIN_G4_T23  1
    P_G4_T23  RAMPUP_G4_T23  1
    P_G4_T23  RAMPDN_G4_T23  -1
    P_G4_T23  RAMPUP_G4_T24  -1
    P_G4_T23  RAMPDN_G4_T24  1
    P_G5_T23  TOTAL_COST  37.8
    P_G5_T23  DEMAND_T23  1
    P_G5_T23  PMAX_G5_T23  1
    P_G5_T23  PMIN_G5_T23  1
    P_G5_T23  RAMPUP_G5_T23  1
    P_G5_T23  RAMPDN_G5_T23  -1
    P_G5_T23  RAMPUP_G5_T24  -1
    P_G5_T23  RAMPDN_G5_T24  1
    P_G6_T23  TOTAL_COST  50
    P_G6_T23  DEMAND_T23  1
    P_G6_T23  PMAX_G6_T23  1
    P_G6_T23  PMIN_G6_T23  1
    P_G6_T23  RAMPUP_G6_T23  1
    P_G6_T23  RAMPDN_G6_T23  -1
    P_G6_T23  RAMPUP_G6_T24  -1
    P_G6_T23  RAMPDN_G6_T24  1
    P_G7_T23  TOTAL_COST  36.6
    P_G7_T23  DEMAND_T23  1
    P_G7_T23  PMAX_G7_T23  1
    P_G7_T23  PMIN_G7_T23  1
    P_G7_T23  RAMPUP_G7_T23  1
    P_G7_T23  RAMPDN_G7_T23  -1
    P_G7_T23  RAMPUP_G7_T24  -1
    P_G7_T23  RAMPDN_G7_T24  1
    P_G8_T23  TOTAL_COST  41.5
    P_G8_T23  DEMAND_T23  1
    P_G8_T23  PMAX_G8_T23  1
    P_G8_T23  PMIN_G8_T23  1
    P_G8_T23  RAMPUP_G8_T23  1
    P_G8_T23  RAMPDN_G8_T23  -1
    P_G8_T23  RAMPUP_G8_T24  -1
    P_G8_T23  RAMPDN_G8_T24  1
    P_G9_T23  TOTAL_COST  35.4
    P_G9_T23  DEMAND_T23  1
    P_G9_T23  PMAX_G9_T23  1
    P_G9_T23  PMIN_G9_T23  1
    P_G9_T23  RAMPUP_G9_T23  1
    P_G9_T23  RAMPDN_G9_T23  -1
    P_G9_T23  RAMPUP_G9_T24  -1
    P_G9_T23  RAMPDN_G9_T24  1
    P_G10_T23  TOTAL_COST  23
    P_G10_T23  DEMAND_T23  1
    P_G10_T23  PMAX_G10_T23  1
    P_G10_T23  PMIN_G10_T23  1
    P_G10_T23  RAMPUP_G10_T23  1
    P_G10_T23  RAMPDN_G10_T23  -1
    P_G10_T23  RAMPUP_G10_T24  -1
    P_G10_T23  RAMPDN_G10_T24  1
    P_G11_T23  TOTAL_COST  43.8
    P_G11_T23  DEMAND_T23  1
    P_G11_T23  PMAX_G11_T23  1
    P_G11_T23  PMIN_G11_T23  1
    P_G11_T23  RAMPUP_G11_T23  1
    P_G11_T23  RAMPDN_G11_T23  -1
    P_G11_T23  RAMPUP_G11_T24  -1
    P_G11_T23  RAMPDN_G11_T24  1
    P_G12_T23  TOTAL_COST  53
    P_G12_T23  DEMAND_T23  1
    P_G12_T23  PMAX_G12_T23  1
    P_G12_T23  PMIN_G12_T23  1
    P_G12_T23  RAMPUP_G12_T23  1
    P_G12_T23  RAMPDN_G12_T23  -1
    P_G12_T23  RAMPUP_G12_T24  -1
    P_G12_T23  RAMPDN_G12_T24  1
    P_G13_T23  TOTAL_COST  40.9
    P_G13_T23  DEMAND_T23  1
    P_G13_T23  PMAX_G13_T23  1
    P_G13_T23  PMIN_G13_T23  1
    P_G13_T23  RAMPUP_G13_T23  1
    P_G13_T23  RAMPDN_G13_T23  -1
    P_G13_T23  RAMPUP_G13_T24  -1
    P_G13_T23  RAMPDN_G13_T24  1
    P_G14_T23  TOTAL_COST  49.2
    P_G14_T23  DEMAND_T23  1
    P_G14_T23  PMAX_G14_T23  1
    P_G14_T23  PMIN_G14_T23  1
    P_G14_T23  RAMPUP_G14_T23  1
    P_G14_T23  RAMPDN_G14_T23  -1
    P_G14_T23  RAMPUP_G14_T24  -1
    P_G14_T23  RAMPDN_G14_T24  1
    P_G15_T23  TOTAL_COST  51.8
    P_G15_T23  DEMAND_T23  1
    P_G15_T23  PMAX_G15_T23  1
    P_G15_T23  PMIN_G15_T23  1
    P_G15_T23  RAMPUP_G15_T23  1
    P_G15_T23  RAMPDN_G15_T23  -1
    P_G15_T23  RAMPUP_G15_T24  -1
    P_G15_T23  RAMPDN_G15_T24  1
    P_G16_T23  TOTAL_COST  49.5
    P_G16_T23  DEMAND_T23  1
    P_G16_T23  PMAX_G16_T23  1
    P_G16_T23  PMIN_G16_T23  1
    P_G16_T23  RAMPUP_G16_T23  1
    P_G16_T23  RAMPDN_G16_T23  -1
    P_G16_T23  RAMPUP_G16_T24  -1
    P_G16_T23  RAMPDN_G16_T24  1
    P_G17_T23  TOTAL_COST  43.7
    P_G17_T23  DEMAND_T23  1
    P_G17_T23  PMAX_G17_T23  1
    P_G17_T23  PMIN_G17_T23  1
    P_G17_T23  RAMPUP_G17_T23  1
    P_G17_T23  RAMPDN_G17_T23  -1
    P_G17_T23  RAMPUP_G17_T24  -1
    P_G17_T23  RAMPDN_G17_T24  1
    P_G18_T23  TOTAL_COST  49.4
    P_G18_T23  DEMAND_T23  1
    P_G18_T23  PMAX_G18_T23  1
    P_G18_T23  PMIN_G18_T23  1
    P_G18_T23  RAMPUP_G18_T23  1
    P_G18_T23  RAMPDN_G18_T23  -1
    P_G18_T23  RAMPUP_G18_T24  -1
    P_G18_T23  RAMPDN_G18_T24  1
    P_G19_T23  TOTAL_COST  29.2
    P_G19_T23  DEMAND_T23  1
    P_G19_T23  PMAX_G19_T23  1
    P_G19_T23  PMIN_G19_T23  1
    P_G19_T23  RAMPUP_G19_T23  1
    P_G19_T23  RAMPDN_G19_T23  -1
    P_G19_T23  RAMPUP_G19_T24  -1
    P_G19_T23  RAMPDN_G19_T24  1
    MARK9600  'MARKER'                 'INTORG'
    U_G0_T24  TOTAL_COST  141
    U_G0_T24  RESERVE_T24  235
    U_G0_T24  PMAX_G0_T24  -235
    U_G0_T24  PMIN_G0_T24  -65
    MARK9610  'MARKER'                 'INTEND'
    MARK9620  'MARKER'                 'INTORG'
    U_G1_T24  TOTAL_COST  182
    U_G1_T24  RESERVE_T24  223
    U_G1_T24  PMAX_G1_T24  -223
    U_G1_T24  PMIN_G1_T24  -26
    MARK9630  'MARKER'                 'INTEND'
    MARK9640  'MARKER'                 'INTORG'
    U_G2_T24  TOTAL_COST  291
    U_G2_T24  RESERVE_T24  214
    U_G2_T24  PMAX_G2_T24  -214
    U_G2_T24  PMIN_G2_T24  -21
    MARK9650  'MARKER'                 'INTEND'
    MARK9660  'MARKER'                 'INTORG'
    U_G3_T24  TOTAL_COST  114
    U_G3_T24  RESERVE_T24  256
    U_G3_T24  PMAX_G3_T24  -256
    U_G3_T24  PMIN_G3_T24  -77
    MARK9670  'MARKER'                 'INTEND'
    MARK9680  'MARKER'                 'INTORG'
    U_G4_T24  TOTAL_COST  130
    U_G4_T24  RESERVE_T24  147
    U_G4_T24  PMAX_G4_T24  -147
    U_G4_T24  PMIN_G4_T24  -65
    MARK9690  'MARKER'                 'INTEND'
    MARK9700  'MARKER'                 'INTORG'
    U_G5_T24  TOTAL_COST  332
    U_G5_T24  RESERVE_T24  215
    U_G5_T24  PMAX_G5_T24  -215
    U_G5_T24  PMIN_G5_T24  -26
    MARK9710  'MARKER'                 'INTEND'
    MARK9720  'MARKER'                 'INTORG'
    U_G6_T24  TOTAL_COST  341
    U_G6_T24  RESERVE_T24  178
    U_G6_T24  PMAX_G6_T24  -178
    U_G6_T24  PMIN_G6_T24  -65
    MARK9730  'MARKER'                 'INTEND'
    MARK9740  'MARKER'                 'INTORG'
    U_G7_T24  TOTAL_COST  189
    U_G7_T24  RESERVE_T24  254
    U_G7_T24  PMAX_G7_T24  -254
    U_G7_T24  PMIN_G7_T24  -76
    MARK9750  'MARKER'                 'INTEND'
    MARK9760  'MARKER'                 'INTORG'
    U_G8_T24  TOTAL_COST  247
    U_G8_T24  RESERVE_T24  203
    U_G8_T24  PMAX_G8_T24  -203
    U_G8_T24  PMIN_G8_T24  -62
    MARK9770  'MARKER'                 'INTEND'
    MARK9780  'MARKER'                 'INTORG'
    U_G9_T24  TOTAL_COST  300
    U_G9_T24  RESERVE_T24  209
    U_G9_T24  PMAX_G9_T24  -209
    U_G9_T24  PMIN_G9_T24  -56
    MARK9790  'MARKER'                 'INTEND'
    MARK9800  'MARKER'                 'INTORG'
    U_G10_T24  TOTAL_COST  346
    U_G10_T24  RESERVE_T24  136
    U_G10_T24  PMAX_G10_T24  -136
    U_G10_T24  PMIN_G10_T24  -46
    MARK9810  'MARKER'                 'INTEND'
    MARK9820  'MARKER'                 'INTORG'
    U_G11_T24  TOTAL_COST  286
    U_G11_T24  RESERVE_T24  299
    U_G11_T24  PMAX_G11_T24  -299
    U_G11_T24  PMIN_G11_T24  -47
    MARK9830  'MARKER'                 'INTEND'
    MARK9840  'MARKER'                 'INTORG'
    U_G12_T24  TOTAL_COST  248
    U_G12_T24  RESERVE_T24  206
    U_G12_T24  PMAX_G12_T24  -206
    U_G12_T24  PMIN_G12_T24  -72
    MARK9850  'MARKER'                 'INTEND'
    MARK9860  'MARKER'                 'INTORG'
    U_G13_T24  TOTAL_COST  209
    U_G13_T24  RESERVE_T24  173
    U_G13_T24  PMAX_G13_T24  -173
    U_G13_T24  PMIN_G13_T24  -39
    MARK9870  'MARKER'                 'INTEND'
    MARK9880  'MARKER'                 'INTORG'
    U_G14_T24  TOTAL_COST  295
    U_G14_T24  RESERVE_T24  243
    U_G14_T24  PMAX_G14_T24  -243
    U_G14_T24  PMIN_G14_T24  -38
    MARK9890  'MARKER'                 'INTEND'
    MARK9900  'MARKER'                 'INTORG'
    U_G15_T24  TOTAL_COST  221
    U_G15_T24  RESERVE_T24  237
    U_G15_T24  PMAX_G15_T24  -237
    U_G15_T24  PMIN_G15_T24  -67
    MARK9910  'MARKER'                 'INTEND'
    MARK9920  'MARKER'                 'INTORG'
    U_G16_T24  TOTAL_COST  278
    U_G16_T24  RESERVE_T24  174
    U_G16_T24  PMAX_G16_T24  -174
    U_G16_T24  PMIN_G16_T24  -41
    MARK9930  'MARKER'                 'INTEND'
    MARK9940  'MARKER'                 'INTORG'
    U_G17_T24  TOTAL_COST  256
    U_G17_T24  RESERVE_T24  232
    U_G17_T24  PMAX_G17_T24  -232
    U_G17_T24  PMIN_G17_T24  -28
    MARK9950  'MARKER'                 'INTEND'
    MARK9960  'MARKER'                 'INTORG'
    U_G18_T24  TOTAL_COST  284
    U_G18_T24  RESERVE_T24  186
    U_G18_T24  PMAX_G18_T24  -186
    U_G18_T24  PMIN_G18_T24  -24
    MARK9970  'MARKER'                 'INTEND'
    MARK9980  'MARKER'                 'INTORG'
    U_G19_T24  TOTAL_COST  259
    U_G19_T24  RESERVE_T24  253
    U_G19_T24  PMAX_G19_T24  -253
    U_G19_T24  PMIN_G19_T24  -76
    MARK9990  'MARKER'                 'INTEND'
    P_G0_T24  TOTAL_COST  50.1
    P_G0_T24  DEMAND_T24  1
    P_G0_T24  PMAX_G0_T24  1
    P_G0_T24  PMIN_G0_T24  1
    P_G0_T24  RAMPUP_G0_T24  1
    P_G0_T24  RAMPDN_G0_T24  -1
    P_G0_T24  RAMPUP_G0_T25  -1
    P_G0_T24  RAMPDN_G0_T25  1
    P_G1_T24  TOTAL_COST  34.9
    P_G1_T24  DEMAND_T24  1
    P_G1_T24  PMAX_G1_T24  1
    P_G1_T24  PMIN_G1_T24  1
    P_G1_T24  RAMPUP_G1_T24  1
    P_G1_T24  RAMPDN_G1_T24  -1
    P_G1_T24  RAMPUP_G1_T25  -1
    P_G1_T24  RAMPDN_G1_T25  1
    P_G2_T24  TOTAL_COST  47.4
    P_G2_T24  DEMAND_T24  1
    P_G2_T24  PMAX_G2_T24  1
    P_G2_T24  PMIN_G2_T24  1
    P_G2_T24  RAMPUP_G2_T24  1
    P_G2_T24  RAMPDN_G2_T24  -1
    P_G2_T24  RAMPUP_G2_T25  -1
    P_G2_T24  RAMPDN_G2_T25  1
    P_G3_T24  TOTAL_COST  38
    P_G3_T24  DEMAND_T24  1
    P_G3_T24  PMAX_G3_T24  1
    P_G3_T24  PMIN_G3_T24  1
    P_G3_T24  RAMPUP_G3_T24  1
    P_G3_T24  RAMPDN_G3_T24  -1
    P_G3_T24  RAMPUP_G3_T25  -1
    P_G3_T24  RAMPDN_G3_T25  1
    P_G4_T24  TOTAL_COST  37
    P_G4_T24  DEMAND_T24  1
    P_G4_T24  PMAX_G4_T24  1
    P_G4_T24  PMIN_G4_T24  1
    P_G4_T24  RAMPUP_G4_T24  1
    P_G4_T24  RAMPDN_G4_T24  -1
    P_G4_T24  RAMPUP_G4_T25  -1
    P_G4_T24  RAMPDN_G4_T25  1
    P_G5_T24  TOTAL_COST  37.8
    P_G5_T24  DEMAND_T24  1
    P_G5_T24  PMAX_G5_T24  1
    P_G5_T24  PMIN_G5_T24  1
    P_G5_T24  RAMPUP_G5_T24  1
    P_G5_T24  RAMPDN_G5_T24  -1
    P_G5_T24  RAMPUP_G5_T25  -1
    P_G5_T24  RAMPDN_G5_T25  1
    P_G6_T24  TOTAL_COST  50
    P_G6_T24  DEMAND_T24  1
    P_G6_T24  PMAX_G6_T24  1
    P_G6_T24  PMIN_G6_T24  1
    P_G6_T24  RAMPUP_G6_T24  1
    P_G6_T24  RAMPDN_G6_T24  -1
    P_G6_T24  RAMPUP_G6_T25  -1
    P_G6_T24  RAMPDN_G6_T25  1
    P_G7_T24  TOTAL_COST  36.6
    P_G7_T24  DEMAND_T24  1
    P_G7_T24  PMAX_G7_T24  1
    P_G7_T24  PMIN_G7_T24  1
    P_G7_T24  RAMPUP_G7_T24  1
    P_G7_T24  RAMPDN_G7_T24  -1
    P_G7_T24  RAMPUP_G7_T25  -1
    P_G7_T24  RAMPDN_G7_T25  1
    P_G8_T24  TOTAL_COST  41.5
    P_G8_T24  DEMAND_T24  1
    P_G8_T24  PMAX_G8_T24  1
    P_G8_T24  PMIN_G8_T24  1
    P_G8_T24  RAMPUP_G8_T24  1
    P_G8_T24  RAMPDN_G8_T24  -1
    P_G8_T24  RAMPUP_G8_T25  -1
    P_G8_T24  RAMPDN_G8_T25  1
    P_G9_T24  TOTAL_COST  35.4
    P_G9_T24  DEMAND_T24  1
    P_G9_T24  PMAX_G9_T24  1
    P_G9_T24  PMIN_G9_T24  1
    P_G9_T24  RAMPUP_G9_T24  1
    P_G9_T24  RAMPDN_G9_T24  -1
    P_G9_T24  RAMPUP_G9_T25  -1
    P_G9_T24  RAMPDN_G9_T25  1
    P_G10_T24  TOTAL_COST  23
    P_G10_T24  DEMAND_T24  1
    P_G10_T24  PMAX_G10_T24  1
    P_G10_T24  PMIN_G10_T24  1
    P_G10_T24  RAMPUP_G10_T24  1
    P_G10_T24  RAMPDN_G10_T24  -1
    P_G10_T24  RAMPUP_G10_T25  -1
    P_G10_T24  RAMPDN_G10_T25  1
    P_G11_T24  TOTAL_COST  43.8
    P_G11_T24  DEMAND_T24  1
    P_G11_T24  PMAX_G11_T24  1
    P_G11_T24  PMIN_G11_T24  1
    P_G11_T24  RAMPUP_G11_T24  1
    P_G11_T24  RAMPDN_G11_T24  -1
    P_G11_T24  RAMPUP_G11_T25  -1
    P_G11_T24  RAMPDN_G11_T25  1
    P_G12_T24  TOTAL_COST  53
    P_G12_T24  DEMAND_T24  1
    P_G12_T24  PMAX_G12_T24  1
    P_G12_T24  PMIN_G12_T24  1
    P_G12_T24  RAMPUP_G12_T24  1
    P_G12_T24  RAMPDN_G12_T24  -1
    P_G12_T24  RAMPUP_G12_T25  -1
    P_G12_T24  RAMPDN_G12_T25  1
    P_G13_T24  TOTAL_COST  40.9
    P_G13_T24  DEMAND_T24  1
    P_G13_T24  PMAX_G13_T24  1
    P_G13_T24  PMIN_G13_T24  1
    P_G13_T24  RAMPUP_G13_T24  1
    P_G13_T24  RAMPDN_G13_T24  -1
    P_G13_T24  RAMPUP_G13_T25  -1
    P_G13_T24  RAMPDN_G13_T25  1
    P_G14_T24  TOTAL_COST  49.2
    P_G14_T24  DEMAND_T24  1
    P_G14_T24  PMAX_G14_T24  1
    P_G14_T24  PMIN_G14_T24  1
    P_G14_T24  RAMPUP_G14_T24  1
    P_G14_T24  RAMPDN_G14_T24  -1
    P_G14_T24  RAMPUP_G14_T25  -1
    P_G14_T24  RAMPDN_G14_T25  1
    P_G15_T24  TOTAL_COST  51.8
    P_G15_T24  DEMAND_T24  1
    P_G15_T24  PMAX_G15_T24  1
    P_G15_T24  PMIN_G15_T24  1
    P_G15_T24  RAMPUP_G15_T24  1
    P_G15_T24  RAMPDN_G15_T24  -1
    P_G15_T24  RAMPUP_G15_T25  -1
    P_G15_T24  RAMPDN_G15_T25  1
    P_G16_T24  TOTAL_COST  49.5
    P_G16_T24  DEMAND_T24  1
    P_G16_T24  PMAX_G16_T24  1
    P_G16_T24  PMIN_G16_T24  1
    P_G16_T24  RAMPUP_G16_T24  1
    P_G16_T24  RAMPDN_G16_T24  -1
    P_G16_T24  RAMPUP_G16_T25  -1
    P_G16_T24  RAMPDN_G16_T25  1
    P_G17_T24  TOTAL_COST  43.7
    P_G17_T24  DEMAND_T24  1
    P_G17_T24  PMAX_G17_T24  1
    P_G17_T24  PMIN_G17_T24  1
    P_G17_T24  RAMPUP_G17_T24  1
    P_G17_T24  RAMPDN_G17_T24  -1
    P_G17_T24  RAMPUP_G17_T25  -1
    P_G17_T24  RAMPDN_G17_T25  1
    P_G18_T24  TOTAL_COST  49.4
    P_G18_T24  DEMAND_T24  1
    P_G18_T24  PMAX_G18_T24  1
    P_G18_T24  PMIN_G18_T24  1
    P_G18_T24  RAMPUP_G18_T24  1
    P_G18_T24  RAMPDN_G18_T24  -1
    P_G18_T24  RAMPUP_G18_T25  -1
    P_G18_T24  RAMPDN_G18_T25  1
    P_G19_T24  TOTAL_COST  29.2
    P_G19_T24  DEMAND_T24  1
    P_G19_T24  PMAX_G19_T24  1
    P_G19_T24  PMIN_G19_T24  1
    P_G19_T24  RAMPUP_G19_T24  1
    P_G19_T24  RAMPDN_G19_T24  -1
    P_G19_T24  RAMPUP_G19_T25  -1
    P_G19_T24  RAMPDN_G19_T25  1
    MARK1000  'MARKER'                 'INTORG'
    U_G0_T25  TOTAL_COST  141
    U_G0_T25  RESERVE_T25  235
    U_G0_T25  PMAX_G0_T25  -235
    U_G0_T25  PMIN_G0_T25  -65
    MARK1001  'MARKER'                 'INTEND'
    MARK1002  'MARKER'                 'INTORG'
    U_G1_T25  TOTAL_COST  182
    U_G1_T25  RESERVE_T25  223
    U_G1_T25  PMAX_G1_T25  -223
    U_G1_T25  PMIN_G1_T25  -26
    MARK1003  'MARKER'                 'INTEND'
    MARK1004  'MARKER'                 'INTORG'
    U_G2_T25  TOTAL_COST  291
    U_G2_T25  RESERVE_T25  214
    U_G2_T25  PMAX_G2_T25  -214
    U_G2_T25  PMIN_G2_T25  -21
    MARK1005  'MARKER'                 'INTEND'
    MARK1006  'MARKER'                 'INTORG'
    U_G3_T25  TOTAL_COST  114
    U_G3_T25  RESERVE_T25  256
    U_G3_T25  PMAX_G3_T25  -256
    U_G3_T25  PMIN_G3_T25  -77
    MARK1007  'MARKER'                 'INTEND'
    MARK1008  'MARKER'                 'INTORG'
    U_G4_T25  TOTAL_COST  130
    U_G4_T25  RESERVE_T25  147
    U_G4_T25  PMAX_G4_T25  -147
    U_G4_T25  PMIN_G4_T25  -65
    MARK1009  'MARKER'                 'INTEND'
    MARK1010  'MARKER'                 'INTORG'
    U_G5_T25  TOTAL_COST  332
    U_G5_T25  RESERVE_T25  215
    U_G5_T25  PMAX_G5_T25  -215
    U_G5_T25  PMIN_G5_T25  -26
    MARK1011  'MARKER'                 'INTEND'
    MARK1012  'MARKER'                 'INTORG'
    U_G6_T25  TOTAL_COST  341
    U_G6_T25  RESERVE_T25  178
    U_G6_T25  PMAX_G6_T25  -178
    U_G6_T25  PMIN_G6_T25  -65
    MARK1013  'MARKER'                 'INTEND'
    MARK1014  'MARKER'                 'INTORG'
    U_G7_T25  TOTAL_COST  189
    U_G7_T25  RESERVE_T25  254
    U_G7_T25  PMAX_G7_T25  -254
    U_G7_T25  PMIN_G7_T25  -76
    MARK1015  'MARKER'                 'INTEND'
    MARK1016  'MARKER'                 'INTORG'
    U_G8_T25  TOTAL_COST  247
    U_G8_T25  RESERVE_T25  203
    U_G8_T25  PMAX_G8_T25  -203
    U_G8_T25  PMIN_G8_T25  -62
    MARK1017  'MARKER'                 'INTEND'
    MARK1018  'MARKER'                 'INTORG'
    U_G9_T25  TOTAL_COST  300
    U_G9_T25  RESERVE_T25  209
    U_G9_T25  PMAX_G9_T25  -209
    U_G9_T25  PMIN_G9_T25  -56
    MARK1019  'MARKER'                 'INTEND'
    MARK1020  'MARKER'                 'INTORG'
    U_G10_T25  TOTAL_COST  346
    U_G10_T25  RESERVE_T25  136
    U_G10_T25  PMAX_G10_T25  -136
    U_G10_T25  PMIN_G10_T25  -46
    MARK1021  'MARKER'                 'INTEND'
    MARK1022  'MARKER'                 'INTORG'
    U_G11_T25  TOTAL_COST  286
    U_G11_T25  RESERVE_T25  299
    U_G11_T25  PMAX_G11_T25  -299
    U_G11_T25  PMIN_G11_T25  -47
    MARK1023  'MARKER'                 'INTEND'
    MARK1024  'MARKER'                 'INTORG'
    U_G12_T25  TOTAL_COST  248
    U_G12_T25  RESERVE_T25  206
    U_G12_T25  PMAX_G12_T25  -206
    U_G12_T25  PMIN_G12_T25  -72
    MARK1025  'MARKER'                 'INTEND'
    MARK1026  'MARKER'                 'INTORG'
    U_G13_T25  TOTAL_COST  209
    U_G13_T25  RESERVE_T25  173
    U_G13_T25  PMAX_G13_T25  -173
    U_G13_T25  PMIN_G13_T25  -39
    MARK1027  'MARKER'                 'INTEND'
    MARK1028  'MARKER'                 'INTORG'
    U_G14_T25  TOTAL_COST  295
    U_G14_T25  RESERVE_T25  243
    U_G14_T25  PMAX_G14_T25  -243
    U_G14_T25  PMIN_G14_T25  -38
    MARK1029  'MARKER'                 'INTEND'
    MARK1030  'MARKER'                 'INTORG'
    U_G15_T25  TOTAL_COST  221
    U_G15_T25  RESERVE_T25  237
    U_G15_T25  PMAX_G15_T25  -237
    U_G15_T25  PMIN_G15_T25  -67
    MARK1031  'MARKER'                 'INTEND'
    MARK1032  'MARKER'                 'INTORG'
    U_G16_T25  TOTAL_COST  278
    U_G16_T25  RESERVE_T25  174
    U_G16_T25  PMAX_G16_T25  -174
    U_G16_T25  PMIN_G16_T25  -41
    MARK1033  'MARKER'                 'INTEND'
    MARK1034  'MARKER'                 'INTORG'
    U_G17_T25  TOTAL_COST  256
    U_G17_T25  RESERVE_T25  232
    U_G17_T25  PMAX_G17_T25  -232
    U_G17_T25  PMIN_G17_T25  -28
    MARK1035  'MARKER'                 'INTEND'
    MARK1036  'MARKER'                 'INTORG'
    U_G18_T25  TOTAL_COST  284
    U_G18_T25  RESERVE_T25  186
    U_G18_T25  PMAX_G18_T25  -186
    U_G18_T25  PMIN_G18_T25  -24
    MARK1037  'MARKER'                 'INTEND'
    MARK1038  'MARKER'                 'INTORG'
    U_G19_T25  TOTAL_COST  259
    U_G19_T25  RESERVE_T25  253
    U_G19_T25  PMAX_G19_T25  -253
    U_G19_T25  PMIN_G19_T25  -76
    MARK1039  'MARKER'                 'INTEND'
    P_G0_T25  TOTAL_COST  50.1
    P_G0_T25  DEMAND_T25  1
    P_G0_T25  PMAX_G0_T25  1
    P_G0_T25  PMIN_G0_T25  1
    P_G0_T25  RAMPUP_G0_T25  1
    P_G0_T25  RAMPDN_G0_T25  -1
    P_G0_T25  RAMPUP_G0_T26  -1
    P_G0_T25  RAMPDN_G0_T26  1
    P_G1_T25  TOTAL_COST  34.9
    P_G1_T25  DEMAND_T25  1
    P_G1_T25  PMAX_G1_T25  1
    P_G1_T25  PMIN_G1_T25  1
    P_G1_T25  RAMPUP_G1_T25  1
    P_G1_T25  RAMPDN_G1_T25  -1
    P_G1_T25  RAMPUP_G1_T26  -1
    P_G1_T25  RAMPDN_G1_T26  1
    P_G2_T25  TOTAL_COST  47.4
    P_G2_T25  DEMAND_T25  1
    P_G2_T25  PMAX_G2_T25  1
    P_G2_T25  PMIN_G2_T25  1
    P_G2_T25  RAMPUP_G2_T25  1
    P_G2_T25  RAMPDN_G2_T25  -1
    P_G2_T25  RAMPUP_G2_T26  -1
    P_G2_T25  RAMPDN_G2_T26  1
    P_G3_T25  TOTAL_COST  38
    P_G3_T25  DEMAND_T25  1
    P_G3_T25  PMAX_G3_T25  1
    P_G3_T25  PMIN_G3_T25  1
    P_G3_T25  RAMPUP_G3_T25  1
    P_G3_T25  RAMPDN_G3_T25  -1
    P_G3_T25  RAMPUP_G3_T26  -1
    P_G3_T25  RAMPDN_G3_T26  1
    P_G4_T25  TOTAL_COST  37
    P_G4_T25  DEMAND_T25  1
    P_G4_T25  PMAX_G4_T25  1
    P_G4_T25  PMIN_G4_T25  1
    P_G4_T25  RAMPUP_G4_T25  1
    P_G4_T25  RAMPDN_G4_T25  -1
    P_G4_T25  RAMPUP_G4_T26  -1
    P_G4_T25  RAMPDN_G4_T26  1
    P_G5_T25  TOTAL_COST  37.8
    P_G5_T25  DEMAND_T25  1
    P_G5_T25  PMAX_G5_T25  1
    P_G5_T25  PMIN_G5_T25  1
    P_G5_T25  RAMPUP_G5_T25  1
    P_G5_T25  RAMPDN_G5_T25  -1
    P_G5_T25  RAMPUP_G5_T26  -1
    P_G5_T25  RAMPDN_G5_T26  1
    P_G6_T25  TOTAL_COST  50
    P_G6_T25  DEMAND_T25  1
    P_G6_T25  PMAX_G6_T25  1
    P_G6_T25  PMIN_G6_T25  1
    P_G6_T25  RAMPUP_G6_T25  1
    P_G6_T25  RAMPDN_G6_T25  -1
    P_G6_T25  RAMPUP_G6_T26  -1
    P_G6_T25  RAMPDN_G6_T26  1
    P_G7_T25  TOTAL_COST  36.6
    P_G7_T25  DEMAND_T25  1
    P_G7_T25  PMAX_G7_T25  1
    P_G7_T25  PMIN_G7_T25  1
    P_G7_T25  RAMPUP_G7_T25  1
    P_G7_T25  RAMPDN_G7_T25  -1
    P_G7_T25  RAMPUP_G7_T26  -1
    P_G7_T25  RAMPDN_G7_T26  1
    P_G8_T25  TOTAL_COST  41.5
    P_G8_T25  DEMAND_T25  1
    P_G8_T25  PMAX_G8_T25  1
    P_G8_T25  PMIN_G8_T25  1
    P_G8_T25  RAMPUP_G8_T25  1
    P_G8_T25  RAMPDN_G8_T25  -1
    P_G8_T25  RAMPUP_G8_T26  -1
    P_G8_T25  RAMPDN_G8_T26  1
    P_G9_T25  TOTAL_COST  35.4
    P_G9_T25  DEMAND_T25  1
    P_G9_T25  PMAX_G9_T25  1
    P_G9_T25  PMIN_G9_T25  1
    P_G9_T25  RAMPUP_G9_T25  1
    P_G9_T25  RAMPDN_G9_T25  -1
    P_G9_T25  RAMPUP_G9_T26  -1
    P_G9_T25  RAMPDN_G9_T26  1
    P_G10_T25  TOTAL_COST  23
    P_G10_T25  DEMAND_T25  1
    P_G10_T25  PMAX_G10_T25  1
    P_G10_T25  PMIN_G10_T25  1
    P_G10_T25  RAMPUP_G10_T25  1
    P_G10_T25  RAMPDN_G10_T25  -1
    P_G10_T25  RAMPUP_G10_T26  -1
    P_G10_T25  RAMPDN_G10_T26  1
    P_G11_T25  TOTAL_COST  43.8
    P_G11_T25  DEMAND_T25  1
    P_G11_T25  PMAX_G11_T25  1
    P_G11_T25  PMIN_G11_T25  1
    P_G11_T25  RAMPUP_G11_T25  1
    P_G11_T25  RAMPDN_G11_T25  -1
    P_G11_T25  RAMPUP_G11_T26  -1
    P_G11_T25  RAMPDN_G11_T26  1
    P_G12_T25  TOTAL_COST  53
    P_G12_T25  DEMAND_T25  1
    P_G12_T25  PMAX_G12_T25  1
    P_G12_T25  PMIN_G12_T25  1
    P_G12_T25  RAMPUP_G12_T25  1
    P_G12_T25  RAMPDN_G12_T25  -1
    P_G12_T25  RAMPUP_G12_T26  -1
    P_G12_T25  RAMPDN_G12_T26  1
    P_G13_T25  TOTAL_COST  40.9
    P_G13_T25  DEMAND_T25  1
    P_G13_T25  PMAX_G13_T25  1
    P_G13_T25  PMIN_G13_T25  1
    P_G13_T25  RAMPUP_G13_T25  1
    P_G13_T25  RAMPDN_G13_T25  -1
    P_G13_T25  RAMPUP_G13_T26  -1
    P_G13_T25  RAMPDN_G13_T26  1
    P_G14_T25  TOTAL_COST  49.2
    P_G14_T25  DEMAND_T25  1
    P_G14_T25  PMAX_G14_T25  1
    P_G14_T25  PMIN_G14_T25  1
    P_G14_T25  RAMPUP_G14_T25  1
    P_G14_T25  RAMPDN_G14_T25  -1
    P_G14_T25  RAMPUP_G14_T26  -1
    P_G14_T25  RAMPDN_G14_T26  1
    P_G15_T25  TOTAL_COST  51.8
    P_G15_T25  DEMAND_T25  1
    P_G15_T25  PMAX_G15_T25  1
    P_G15_T25  PMIN_G15_T25  1
    P_G15_T25  RAMPUP_G15_T25  1
    P_G15_T25  RAMPDN_G15_T25  -1
    P_G15_T25  RAMPUP_G15_T26  -1
    P_G15_T25  RAMPDN_G15_T26  1
    P_G16_T25  TOTAL_COST  49.5
    P_G16_T25  DEMAND_T25  1
    P_G16_T25  PMAX_G16_T25  1
    P_G16_T25  PMIN_G16_T25  1
    P_G16_T25  RAMPUP_G16_T25  1
    P_G16_T25  RAMPDN_G16_T25  -1
    P_G16_T25  RAMPUP_G16_T26  -1
    P_G16_T25  RAMPDN_G16_T26  1
    P_G17_T25  TOTAL_COST  43.7
    P_G17_T25  DEMAND_T25  1
    P_G17_T25  PMAX_G17_T25  1
    P_G17_T25  PMIN_G17_T25  1
    P_G17_T25  RAMPUP_G17_T25  1
    P_G17_T25  RAMPDN_G17_T25  -1
    P_G17_T25  RAMPUP_G17_T26  -1
    P_G17_T25  RAMPDN_G17_T26  1
    P_G18_T25  TOTAL_COST  49.4
    P_G18_T25  DEMAND_T25  1
    P_G18_T25  PMAX_G18_T25  1
    P_G18_T25  PMIN_G18_T25  1
    P_G18_T25  RAMPUP_G18_T25  1
    P_G18_T25  RAMPDN_G18_T25  -1
    P_G18_T25  RAMPUP_G18_T26  -1
    P_G18_T25  RAMPDN_G18_T26  1
    P_G19_T25  TOTAL_COST  29.2
    P_G19_T25  DEMAND_T25  1
    P_G19_T25  PMAX_G19_T25  1
    P_G19_T25  PMIN_G19_T25  1
    P_G19_T25  RAMPUP_G19_T25  1
    P_G19_T25  RAMPDN_G19_T25  -1
    P_G19_T25  RAMPUP_G19_T26  -1
    P_G19_T25  RAMPDN_G19_T26  1
    MARK1040  'MARKER'                 'INTORG'
    U_G0_T26  TOTAL_COST  141
    U_G0_T26  RESERVE_T26  235
    U_G0_T26  PMAX_G0_T26  -235
    U_G0_T26  PMIN_G0_T26  -65
    MARK1041  'MARKER'                 'INTEND'
    MARK1042  'MARKER'                 'INTORG'
    U_G1_T26  TOTAL_COST  182
    U_G1_T26  RESERVE_T26  223
    U_G1_T26  PMAX_G1_T26  -223
    U_G1_T26  PMIN_G1_T26  -26
    MARK1043  'MARKER'                 'INTEND'
    MARK1044  'MARKER'                 'INTORG'
    U_G2_T26  TOTAL_COST  291
    U_G2_T26  RESERVE_T26  214
    U_G2_T26  PMAX_G2_T26  -214
    U_G2_T26  PMIN_G2_T26  -21
    MARK1045  'MARKER'                 'INTEND'
    MARK1046  'MARKER'                 'INTORG'
    U_G3_T26  TOTAL_COST  114
    U_G3_T26  RESERVE_T26  256
    U_G3_T26  PMAX_G3_T26  -256
    U_G3_T26  PMIN_G3_T26  -77
    MARK1047  'MARKER'                 'INTEND'
    MARK1048  'MARKER'                 'INTORG'
    U_G4_T26  TOTAL_COST  130
    U_G4_T26  RESERVE_T26  147
    U_G4_T26  PMAX_G4_T26  -147
    U_G4_T26  PMIN_G4_T26  -65
    MARK1049  'MARKER'                 'INTEND'
    MARK1050  'MARKER'                 'INTORG'
    U_G5_T26  TOTAL_COST  332
    U_G5_T26  RESERVE_T26  215
    U_G5_T26  PMAX_G5_T26  -215
    U_G5_T26  PMIN_G5_T26  -26
    MARK1051  'MARKER'                 'INTEND'
    MARK1052  'MARKER'                 'INTORG'
    U_G6_T26  TOTAL_COST  341
    U_G6_T26  RESERVE_T26  178
    U_G6_T26  PMAX_G6_T26  -178
    U_G6_T26  PMIN_G6_T26  -65
    MARK1053  'MARKER'                 'INTEND'
    MARK1054  'MARKER'                 'INTORG'
    U_G7_T26  TOTAL_COST  189
    U_G7_T26  RESERVE_T26  254
    U_G7_T26  PMAX_G7_T26  -254
    U_G7_T26  PMIN_G7_T26  -76
    MARK1055  'MARKER'                 'INTEND'
    MARK1056  'MARKER'                 'INTORG'
    U_G8_T26  TOTAL_COST  247
    U_G8_T26  RESERVE_T26  203
    U_G8_T26  PMAX_G8_T26  -203
    U_G8_T26  PMIN_G8_T26  -62
    MARK1057  'MARKER'                 'INTEND'
    MARK1058  'MARKER'                 'INTORG'
    U_G9_T26  TOTAL_COST  300
    U_G9_T26  RESERVE_T26  209
    U_G9_T26  PMAX_G9_T26  -209
    U_G9_T26  PMIN_G9_T26  -56
    MARK1059  'MARKER'                 'INTEND'
    MARK1060  'MARKER'                 'INTORG'
    U_G10_T26  TOTAL_COST  346
    U_G10_T26  RESERVE_T26  136
    U_G10_T26  PMAX_G10_T26  -136
    U_G10_T26  PMIN_G10_T26  -46
    MARK1061  'MARKER'                 'INTEND'
    MARK1062  'MARKER'                 'INTORG'
    U_G11_T26  TOTAL_COST  286
    U_G11_T26  RESERVE_T26  299
    U_G11_T26  PMAX_G11_T26  -299
    U_G11_T26  PMIN_G11_T26  -47
    MARK1063  'MARKER'                 'INTEND'
    MARK1064  'MARKER'                 'INTORG'
    U_G12_T26  TOTAL_COST  248
    U_G12_T26  RESERVE_T26  206
    U_G12_T26  PMAX_G12_T26  -206
    U_G12_T26  PMIN_G12_T26  -72
    MARK1065  'MARKER'                 'INTEND'
    MARK1066  'MARKER'                 'INTORG'
    U_G13_T26  TOTAL_COST  209
    U_G13_T26  RESERVE_T26  173
    U_G13_T26  PMAX_G13_T26  -173
    U_G13_T26  PMIN_G13_T26  -39
    MARK1067  'MARKER'                 'INTEND'
    MARK1068  'MARKER'                 'INTORG'
    U_G14_T26  TOTAL_COST  295
    U_G14_T26  RESERVE_T26  243
    U_G14_T26  PMAX_G14_T26  -243
    U_G14_T26  PMIN_G14_T26  -38
    MARK1069  'MARKER'                 'INTEND'
    MARK1070  'MARKER'                 'INTORG'
    U_G15_T26  TOTAL_COST  221
    U_G15_T26  RESERVE_T26  237
    U_G15_T26  PMAX_G15_T26  -237
    U_G15_T26  PMIN_G15_T26  -67
    MARK1071  'MARKER'                 'INTEND'
    MARK1072  'MARKER'                 'INTORG'
    U_G16_T26  TOTAL_COST  278
    U_G16_T26  RESERVE_T26  174
    U_G16_T26  PMAX_G16_T26  -174
    U_G16_T26  PMIN_G16_T26  -41
    MARK1073  'MARKER'                 'INTEND'
    MARK1074  'MARKER'                 'INTORG'
    U_G17_T26  TOTAL_COST  256
    U_G17_T26  RESERVE_T26  232
    U_G17_T26  PMAX_G17_T26  -232
    U_G17_T26  PMIN_G17_T26  -28
    MARK1075  'MARKER'                 'INTEND'
    MARK1076  'MARKER'                 'INTORG'
    U_G18_T26  TOTAL_COST  284
    U_G18_T26  RESERVE_T26  186
    U_G18_T26  PMAX_G18_T26  -186
    U_G18_T26  PMIN_G18_T26  -24
    MARK1077  'MARKER'                 'INTEND'
    MARK1078  'MARKER'                 'INTORG'
    U_G19_T26  TOTAL_COST  259
    U_G19_T26  RESERVE_T26  253
    U_G19_T26  PMAX_G19_T26  -253
    U_G19_T26  PMIN_G19_T26  -76
    MARK1079  'MARKER'                 'INTEND'
    P_G0_T26  TOTAL_COST  50.1
    P_G0_T26  DEMAND_T26  1
    P_G0_T26  PMAX_G0_T26  1
    P_G0_T26  PMIN_G0_T26  1
    P_G0_T26  RAMPUP_G0_T26  1
    P_G0_T26  RAMPDN_G0_T26  -1
    P_G0_T26  RAMPUP_G0_T27  -1
    P_G0_T26  RAMPDN_G0_T27  1
    P_G1_T26  TOTAL_COST  34.9
    P_G1_T26  DEMAND_T26  1
    P_G1_T26  PMAX_G1_T26  1
    P_G1_T26  PMIN_G1_T26  1
    P_G1_T26  RAMPUP_G1_T26  1
    P_G1_T26  RAMPDN_G1_T26  -1
    P_G1_T26  RAMPUP_G1_T27  -1
    P_G1_T26  RAMPDN_G1_T27  1
    P_G2_T26  TOTAL_COST  47.4
    P_G2_T26  DEMAND_T26  1
    P_G2_T26  PMAX_G2_T26  1
    P_G2_T26  PMIN_G2_T26  1
    P_G2_T26  RAMPUP_G2_T26  1
    P_G2_T26  RAMPDN_G2_T26  -1
    P_G2_T26  RAMPUP_G2_T27  -1
    P_G2_T26  RAMPDN_G2_T27  1
    P_G3_T26  TOTAL_COST  38
    P_G3_T26  DEMAND_T26  1
    P_G3_T26  PMAX_G3_T26  1
    P_G3_T26  PMIN_G3_T26  1
    P_G3_T26  RAMPUP_G3_T26  1
    P_G3_T26  RAMPDN_G3_T26  -1
    P_G3_T26  RAMPUP_G3_T27  -1
    P_G3_T26  RAMPDN_G3_T27  1
    P_G4_T26  TOTAL_COST  37
    P_G4_T26  DEMAND_T26  1
    P_G4_T26  PMAX_G4_T26  1
    P_G4_T26  PMIN_G4_T26  1
    P_G4_T26  RAMPUP_G4_T26  1
    P_G4_T26  RAMPDN_G4_T26  -1
    P_G4_T26  RAMPUP_G4_T27  -1
    P_G4_T26  RAMPDN_G4_T27  1
    P_G5_T26  TOTAL_COST  37.8
    P_G5_T26  DEMAND_T26  1
    P_G5_T26  PMAX_G5_T26  1
    P_G5_T26  PMIN_G5_T26  1
    P_G5_T26  RAMPUP_G5_T26  1
    P_G5_T26  RAMPDN_G5_T26  -1
    P_G5_T26  RAMPUP_G5_T27  -1
    P_G5_T26  RAMPDN_G5_T27  1
    P_G6_T26  TOTAL_COST  50
    P_G6_T26  DEMAND_T26  1
    P_G6_T26  PMAX_G6_T26  1
    P_G6_T26  PMIN_G6_T26  1
    P_G6_T26  RAMPUP_G6_T26  1
    P_G6_T26  RAMPDN_G6_T26  -1
    P_G6_T26  RAMPUP_G6_T27  -1
    P_G6_T26  RAMPDN_G6_T27  1
    P_G7_T26  TOTAL_COST  36.6
    P_G7_T26  DEMAND_T26  1
    P_G7_T26  PMAX_G7_T26  1
    P_G7_T26  PMIN_G7_T26  1
    P_G7_T26  RAMPUP_G7_T26  1
    P_G7_T26  RAMPDN_G7_T26  -1
    P_G7_T26  RAMPUP_G7_T27  -1
    P_G7_T26  RAMPDN_G7_T27  1
    P_G8_T26  TOTAL_COST  41.5
    P_G8_T26  DEMAND_T26  1
    P_G8_T26  PMAX_G8_T26  1
    P_G8_T26  PMIN_G8_T26  1
    P_G8_T26  RAMPUP_G8_T26  1
    P_G8_T26  RAMPDN_G8_T26  -1
    P_G8_T26  RAMPUP_G8_T27  -1
    P_G8_T26  RAMPDN_G8_T27  1
    P_G9_T26  TOTAL_COST  35.4
    P_G9_T26  DEMAND_T26  1
    P_G9_T26  PMAX_G9_T26  1
    P_G9_T26  PMIN_G9_T26  1
    P_G9_T26  RAMPUP_G9_T26  1
    P_G9_T26  RAMPDN_G9_T26  -1
    P_G9_T26  RAMPUP_G9_T27  -1
    P_G9_T26  RAMPDN_G9_T27  1
    P_G10_T26  TOTAL_COST  23
    P_G10_T26  DEMAND_T26  1
    P_G10_T26  PMAX_G10_T26  1
    P_G10_T26  PMIN_G10_T26  1
    P_G10_T26  RAMPUP_G10_T26  1
    P_G10_T26  RAMPDN_G10_T26  -1
    P_G10_T26  RAMPUP_G10_T27  -1
    P_G10_T26  RAMPDN_G10_T27  1
    P_G11_T26  TOTAL_COST  43.8
    P_G11_T26  DEMAND_T26  1
    P_G11_T26  PMAX_G11_T26  1
    P_G11_T26  PMIN_G11_T26  1
    P_G11_T26  RAMPUP_G11_T26  1
    P_G11_T26  RAMPDN_G11_T26  -1
    P_G11_T26  RAMPUP_G11_T27  -1
    P_G11_T26  RAMPDN_G11_T27  1
    P_G12_T26  TOTAL_COST  53
    P_G12_T26  DEMAND_T26  1
    P_G12_T26  PMAX_G12_T26  1
    P_G12_T26  PMIN_G12_T26  1
    P_G12_T26  RAMPUP_G12_T26  1
    P_G12_T26  RAMPDN_G12_T26  -1
    P_G12_T26  RAMPUP_G12_T27  -1
    P_G12_T26  RAMPDN_G12_T27  1
    P_G13_T26  TOTAL_COST  40.9
    P_G13_T26  DEMAND_T26  1
    P_G13_T26  PMAX_G13_T26  1
    P_G13_T26  PMIN_G13_T26  1
    P_G13_T26  RAMPUP_G13_T26  1
    P_G13_T26  RAMPDN_G13_T26  -1
    P_G13_T26  RAMPUP_G13_T27  -1
    P_G13_T26  RAMPDN_G13_T27  1
    P_G14_T26  TOTAL_COST  49.2
    P_G14_T26  DEMAND_T26  1
    P_G14_T26  PMAX_G14_T26  1
    P_G14_T26  PMIN_G14_T26  1
    P_G14_T26  RAMPUP_G14_T26  1
    P_G14_T26  RAMPDN_G14_T26  -1
    P_G14_T26  RAMPUP_G14_T27  -1
    P_G14_T26  RAMPDN_G14_T27  1
    P_G15_T26  TOTAL_COST  51.8
    P_G15_T26  DEMAND_T26  1
    P_G15_T26  PMAX_G15_T26  1
    P_G15_T26  PMIN_G15_T26  1
    P_G15_T26  RAMPUP_G15_T26  1
    P_G15_T26  RAMPDN_G15_T26  -1
    P_G15_T26  RAMPUP_G15_T27  -1
    P_G15_T26  RAMPDN_G15_T27  1
    P_G16_T26  TOTAL_COST  49.5
    P_G16_T26  DEMAND_T26  1
    P_G16_T26  PMAX_G16_T26  1
    P_G16_T26  PMIN_G16_T26  1
    P_G16_T26  RAMPUP_G16_T26  1
    P_G16_T26  RAMPDN_G16_T26  -1
    P_G16_T26  RAMPUP_G16_T27  -1
    P_G16_T26  RAMPDN_G16_T27  1
    P_G17_T26  TOTAL_COST  43.7
    P_G17_T26  DEMAND_T26  1
    P_G17_T26  PMAX_G17_T26  1
    P_G17_T26  PMIN_G17_T26  1
    P_G17_T26  RAMPUP_G17_T26  1
    P_G17_T26  RAMPDN_G17_T26  -1
    P_G17_T26  RAMPUP_G17_T27  -1
    P_G17_T26  RAMPDN_G17_T27  1
    P_G18_T26  TOTAL_COST  49.4
    P_G18_T26  DEMAND_T26  1
    P_G18_T26  PMAX_G18_T26  1
    P_G18_T26  PMIN_G18_T26  1
    P_G18_T26  RAMPUP_G18_T26  1
    P_G18_T26  RAMPDN_G18_T26  -1
    P_G18_T26  RAMPUP_G18_T27  -1
    P_G18_T26  RAMPDN_G18_T27  1
    P_G19_T26  TOTAL_COST  29.2
    P_G19_T26  DEMAND_T26  1
    P_G19_T26  PMAX_G19_T26  1
    P_G19_T26  PMIN_G19_T26  1
    P_G19_T26  RAMPUP_G19_T26  1
    P_G19_T26  RAMPDN_G19_T26  -1
    P_G19_T26  RAMPUP_G19_T27  -1
    P_G19_T26  RAMPDN_G19_T27  1
    MARK1080  'MARKER'                 'INTORG'
    U_G0_T27  TOTAL_COST  141
    U_G0_T27  RESERVE_T27  235
    U_G0_T27  PMAX_G0_T27  -235
    U_G0_T27  PMIN_G0_T27  -65
    MARK1081  'MARKER'                 'INTEND'
    MARK1082  'MARKER'                 'INTORG'
    U_G1_T27  TOTAL_COST  182
    U_G1_T27  RESERVE_T27  223
    U_G1_T27  PMAX_G1_T27  -223
    U_G1_T27  PMIN_G1_T27  -26
    MARK1083  'MARKER'                 'INTEND'
    MARK1084  'MARKER'                 'INTORG'
    U_G2_T27  TOTAL_COST  291
    U_G2_T27  RESERVE_T27  214
    U_G2_T27  PMAX_G2_T27  -214
    U_G2_T27  PMIN_G2_T27  -21
    MARK1085  'MARKER'                 'INTEND'
    MARK1086  'MARKER'                 'INTORG'
    U_G3_T27  TOTAL_COST  114
    U_G3_T27  RESERVE_T27  256
    U_G3_T27  PMAX_G3_T27  -256
    U_G3_T27  PMIN_G3_T27  -77
    MARK1087  'MARKER'                 'INTEND'
    MARK1088  'MARKER'                 'INTORG'
    U_G4_T27  TOTAL_COST  130
    U_G4_T27  RESERVE_T27  147
    U_G4_T27  PMAX_G4_T27  -147
    U_G4_T27  PMIN_G4_T27  -65
    MARK1089  'MARKER'                 'INTEND'
    MARK1090  'MARKER'                 'INTORG'
    U_G5_T27  TOTAL_COST  332
    U_G5_T27  RESERVE_T27  215
    U_G5_T27  PMAX_G5_T27  -215
    U_G5_T27  PMIN_G5_T27  -26
    MARK1091  'MARKER'                 'INTEND'
    MARK1092  'MARKER'                 'INTORG'
    U_G6_T27  TOTAL_COST  341
    U_G6_T27  RESERVE_T27  178
    U_G6_T27  PMAX_G6_T27  -178
    U_G6_T27  PMIN_G6_T27  -65
    MARK1093  'MARKER'                 'INTEND'
    MARK1094  'MARKER'                 'INTORG'
    U_G7_T27  TOTAL_COST  189
    U_G7_T27  RESERVE_T27  254
    U_G7_T27  PMAX_G7_T27  -254
    U_G7_T27  PMIN_G7_T27  -76
    MARK1095  'MARKER'                 'INTEND'
    MARK1096  'MARKER'                 'INTORG'
    U_G8_T27  TOTAL_COST  247
    U_G8_T27  RESERVE_T27  203
    U_G8_T27  PMAX_G8_T27  -203
    U_G8_T27  PMIN_G8_T27  -62
    MARK1097  'MARKER'                 'INTEND'
    MARK1098  'MARKER'                 'INTORG'
    U_G9_T27  TOTAL_COST  300
    U_G9_T27  RESERVE_T27  209
    U_G9_T27  PMAX_G9_T27  -209
    U_G9_T27  PMIN_G9_T27  -56
    MARK1099  'MARKER'                 'INTEND'
    MARK1100  'MARKER'                 'INTORG'
    U_G10_T27  TOTAL_COST  346
    U_G10_T27  RESERVE_T27  136
    U_G10_T27  PMAX_G10_T27  -136
    U_G10_T27  PMIN_G10_T27  -46
    MARK1101  'MARKER'                 'INTEND'
    MARK1102  'MARKER'                 'INTORG'
    U_G11_T27  TOTAL_COST  286
    U_G11_T27  RESERVE_T27  299
    U_G11_T27  PMAX_G11_T27  -299
    U_G11_T27  PMIN_G11_T27  -47
    MARK1103  'MARKER'                 'INTEND'
    MARK1104  'MARKER'                 'INTORG'
    U_G12_T27  TOTAL_COST  248
    U_G12_T27  RESERVE_T27  206
    U_G12_T27  PMAX_G12_T27  -206
    U_G12_T27  PMIN_G12_T27  -72
    MARK1105  'MARKER'                 'INTEND'
    MARK1106  'MARKER'                 'INTORG'
    U_G13_T27  TOTAL_COST  209
    U_G13_T27  RESERVE_T27  173
    U_G13_T27  PMAX_G13_T27  -173
    U_G13_T27  PMIN_G13_T27  -39
    MARK1107  'MARKER'                 'INTEND'
    MARK1108  'MARKER'                 'INTORG'
    U_G14_T27  TOTAL_COST  295
    U_G14_T27  RESERVE_T27  243
    U_G14_T27  PMAX_G14_T27  -243
    U_G14_T27  PMIN_G14_T27  -38
    MARK1109  'MARKER'                 'INTEND'
    MARK1110  'MARKER'                 'INTORG'
    U_G15_T27  TOTAL_COST  221
    U_G15_T27  RESERVE_T27  237
    U_G15_T27  PMAX_G15_T27  -237
    U_G15_T27  PMIN_G15_T27  -67
    MARK1111  'MARKER'                 'INTEND'
    MARK1112  'MARKER'                 'INTORG'
    U_G16_T27  TOTAL_COST  278
    U_G16_T27  RESERVE_T27  174
    U_G16_T27  PMAX_G16_T27  -174
    U_G16_T27  PMIN_G16_T27  -41
    MARK1113  'MARKER'                 'INTEND'
    MARK1114  'MARKER'                 'INTORG'
    U_G17_T27  TOTAL_COST  256
    U_G17_T27  RESERVE_T27  232
    U_G17_T27  PMAX_G17_T27  -232
    U_G17_T27  PMIN_G17_T27  -28
    MARK1115  'MARKER'                 'INTEND'
    MARK1116  'MARKER'                 'INTORG'
    U_G18_T27  TOTAL_COST  284
    U_G18_T27  RESERVE_T27  186
    U_G18_T27  PMAX_G18_T27  -186
    U_G18_T27  PMIN_G18_T27  -24
    MARK1117  'MARKER'                 'INTEND'
    MARK1118  'MARKER'                 'INTORG'
    U_G19_T27  TOTAL_COST  259
    U_G19_T27  RESERVE_T27  253
    U_G19_T27  PMAX_G19_T27  -253
    U_G19_T27  PMIN_G19_T27  -76
    MARK1119  'MARKER'                 'INTEND'
    P_G0_T27  TOTAL_COST  50.1
    P_G0_T27  DEMAND_T27  1
    P_G0_T27  PMAX_G0_T27  1
    P_G0_T27  PMIN_G0_T27  1
    P_G0_T27  RAMPUP_G0_T27  1
    P_G0_T27  RAMPDN_G0_T27  -1
    P_G0_T27  RAMPUP_G0_T28  -1
    P_G0_T27  RAMPDN_G0_T28  1
    P_G1_T27  TOTAL_COST  34.9
    P_G1_T27  DEMAND_T27  1
    P_G1_T27  PMAX_G1_T27  1
    P_G1_T27  PMIN_G1_T27  1
    P_G1_T27  RAMPUP_G1_T27  1
    P_G1_T27  RAMPDN_G1_T27  -1
    P_G1_T27  RAMPUP_G1_T28  -1
    P_G1_T27  RAMPDN_G1_T28  1
    P_G2_T27  TOTAL_COST  47.4
    P_G2_T27  DEMAND_T27  1
    P_G2_T27  PMAX_G2_T27  1
    P_G2_T27  PMIN_G2_T27  1
    P_G2_T27  RAMPUP_G2_T27  1
    P_G2_T27  RAMPDN_G2_T27  -1
    P_G2_T27  RAMPUP_G2_T28  -1
    P_G2_T27  RAMPDN_G2_T28  1
    P_G3_T27  TOTAL_COST  38
    P_G3_T27  DEMAND_T27  1
    P_G3_T27  PMAX_G3_T27  1
    P_G3_T27  PMIN_G3_T27  1
    P_G3_T27  RAMPUP_G3_T27  1
    P_G3_T27  RAMPDN_G3_T27  -1
    P_G3_T27  RAMPUP_G3_T28  -1
    P_G3_T27  RAMPDN_G3_T28  1
    P_G4_T27  TOTAL_COST  37
    P_G4_T27  DEMAND_T27  1
    P_G4_T27  PMAX_G4_T27  1
    P_G4_T27  PMIN_G4_T27  1
    P_G4_T27  RAMPUP_G4_T27  1
    P_G4_T27  RAMPDN_G4_T27  -1
    P_G4_T27  RAMPUP_G4_T28  -1
    P_G4_T27  RAMPDN_G4_T28  1
    P_G5_T27  TOTAL_COST  37.8
    P_G5_T27  DEMAND_T27  1
    P_G5_T27  PMAX_G5_T27  1
    P_G5_T27  PMIN_G5_T27  1
    P_G5_T27  RAMPUP_G5_T27  1
    P_G5_T27  RAMPDN_G5_T27  -1
    P_G5_T27  RAMPUP_G5_T28  -1
    P_G5_T27  RAMPDN_G5_T28  1
    P_G6_T27  TOTAL_COST  50
    P_G6_T27  DEMAND_T27  1
    P_G6_T27  PMAX_G6_T27  1
    P_G6_T27  PMIN_G6_T27  1
    P_G6_T27  RAMPUP_G6_T27  1
    P_G6_T27  RAMPDN_G6_T27  -1
    P_G6_T27  RAMPUP_G6_T28  -1
    P_G6_T27  RAMPDN_G6_T28  1
    P_G7_T27  TOTAL_COST  36.6
    P_G7_T27  DEMAND_T27  1
    P_G7_T27  PMAX_G7_T27  1
    P_G7_T27  PMIN_G7_T27  1
    P_G7_T27  RAMPUP_G7_T27  1
    P_G7_T27  RAMPDN_G7_T27  -1
    P_G7_T27  RAMPUP_G7_T28  -1
    P_G7_T27  RAMPDN_G7_T28  1
    P_G8_T27  TOTAL_COST  41.5
    P_G8_T27  DEMAND_T27  1
    P_G8_T27  PMAX_G8_T27  1
    P_G8_T27  PMIN_G8_T27  1
    P_G8_T27  RAMPUP_G8_T27  1
    P_G8_T27  RAMPDN_G8_T27  -1
    P_G8_T27  RAMPUP_G8_T28  -1
    P_G8_T27  RAMPDN_G8_T28  1
    P_G9_T27  TOTAL_COST  35.4
    P_G9_T27  DEMAND_T27  1
    P_G9_T27  PMAX_G9_T27  1
    P_G9_T27  PMIN_G9_T27  1
    P_G9_T27  RAMPUP_G9_T27  1
    P_G9_T27  RAMPDN_G9_T27  -1
    P_G9_T27  RAMPUP_G9_T28  -1
    P_G9_T27  RAMPDN_G9_T28  1
    P_G10_T27  TOTAL_COST  23
    P_G10_T27  DEMAND_T27  1
    P_G10_T27  PMAX_G10_T27  1
    P_G10_T27  PMIN_G10_T27  1
    P_G10_T27  RAMPUP_G10_T27  1
    P_G10_T27  RAMPDN_G10_T27  -1
    P_G10_T27  RAMPUP_G10_T28  -1
    P_G10_T27  RAMPDN_G10_T28  1
    P_G11_T27  TOTAL_COST  43.8
    P_G11_T27  DEMAND_T27  1
    P_G11_T27  PMAX_G11_T27  1
    P_G11_T27  PMIN_G11_T27  1
    P_G11_T27  RAMPUP_G11_T27  1
    P_G11_T27  RAMPDN_G11_T27  -1
    P_G11_T27  RAMPUP_G11_T28  -1
    P_G11_T27  RAMPDN_G11_T28  1
    P_G12_T27  TOTAL_COST  53
    P_G12_T27  DEMAND_T27  1
    P_G12_T27  PMAX_G12_T27  1
    P_G12_T27  PMIN_G12_T27  1
    P_G12_T27  RAMPUP_G12_T27  1
    P_G12_T27  RAMPDN_G12_T27  -1
    P_G12_T27  RAMPUP_G12_T28  -1
    P_G12_T27  RAMPDN_G12_T28  1
    P_G13_T27  TOTAL_COST  40.9
    P_G13_T27  DEMAND_T27  1
    P_G13_T27  PMAX_G13_T27  1
    P_G13_T27  PMIN_G13_T27  1
    P_G13_T27  RAMPUP_G13_T27  1
    P_G13_T27  RAMPDN_G13_T27  -1
    P_G13_T27  RAMPUP_G13_T28  -1
    P_G13_T27  RAMPDN_G13_T28  1
    P_G14_T27  TOTAL_COST  49.2
    P_G14_T27  DEMAND_T27  1
    P_G14_T27  PMAX_G14_T27  1
    P_G14_T27  PMIN_G14_T27  1
    P_G14_T27  RAMPUP_G14_T27  1
    P_G14_T27  RAMPDN_G14_T27  -1
    P_G14_T27  RAMPUP_G14_T28  -1
    P_G14_T27  RAMPDN_G14_T28  1
    P_G15_T27  TOTAL_COST  51.8
    P_G15_T27  DEMAND_T27  1
    P_G15_T27  PMAX_G15_T27  1
    P_G15_T27  PMIN_G15_T27  1
    P_G15_T27  RAMPUP_G15_T27  1
    P_G15_T27  RAMPDN_G15_T27  -1
    P_G15_T27  RAMPUP_G15_T28  -1
    P_G15_T27  RAMPDN_G15_T28  1
    P_G16_T27  TOTAL_COST  49.5
    P_G16_T27  DEMAND_T27  1
    P_G16_T27  PMAX_G16_T27  1
    P_G16_T27  PMIN_G16_T27  1
    P_G16_T27  RAMPUP_G16_T27  1
    P_G16_T27  RAMPDN_G16_T27  -1
    P_G16_T27  RAMPUP_G16_T28  -1
    P_G16_T27  RAMPDN_G16_T28  1
    P_G17_T27  TOTAL_COST  43.7
    P_G17_T27  DEMAND_T27  1
    P_G17_T27  PMAX_G17_T27  1
    P_G17_T27  PMIN_G17_T27  1
    P_G17_T27  RAMPUP_G17_T27  1
    P_G17_T27  RAMPDN_G17_T27  -1
    P_G17_T27  RAMPUP_G17_T28  -1
    P_G17_T27  RAMPDN_G17_T28  1
    P_G18_T27  TOTAL_COST  49.4
    P_G18_T27  DEMAND_T27  1
    P_G18_T27  PMAX_G18_T27  1
    P_G18_T27  PMIN_G18_T27  1
    P_G18_T27  RAMPUP_G18_T27  1
    P_G18_T27  RAMPDN_G18_T27  -1
    P_G18_T27  RAMPUP_G18_T28  -1
    P_G18_T27  RAMPDN_G18_T28  1
    P_G19_T27  TOTAL_COST  29.2
    P_G19_T27  DEMAND_T27  1
    P_G19_T27  PMAX_G19_T27  1
    P_G19_T27  PMIN_G19_T27  1
    P_G19_T27  RAMPUP_G19_T27  1
    P_G19_T27  RAMPDN_G19_T27  -1
    P_G19_T27  RAMPUP_G19_T28  -1
    P_G19_T27  RAMPDN_G19_T28  1
    MARK1120  'MARKER'                 'INTORG'
    U_G0_T28  TOTAL_COST  141
    U_G0_T28  RESERVE_T28  235
    U_G0_T28  PMAX_G0_T28  -235
    U_G0_T28  PMIN_G0_T28  -65
    MARK1121  'MARKER'                 'INTEND'
    MARK1122  'MARKER'                 'INTORG'
    U_G1_T28  TOTAL_COST  182
    U_G1_T28  RESERVE_T28  223
    U_G1_T28  PMAX_G1_T28  -223
    U_G1_T28  PMIN_G1_T28  -26
    MARK1123  'MARKER'                 'INTEND'
    MARK1124  'MARKER'                 'INTORG'
    U_G2_T28  TOTAL_COST  291
    U_G2_T28  RESERVE_T28  214
    U_G2_T28  PMAX_G2_T28  -214
    U_G2_T28  PMIN_G2_T28  -21
    MARK1125  'MARKER'                 'INTEND'
    MARK1126  'MARKER'                 'INTORG'
    U_G3_T28  TOTAL_COST  114
    U_G3_T28  RESERVE_T28  256
    U_G3_T28  PMAX_G3_T28  -256
    U_G3_T28  PMIN_G3_T28  -77
    MARK1127  'MARKER'                 'INTEND'
    MARK1128  'MARKER'                 'INTORG'
    U_G4_T28  TOTAL_COST  130
    U_G4_T28  RESERVE_T28  147
    U_G4_T28  PMAX_G4_T28  -147
    U_G4_T28  PMIN_G4_T28  -65
    MARK1129  'MARKER'                 'INTEND'
    MARK1130  'MARKER'                 'INTORG'
    U_G5_T28  TOTAL_COST  332
    U_G5_T28  RESERVE_T28  215
    U_G5_T28  PMAX_G5_T28  -215
    U_G5_T28  PMIN_G5_T28  -26
    MARK1131  'MARKER'                 'INTEND'
    MARK1132  'MARKER'                 'INTORG'
    U_G6_T28  TOTAL_COST  341
    U_G6_T28  RESERVE_T28  178
    U_G6_T28  PMAX_G6_T28  -178
    U_G6_T28  PMIN_G6_T28  -65
    MARK1133  'MARKER'                 'INTEND'
    MARK1134  'MARKER'                 'INTORG'
    U_G7_T28  TOTAL_COST  189
    U_G7_T28  RESERVE_T28  254
    U_G7_T28  PMAX_G7_T28  -254
    U_G7_T28  PMIN_G7_T28  -76
    MARK1135  'MARKER'                 'INTEND'
    MARK1136  'MARKER'                 'INTORG'
    U_G8_T28  TOTAL_COST  247
    U_G8_T28  RESERVE_T28  203
    U_G8_T28  PMAX_G8_T28  -203
    U_G8_T28  PMIN_G8_T28  -62
    MARK1137  'MARKER'                 'INTEND'
    MARK1138  'MARKER'                 'INTORG'
    U_G9_T28  TOTAL_COST  300
    U_G9_T28  RESERVE_T28  209
    U_G9_T28  PMAX_G9_T28  -209
    U_G9_T28  PMIN_G9_T28  -56
    MARK1139  'MARKER'                 'INTEND'
    MARK1140  'MARKER'                 'INTORG'
    U_G10_T28  TOTAL_COST  346
    U_G10_T28  RESERVE_T28  136
    U_G10_T28  PMAX_G10_T28  -136
    U_G10_T28  PMIN_G10_T28  -46
    MARK1141  'MARKER'                 'INTEND'
    MARK1142  'MARKER'                 'INTORG'
    U_G11_T28  TOTAL_COST  286
    U_G11_T28  RESERVE_T28  299
    U_G11_T28  PMAX_G11_T28  -299
    U_G11_T28  PMIN_G11_T28  -47
    MARK1143  'MARKER'                 'INTEND'
    MARK1144  'MARKER'                 'INTORG'
    U_G12_T28  TOTAL_COST  248
    U_G12_T28  RESERVE_T28  206
    U_G12_T28  PMAX_G12_T28  -206
    U_G12_T28  PMIN_G12_T28  -72
    MARK1145  'MARKER'                 'INTEND'
    MARK1146  'MARKER'                 'INTORG'
    U_G13_T28  TOTAL_COST  209
    U_G13_T28  RESERVE_T28  173
    U_G13_T28  PMAX_G13_T28  -173
    U_G13_T28  PMIN_G13_T28  -39
    MARK1147  'MARKER'                 'INTEND'
    MARK1148  'MARKER'                 'INTORG'
    U_G14_T28  TOTAL_COST  295
    U_G14_T28  RESERVE_T28  243
    U_G14_T28  PMAX_G14_T28  -243
    U_G14_T28  PMIN_G14_T28  -38
    MARK1149  'MARKER'                 'INTEND'
    MARK1150  'MARKER'                 'INTORG'
    U_G15_T28  TOTAL_COST  221
    U_G15_T28  RESERVE_T28  237
    U_G15_T28  PMAX_G15_T28  -237
    U_G15_T28  PMIN_G15_T28  -67
    MARK1151  'MARKER'                 'INTEND'
    MARK1152  'MARKER'                 'INTORG'
    U_G16_T28  TOTAL_COST  278
    U_G16_T28  RESERVE_T28  174
    U_G16_T28  PMAX_G16_T28  -174
    U_G16_T28  PMIN_G16_T28  -41
    MARK1153  'MARKER'                 'INTEND'
    MARK1154  'MARKER'                 'INTORG'
    U_G17_T28  TOTAL_COST  256
    U_G17_T28  RESERVE_T28  232
    U_G17_T28  PMAX_G17_T28  -232
    U_G17_T28  PMIN_G17_T28  -28
    MARK1155  'MARKER'                 'INTEND'
    MARK1156  'MARKER'                 'INTORG'
    U_G18_T28  TOTAL_COST  284
    U_G18_T28  RESERVE_T28  186
    U_G18_T28  PMAX_G18_T28  -186
    U_G18_T28  PMIN_G18_T28  -24
    MARK1157  'MARKER'                 'INTEND'
    MARK1158  'MARKER'                 'INTORG'
    U_G19_T28  TOTAL_COST  259
    U_G19_T28  RESERVE_T28  253
    U_G19_T28  PMAX_G19_T28  -253
    U_G19_T28  PMIN_G19_T28  -76
    MARK1159  'MARKER'                 'INTEND'
    P_G0_T28  TOTAL_COST  50.1
    P_G0_T28  DEMAND_T28  1
    P_G0_T28  PMAX_G0_T28  1
    P_G0_T28  PMIN_G0_T28  1
    P_G0_T28  RAMPUP_G0_T28  1
    P_G0_T28  RAMPDN_G0_T28  -1
    P_G0_T28  RAMPUP_G0_T29  -1
    P_G0_T28  RAMPDN_G0_T29  1
    P_G1_T28  TOTAL_COST  34.9
    P_G1_T28  DEMAND_T28  1
    P_G1_T28  PMAX_G1_T28  1
    P_G1_T28  PMIN_G1_T28  1
    P_G1_T28  RAMPUP_G1_T28  1
    P_G1_T28  RAMPDN_G1_T28  -1
    P_G1_T28  RAMPUP_G1_T29  -1
    P_G1_T28  RAMPDN_G1_T29  1
    P_G2_T28  TOTAL_COST  47.4
    P_G2_T28  DEMAND_T28  1
    P_G2_T28  PMAX_G2_T28  1
    P_G2_T28  PMIN_G2_T28  1
    P_G2_T28  RAMPUP_G2_T28  1
    P_G2_T28  RAMPDN_G2_T28  -1
    P_G2_T28  RAMPUP_G2_T29  -1
    P_G2_T28  RAMPDN_G2_T29  1
    P_G3_T28  TOTAL_COST  38
    P_G3_T28  DEMAND_T28  1
    P_G3_T28  PMAX_G3_T28  1
    P_G3_T28  PMIN_G3_T28  1
    P_G3_T28  RAMPUP_G3_T28  1
    P_G3_T28  RAMPDN_G3_T28  -1
    P_G3_T28  RAMPUP_G3_T29  -1
    P_G3_T28  RAMPDN_G3_T29  1
    P_G4_T28  TOTAL_COST  37
    P_G4_T28  DEMAND_T28  1
    P_G4_T28  PMAX_G4_T28  1
    P_G4_T28  PMIN_G4_T28  1
    P_G4_T28  RAMPUP_G4_T28  1
    P_G4_T28  RAMPDN_G4_T28  -1
    P_G4_T28  RAMPUP_G4_T29  -1
    P_G4_T28  RAMPDN_G4_T29  1
    P_G5_T28  TOTAL_COST  37.8
    P_G5_T28  DEMAND_T28  1
    P_G5_T28  PMAX_G5_T28  1
    P_G5_T28  PMIN_G5_T28  1
    P_G5_T28  RAMPUP_G5_T28  1
    P_G5_T28  RAMPDN_G5_T28  -1
    P_G5_T28  RAMPUP_G5_T29  -1
    P_G5_T28  RAMPDN_G5_T29  1
    P_G6_T28  TOTAL_COST  50
    P_G6_T28  DEMAND_T28  1
    P_G6_T28  PMAX_G6_T28  1
    P_G6_T28  PMIN_G6_T28  1
    P_G6_T28  RAMPUP_G6_T28  1
    P_G6_T28  RAMPDN_G6_T28  -1
    P_G6_T28  RAMPUP_G6_T29  -1
    P_G6_T28  RAMPDN_G6_T29  1
    P_G7_T28  TOTAL_COST  36.6
    P_G7_T28  DEMAND_T28  1
    P_G7_T28  PMAX_G7_T28  1
    P_G7_T28  PMIN_G7_T28  1
    P_G7_T28  RAMPUP_G7_T28  1
    P_G7_T28  RAMPDN_G7_T28  -1
    P_G7_T28  RAMPUP_G7_T29  -1
    P_G7_T28  RAMPDN_G7_T29  1
    P_G8_T28  TOTAL_COST  41.5
    P_G8_T28  DEMAND_T28  1
    P_G8_T28  PMAX_G8_T28  1
    P_G8_T28  PMIN_G8_T28  1
    P_G8_T28  RAMPUP_G8_T28  1
    P_G8_T28  RAMPDN_G8_T28  -1
    P_G8_T28  RAMPUP_G8_T29  -1
    P_G8_T28  RAMPDN_G8_T29  1
    P_G9_T28  TOTAL_COST  35.4
    P_G9_T28  DEMAND_T28  1
    P_G9_T28  PMAX_G9_T28  1
    P_G9_T28  PMIN_G9_T28  1
    P_G9_T28  RAMPUP_G9_T28  1
    P_G9_T28  RAMPDN_G9_T28  -1
    P_G9_T28  RAMPUP_G9_T29  -1
    P_G9_T28  RAMPDN_G9_T29  1
    P_G10_T28  TOTAL_COST  23
    P_G10_T28  DEMAND_T28  1
    P_G10_T28  PMAX_G10_T28  1
    P_G10_T28  PMIN_G10_T28  1
    P_G10_T28  RAMPUP_G10_T28  1
    P_G10_T28  RAMPDN_G10_T28  -1
    P_G10_T28  RAMPUP_G10_T29  -1
    P_G10_T28  RAMPDN_G10_T29  1
    P_G11_T28  TOTAL_COST  43.8
    P_G11_T28  DEMAND_T28  1
    P_G11_T28  PMAX_G11_T28  1
    P_G11_T28  PMIN_G11_T28  1
    P_G11_T28  RAMPUP_G11_T28  1
    P_G11_T28  RAMPDN_G11_T28  -1
    P_G11_T28  RAMPUP_G11_T29  -1
    P_G11_T28  RAMPDN_G11_T29  1
    P_G12_T28  TOTAL_COST  53
    P_G12_T28  DEMAND_T28  1
    P_G12_T28  PMAX_G12_T28  1
    P_G12_T28  PMIN_G12_T28  1
    P_G12_T28  RAMPUP_G12_T28  1
    P_G12_T28  RAMPDN_G12_T28  -1
    P_G12_T28  RAMPUP_G12_T29  -1
    P_G12_T28  RAMPDN_G12_T29  1
    P_G13_T28  TOTAL_COST  40.9
    P_G13_T28  DEMAND_T28  1
    P_G13_T28  PMAX_G13_T28  1
    P_G13_T28  PMIN_G13_T28  1
    P_G13_T28  RAMPUP_G13_T28  1
    P_G13_T28  RAMPDN_G13_T28  -1
    P_G13_T28  RAMPUP_G13_T29  -1
    P_G13_T28  RAMPDN_G13_T29  1
    P_G14_T28  TOTAL_COST  49.2
    P_G14_T28  DEMAND_T28  1
    P_G14_T28  PMAX_G14_T28  1
    P_G14_T28  PMIN_G14_T28  1
    P_G14_T28  RAMPUP_G14_T28  1
    P_G14_T28  RAMPDN_G14_T28  -1
    P_G14_T28  RAMPUP_G14_T29  -1
    P_G14_T28  RAMPDN_G14_T29  1
    P_G15_T28  TOTAL_COST  51.8
    P_G15_T28  DEMAND_T28  1
    P_G15_T28  PMAX_G15_T28  1
    P_G15_T28  PMIN_G15_T28  1
    P_G15_T28  RAMPUP_G15_T28  1
    P_G15_T28  RAMPDN_G15_T28  -1
    P_G15_T28  RAMPUP_G15_T29  -1
    P_G15_T28  RAMPDN_G15_T29  1
    P_G16_T28  TOTAL_COST  49.5
    P_G16_T28  DEMAND_T28  1
    P_G16_T28  PMAX_G16_T28  1
    P_G16_T28  PMIN_G16_T28  1
    P_G16_T28  RAMPUP_G16_T28  1
    P_G16_T28  RAMPDN_G16_T28  -1
    P_G16_T28  RAMPUP_G16_T29  -1
    P_G16_T28  RAMPDN_G16_T29  1
    P_G17_T28  TOTAL_COST  43.7
    P_G17_T28  DEMAND_T28  1
    P_G17_T28  PMAX_G17_T28  1
    P_G17_T28  PMIN_G17_T28  1
    P_G17_T28  RAMPUP_G17_T28  1
    P_G17_T28  RAMPDN_G17_T28  -1
    P_G17_T28  RAMPUP_G17_T29  -1
    P_G17_T28  RAMPDN_G17_T29  1
    P_G18_T28  TOTAL_COST  49.4
    P_G18_T28  DEMAND_T28  1
    P_G18_T28  PMAX_G18_T28  1
    P_G18_T28  PMIN_G18_T28  1
    P_G18_T28  RAMPUP_G18_T28  1
    P_G18_T28  RAMPDN_G18_T28  -1
    P_G18_T28  RAMPUP_G18_T29  -1
    P_G18_T28  RAMPDN_G18_T29  1
    P_G19_T28  TOTAL_COST  29.2
    P_G19_T28  DEMAND_T28  1
    P_G19_T28  PMAX_G19_T28  1
    P_G19_T28  PMIN_G19_T28  1
    P_G19_T28  RAMPUP_G19_T28  1
    P_G19_T28  RAMPDN_G19_T28  -1
    P_G19_T28  RAMPUP_G19_T29  -1
    P_G19_T28  RAMPDN_G19_T29  1
    MARK1160  'MARKER'                 'INTORG'
    U_G0_T29  TOTAL_COST  141
    U_G0_T29  RESERVE_T29  235
    U_G0_T29  PMAX_G0_T29  -235
    U_G0_T29  PMIN_G0_T29  -65
    MARK1161  'MARKER'                 'INTEND'
    MARK1162  'MARKER'                 'INTORG'
    U_G1_T29  TOTAL_COST  182
    U_G1_T29  RESERVE_T29  223
    U_G1_T29  PMAX_G1_T29  -223
    U_G1_T29  PMIN_G1_T29  -26
    MARK1163  'MARKER'                 'INTEND'
    MARK1164  'MARKER'                 'INTORG'
    U_G2_T29  TOTAL_COST  291
    U_G2_T29  RESERVE_T29  214
    U_G2_T29  PMAX_G2_T29  -214
    U_G2_T29  PMIN_G2_T29  -21
    MARK1165  'MARKER'                 'INTEND'
    MARK1166  'MARKER'                 'INTORG'
    U_G3_T29  TOTAL_COST  114
    U_G3_T29  RESERVE_T29  256
    U_G3_T29  PMAX_G3_T29  -256
    U_G3_T29  PMIN_G3_T29  -77
    MARK1167  'MARKER'                 'INTEND'
    MARK1168  'MARKER'                 'INTORG'
    U_G4_T29  TOTAL_COST  130
    U_G4_T29  RESERVE_T29  147
    U_G4_T29  PMAX_G4_T29  -147
    U_G4_T29  PMIN_G4_T29  -65
    MARK1169  'MARKER'                 'INTEND'
    MARK1170  'MARKER'                 'INTORG'
    U_G5_T29  TOTAL_COST  332
    U_G5_T29  RESERVE_T29  215
    U_G5_T29  PMAX_G5_T29  -215
    U_G5_T29  PMIN_G5_T29  -26
    MARK1171  'MARKER'                 'INTEND'
    MARK1172  'MARKER'                 'INTORG'
    U_G6_T29  TOTAL_COST  341
    U_G6_T29  RESERVE_T29  178
    U_G6_T29  PMAX_G6_T29  -178
    U_G6_T29  PMIN_G6_T29  -65
    MARK1173  'MARKER'                 'INTEND'
    MARK1174  'MARKER'                 'INTORG'
    U_G7_T29  TOTAL_COST  189
    U_G7_T29  RESERVE_T29  254
    U_G7_T29  PMAX_G7_T29  -254
    U_G7_T29  PMIN_G7_T29  -76
    MARK1175  'MARKER'                 'INTEND'
    MARK1176  'MARKER'                 'INTORG'
    U_G8_T29  TOTAL_COST  247
    U_G8_T29  RESERVE_T29  203
    U_G8_T29  PMAX_G8_T29  -203
    U_G8_T29  PMIN_G8_T29  -62
    MARK1177  'MARKER'                 'INTEND'
    MARK1178  'MARKER'                 'INTORG'
    U_G9_T29  TOTAL_COST  300
    U_G9_T29  RESERVE_T29  209
    U_G9_T29  PMAX_G9_T29  -209
    U_G9_T29  PMIN_G9_T29  -56
    MARK1179  'MARKER'                 'INTEND'
    MARK1180  'MARKER'                 'INTORG'
    U_G10_T29  TOTAL_COST  346
    U_G10_T29  RESERVE_T29  136
    U_G10_T29  PMAX_G10_T29  -136
    U_G10_T29  PMIN_G10_T29  -46
    MARK1181  'MARKER'                 'INTEND'
    MARK1182  'MARKER'                 'INTORG'
    U_G11_T29  TOTAL_COST  286
    U_G11_T29  RESERVE_T29  299
    U_G11_T29  PMAX_G11_T29  -299
    U_G11_T29  PMIN_G11_T29  -47
    MARK1183  'MARKER'                 'INTEND'
    MARK1184  'MARKER'                 'INTORG'
    U_G12_T29  TOTAL_COST  248
    U_G12_T29  RESERVE_T29  206
    U_G12_T29  PMAX_G12_T29  -206
    U_G12_T29  PMIN_G12_T29  -72
    MARK1185  'MARKER'                 'INTEND'
    MARK1186  'MARKER'                 'INTORG'
    U_G13_T29  TOTAL_COST  209
    U_G13_T29  RESERVE_T29  173
    U_G13_T29  PMAX_G13_T29  -173
    U_G13_T29  PMIN_G13_T29  -39
    MARK1187  'MARKER'                 'INTEND'
    MARK1188  'MARKER'                 'INTORG'
    U_G14_T29  TOTAL_COST  295
    U_G14_T29  RESERVE_T29  243
    U_G14_T29  PMAX_G14_T29  -243
    U_G14_T29  PMIN_G14_T29  -38
    MARK1189  'MARKER'                 'INTEND'
    MARK1190  'MARKER'                 'INTORG'
    U_G15_T29  TOTAL_COST  221
    U_G15_T29  RESERVE_T29  237
    U_G15_T29  PMAX_G15_T29  -237
    U_G15_T29  PMIN_G15_T29  -67
    MARK1191  'MARKER'                 'INTEND'
    MARK1192  'MARKER'                 'INTORG'
    U_G16_T29  TOTAL_COST  278
    U_G16_T29  RESERVE_T29  174
    U_G16_T29  PMAX_G16_T29  -174
    U_G16_T29  PMIN_G16_T29  -41
    MARK1193  'MARKER'                 'INTEND'
    MARK1194  'MARKER'                 'INTORG'
    U_G17_T29  TOTAL_COST  256
    U_G17_T29  RESERVE_T29  232
    U_G17_T29  PMAX_G17_T29  -232
    U_G17_T29  PMIN_G17_T29  -28
    MARK1195  'MARKER'                 'INTEND'
    MARK1196  'MARKER'                 'INTORG'
    U_G18_T29  TOTAL_COST  284
    U_G18_T29  RESERVE_T29  186
    U_G18_T29  PMAX_G18_T29  -186
    U_G18_T29  PMIN_G18_T29  -24
    MARK1197  'MARKER'                 'INTEND'
    MARK1198  'MARKER'                 'INTORG'
    U_G19_T29  TOTAL_COST  259
    U_G19_T29  RESERVE_T29  253
    U_G19_T29  PMAX_G19_T29  -253
    U_G19_T29  PMIN_G19_T29  -76
    MARK1199  'MARKER'                 'INTEND'
    P_G0_T29  TOTAL_COST  50.1
    P_G0_T29  DEMAND_T29  1
    P_G0_T29  PMAX_G0_T29  1
    P_G0_T29  PMIN_G0_T29  1
    P_G0_T29  RAMPUP_G0_T29  1
    P_G0_T29  RAMPDN_G0_T29  -1
    P_G0_T29  RAMPUP_G0_T30  -1
    P_G0_T29  RAMPDN_G0_T30  1
    P_G1_T29  TOTAL_COST  34.9
    P_G1_T29  DEMAND_T29  1
    P_G1_T29  PMAX_G1_T29  1
    P_G1_T29  PMIN_G1_T29  1
    P_G1_T29  RAMPUP_G1_T29  1
    P_G1_T29  RAMPDN_G1_T29  -1
    P_G1_T29  RAMPUP_G1_T30  -1
    P_G1_T29  RAMPDN_G1_T30  1
    P_G2_T29  TOTAL_COST  47.4
    P_G2_T29  DEMAND_T29  1
    P_G2_T29  PMAX_G2_T29  1
    P_G2_T29  PMIN_G2_T29  1
    P_G2_T29  RAMPUP_G2_T29  1
    P_G2_T29  RAMPDN_G2_T29  -1
    P_G2_T29  RAMPUP_G2_T30  -1
    P_G2_T29  RAMPDN_G2_T30  1
    P_G3_T29  TOTAL_COST  38
    P_G3_T29  DEMAND_T29  1
    P_G3_T29  PMAX_G3_T29  1
    P_G3_T29  PMIN_G3_T29  1
    P_G3_T29  RAMPUP_G3_T29  1
    P_G3_T29  RAMPDN_G3_T29  -1
    P_G3_T29  RAMPUP_G3_T30  -1
    P_G3_T29  RAMPDN_G3_T30  1
    P_G4_T29  TOTAL_COST  37
    P_G4_T29  DEMAND_T29  1
    P_G4_T29  PMAX_G4_T29  1
    P_G4_T29  PMIN_G4_T29  1
    P_G4_T29  RAMPUP_G4_T29  1
    P_G4_T29  RAMPDN_G4_T29  -1
    P_G4_T29  RAMPUP_G4_T30  -1
    P_G4_T29  RAMPDN_G4_T30  1
    P_G5_T29  TOTAL_COST  37.8
    P_G5_T29  DEMAND_T29  1
    P_G5_T29  PMAX_G5_T29  1
    P_G5_T29  PMIN_G5_T29  1
    P_G5_T29  RAMPUP_G5_T29  1
    P_G5_T29  RAMPDN_G5_T29  -1
    P_G5_T29  RAMPUP_G5_T30  -1
    P_G5_T29  RAMPDN_G5_T30  1
    P_G6_T29  TOTAL_COST  50
    P_G6_T29  DEMAND_T29  1
    P_G6_T29  PMAX_G6_T29  1
    P_G6_T29  PMIN_G6_T29  1
    P_G6_T29  RAMPUP_G6_T29  1
    P_G6_T29  RAMPDN_G6_T29  -1
    P_G6_T29  RAMPUP_G6_T30  -1
    P_G6_T29  RAMPDN_G6_T30  1
    P_G7_T29  TOTAL_COST  36.6
    P_G7_T29  DEMAND_T29  1
    P_G7_T29  PMAX_G7_T29  1
    P_G7_T29  PMIN_G7_T29  1
    P_G7_T29  RAMPUP_G7_T29  1
    P_G7_T29  RAMPDN_G7_T29  -1
    P_G7_T29  RAMPUP_G7_T30  -1
    P_G7_T29  RAMPDN_G7_T30  1
    P_G8_T29  TOTAL_COST  41.5
    P_G8_T29  DEMAND_T29  1
    P_G8_T29  PMAX_G8_T29  1
    P_G8_T29  PMIN_G8_T29  1
    P_G8_T29  RAMPUP_G8_T29  1
    P_G8_T29  RAMPDN_G8_T29  -1
    P_G8_T29  RAMPUP_G8_T30  -1
    P_G8_T29  RAMPDN_G8_T30  1
    P_G9_T29  TOTAL_COST  35.4
    P_G9_T29  DEMAND_T29  1
    P_G9_T29  PMAX_G9_T29  1
    P_G9_T29  PMIN_G9_T29  1
    P_G9_T29  RAMPUP_G9_T29  1
    P_G9_T29  RAMPDN_G9_T29  -1
    P_G9_T29  RAMPUP_G9_T30  -1
    P_G9_T29  RAMPDN_G9_T30  1
    P_G10_T29  TOTAL_COST  23
    P_G10_T29  DEMAND_T29  1
    P_G10_T29  PMAX_G10_T29  1
    P_G10_T29  PMIN_G10_T29  1
    P_G10_T29  RAMPUP_G10_T29  1
    P_G10_T29  RAMPDN_G10_T29  -1
    P_G10_T29  RAMPUP_G10_T30  -1
    P_G10_T29  RAMPDN_G10_T30  1
    P_G11_T29  TOTAL_COST  43.8
    P_G11_T29  DEMAND_T29  1
    P_G11_T29  PMAX_G11_T29  1
    P_G11_T29  PMIN_G11_T29  1
    P_G11_T29  RAMPUP_G11_T29  1
    P_G11_T29  RAMPDN_G11_T29  -1
    P_G11_T29  RAMPUP_G11_T30  -1
    P_G11_T29  RAMPDN_G11_T30  1
    P_G12_T29  TOTAL_COST  53
    P_G12_T29  DEMAND_T29  1
    P_G12_T29  PMAX_G12_T29  1
    P_G12_T29  PMIN_G12_T29  1
    P_G12_T29  RAMPUP_G12_T29  1
    P_G12_T29  RAMPDN_G12_T29  -1
    P_G12_T29  RAMPUP_G12_T30  -1
    P_G12_T29  RAMPDN_G12_T30  1
    P_G13_T29  TOTAL_COST  40.9
    P_G13_T29  DEMAND_T29  1
    P_G13_T29  PMAX_G13_T29  1
    P_G13_T29  PMIN_G13_T29  1
    P_G13_T29  RAMPUP_G13_T29  1
    P_G13_T29  RAMPDN_G13_T29  -1
    P_G13_T29  RAMPUP_G13_T30  -1
    P_G13_T29  RAMPDN_G13_T30  1
    P_G14_T29  TOTAL_COST  49.2
    P_G14_T29  DEMAND_T29  1
    P_G14_T29  PMAX_G14_T29  1
    P_G14_T29  PMIN_G14_T29  1
    P_G14_T29  RAMPUP_G14_T29  1
    P_G14_T29  RAMPDN_G14_T29  -1
    P_G14_T29  RAMPUP_G14_T30  -1
    P_G14_T29  RAMPDN_G14_T30  1
    P_G15_T29  TOTAL_COST  51.8
    P_G15_T29  DEMAND_T29  1
    P_G15_T29  PMAX_G15_T29  1
    P_G15_T29  PMIN_G15_T29  1
    P_G15_T29  RAMPUP_G15_T29  1
    P_G15_T29  RAMPDN_G15_T29  -1
    P_G15_T29  RAMPUP_G15_T30  -1
    P_G15_T29  RAMPDN_G15_T30  1
    P_G16_T29  TOTAL_COST  49.5
    P_G16_T29  DEMAND_T29  1
    P_G16_T29  PMAX_G16_T29  1
    P_G16_T29  PMIN_G16_T29  1
    P_G16_T29  RAMPUP_G16_T29  1
    P_G16_T29  RAMPDN_G16_T29  -1
    P_G16_T29  RAMPUP_G16_T30  -1
    P_G16_T29  RAMPDN_G16_T30  1
    P_G17_T29  TOTAL_COST  43.7
    P_G17_T29  DEMAND_T29  1
    P_G17_T29  PMAX_G17_T29  1
    P_G17_T29  PMIN_G17_T29  1
    P_G17_T29  RAMPUP_G17_T29  1
    P_G17_T29  RAMPDN_G17_T29  -1
    P_G17_T29  RAMPUP_G17_T30  -1
    P_G17_T29  RAMPDN_G17_T30  1
    P_G18_T29  TOTAL_COST  49.4
    P_G18_T29  DEMAND_T29  1
    P_G18_T29  PMAX_G18_T29  1
    P_G18_T29  PMIN_G18_T29  1
    P_G18_T29  RAMPUP_G18_T29  1
    P_G18_T29  RAMPDN_G18_T29  -1
    P_G18_T29  RAMPUP_G18_T30  -1
    P_G18_T29  RAMPDN_G18_T30  1
    P_G19_T29  TOTAL_COST  29.2
    P_G19_T29  DEMAND_T29  1
    P_G19_T29  PMAX_G19_T29  1
    P_G19_T29  PMIN_G19_T29  1
    P_G19_T29  RAMPUP_G19_T29  1
    P_G19_T29  RAMPDN_G19_T29  -1
    P_G19_T29  RAMPUP_G19_T30  -1
    P_G19_T29  RAMPDN_G19_T30  1
    MARK1200  'MARKER'                 'INTORG'
    U_G0_T30  TOTAL_COST  141
    U_G0_T30  RESERVE_T30  235
    U_G0_T30  PMAX_G0_T30  -235
    U_G0_T30  PMIN_G0_T30  -65
    MARK1201  'MARKER'                 'INTEND'
    MARK1202  'MARKER'                 'INTORG'
    U_G1_T30  TOTAL_COST  182
    U_G1_T30  RESERVE_T30  223
    U_G1_T30  PMAX_G1_T30  -223
    U_G1_T30  PMIN_G1_T30  -26
    MARK1203  'MARKER'                 'INTEND'
    MARK1204  'MARKER'                 'INTORG'
    U_G2_T30  TOTAL_COST  291
    U_G2_T30  RESERVE_T30  214
    U_G2_T30  PMAX_G2_T30  -214
    U_G2_T30  PMIN_G2_T30  -21
    MARK1205  'MARKER'                 'INTEND'
    MARK1206  'MARKER'                 'INTORG'
    U_G3_T30  TOTAL_COST  114
    U_G3_T30  RESERVE_T30  256
    U_G3_T30  PMAX_G3_T30  -256
    U_G3_T30  PMIN_G3_T30  -77
    MARK1207  'MARKER'                 'INTEND'
    MARK1208  'MARKER'                 'INTORG'
    U_G4_T30  TOTAL_COST  130
    U_G4_T30  RESERVE_T30  147
    U_G4_T30  PMAX_G4_T30  -147
    U_G4_T30  PMIN_G4_T30  -65
    MARK1209  'MARKER'                 'INTEND'
    MARK1210  'MARKER'                 'INTORG'
    U_G5_T30  TOTAL_COST  332
    U_G5_T30  RESERVE_T30  215
    U_G5_T30  PMAX_G5_T30  -215
    U_G5_T30  PMIN_G5_T30  -26
    MARK1211  'MARKER'                 'INTEND'
    MARK1212  'MARKER'                 'INTORG'
    U_G6_T30  TOTAL_COST  341
    U_G6_T30  RESERVE_T30  178
    U_G6_T30  PMAX_G6_T30  -178
    U_G6_T30  PMIN_G6_T30  -65
    MARK1213  'MARKER'                 'INTEND'
    MARK1214  'MARKER'                 'INTORG'
    U_G7_T30  TOTAL_COST  189
    U_G7_T30  RESERVE_T30  254
    U_G7_T30  PMAX_G7_T30  -254
    U_G7_T30  PMIN_G7_T30  -76
    MARK1215  'MARKER'                 'INTEND'
    MARK1216  'MARKER'                 'INTORG'
    U_G8_T30  TOTAL_COST  247
    U_G8_T30  RESERVE_T30  203
    U_G8_T30  PMAX_G8_T30  -203
    U_G8_T30  PMIN_G8_T30  -62
    MARK1217  'MARKER'                 'INTEND'
    MARK1218  'MARKER'                 'INTORG'
    U_G9_T30  TOTAL_COST  300
    U_G9_T30  RESERVE_T30  209
    U_G9_T30  PMAX_G9_T30  -209
    U_G9_T30  PMIN_G9_T30  -56
    MARK1219  'MARKER'                 'INTEND'
    MARK1220  'MARKER'                 'INTORG'
    U_G10_T30  TOTAL_COST  346
    U_G10_T30  RESERVE_T30  136
    U_G10_T30  PMAX_G10_T30  -136
    U_G10_T30  PMIN_G10_T30  -46
    MARK1221  'MARKER'                 'INTEND'
    MARK1222  'MARKER'                 'INTORG'
    U_G11_T30  TOTAL_COST  286
    U_G11_T30  RESERVE_T30  299
    U_G11_T30  PMAX_G11_T30  -299
    U_G11_T30  PMIN_G11_T30  -47
    MARK1223  'MARKER'                 'INTEND'
    MARK1224  'MARKER'                 'INTORG'
    U_G12_T30  TOTAL_COST  248
    U_G12_T30  RESERVE_T30  206
    U_G12_T30  PMAX_G12_T30  -206
    U_G12_T30  PMIN_G12_T30  -72
    MARK1225  'MARKER'                 'INTEND'
    MARK1226  'MARKER'                 'INTORG'
    U_G13_T30  TOTAL_COST  209
    U_G13_T30  RESERVE_T30  173
    U_G13_T30  PMAX_G13_T30  -173
    U_G13_T30  PMIN_G13_T30  -39
    MARK1227  'MARKER'                 'INTEND'
    MARK1228  'MARKER'                 'INTORG'
    U_G14_T30  TOTAL_COST  295
    U_G14_T30  RESERVE_T30  243
    U_G14_T30  PMAX_G14_T30  -243
    U_G14_T30  PMIN_G14_T30  -38
    MARK1229  'MARKER'                 'INTEND'
    MARK1230  'MARKER'                 'INTORG'
    U_G15_T30  TOTAL_COST  221
    U_G15_T30  RESERVE_T30  237
    U_G15_T30  PMAX_G15_T30  -237
    U_G15_T30  PMIN_G15_T30  -67
    MARK1231  'MARKER'                 'INTEND'
    MARK1232  'MARKER'                 'INTORG'
    U_G16_T30  TOTAL_COST  278
    U_G16_T30  RESERVE_T30  174
    U_G16_T30  PMAX_G16_T30  -174
    U_G16_T30  PMIN_G16_T30  -41
    MARK1233  'MARKER'                 'INTEND'
    MARK1234  'MARKER'                 'INTORG'
    U_G17_T30  TOTAL_COST  256
    U_G17_T30  RESERVE_T30  232
    U_G17_T30  PMAX_G17_T30  -232
    U_G17_T30  PMIN_G17_T30  -28
    MARK1235  'MARKER'                 'INTEND'
    MARK1236  'MARKER'                 'INTORG'
    U_G18_T30  TOTAL_COST  284
    U_G18_T30  RESERVE_T30  186
    U_G18_T30  PMAX_G18_T30  -186
    U_G18_T30  PMIN_G18_T30  -24
    MARK1237  'MARKER'                 'INTEND'
    MARK1238  'MARKER'                 'INTORG'
    U_G19_T30  TOTAL_COST  259
    U_G19_T30  RESERVE_T30  253
    U_G19_T30  PMAX_G19_T30  -253
    U_G19_T30  PMIN_G19_T30  -76
    MARK1239  'MARKER'                 'INTEND'
    P_G0_T30  TOTAL_COST  50.1
    P_G0_T30  DEMAND_T30  1
    P_G0_T30  PMAX_G0_T30  1
    P_G0_T30  PMIN_G0_T30  1
    P_G0_T30  RAMPUP_G0_T30  1
    P_G0_T30  RAMPDN_G0_T30  -1
    P_G0_T30  RAMPUP_G0_T31  -1
    P_G0_T30  RAMPDN_G0_T31  1
    P_G1_T30  TOTAL_COST  34.9
    P_G1_T30  DEMAND_T30  1
    P_G1_T30  PMAX_G1_T30  1
    P_G1_T30  PMIN_G1_T30  1
    P_G1_T30  RAMPUP_G1_T30  1
    P_G1_T30  RAMPDN_G1_T30  -1
    P_G1_T30  RAMPUP_G1_T31  -1
    P_G1_T30  RAMPDN_G1_T31  1
    P_G2_T30  TOTAL_COST  47.4
    P_G2_T30  DEMAND_T30  1
    P_G2_T30  PMAX_G2_T30  1
    P_G2_T30  PMIN_G2_T30  1
    P_G2_T30  RAMPUP_G2_T30  1
    P_G2_T30  RAMPDN_G2_T30  -1
    P_G2_T30  RAMPUP_G2_T31  -1
    P_G2_T30  RAMPDN_G2_T31  1
    P_G3_T30  TOTAL_COST  38
    P_G3_T30  DEMAND_T30  1
    P_G3_T30  PMAX_G3_T30  1
    P_G3_T30  PMIN_G3_T30  1
    P_G3_T30  RAMPUP_G3_T30  1
    P_G3_T30  RAMPDN_G3_T30  -1
    P_G3_T30  RAMPUP_G3_T31  -1
    P_G3_T30  RAMPDN_G3_T31  1
    P_G4_T30  TOTAL_COST  37
    P_G4_T30  DEMAND_T30  1
    P_G4_T30  PMAX_G4_T30  1
    P_G4_T30  PMIN_G4_T30  1
    P_G4_T30  RAMPUP_G4_T30  1
    P_G4_T30  RAMPDN_G4_T30  -1
    P_G4_T30  RAMPUP_G4_T31  -1
    P_G4_T30  RAMPDN_G4_T31  1
    P_G5_T30  TOTAL_COST  37.8
    P_G5_T30  DEMAND_T30  1
    P_G5_T30  PMAX_G5_T30  1
    P_G5_T30  PMIN_G5_T30  1
    P_G5_T30  RAMPUP_G5_T30  1
    P_G5_T30  RAMPDN_G5_T30  -1
    P_G5_T30  RAMPUP_G5_T31  -1
    P_G5_T30  RAMPDN_G5_T31  1
    P_G6_T30  TOTAL_COST  50
    P_G6_T30  DEMAND_T30  1
    P_G6_T30  PMAX_G6_T30  1
    P_G6_T30  PMIN_G6_T30  1
    P_G6_T30  RAMPUP_G6_T30  1
    P_G6_T30  RAMPDN_G6_T30  -1
    P_G6_T30  RAMPUP_G6_T31  -1
    P_G6_T30  RAMPDN_G6_T31  1
    P_G7_T30  TOTAL_COST  36.6
    P_G7_T30  DEMAND_T30  1
    P_G7_T30  PMAX_G7_T30  1
    P_G7_T30  PMIN_G7_T30  1
    P_G7_T30  RAMPUP_G7_T30  1
    P_G7_T30  RAMPDN_G7_T30  -1
    P_G7_T30  RAMPUP_G7_T31  -1
    P_G7_T30  RAMPDN_G7_T31  1
    P_G8_T30  TOTAL_COST  41.5
    P_G8_T30  DEMAND_T30  1
    P_G8_T30  PMAX_G8_T30  1
    P_G8_T30  PMIN_G8_T30  1
    P_G8_T30  RAMPUP_G8_T30  1
    P_G8_T30  RAMPDN_G8_T30  -1
    P_G8_T30  RAMPUP_G8_T31  -1
    P_G8_T30  RAMPDN_G8_T31  1
    P_G9_T30  TOTAL_COST  35.4
    P_G9_T30  DEMAND_T30  1
    P_G9_T30  PMAX_G9_T30  1
    P_G9_T30  PMIN_G9_T30  1
    P_G9_T30  RAMPUP_G9_T30  1
    P_G9_T30  RAMPDN_G9_T30  -1
    P_G9_T30  RAMPUP_G9_T31  -1
    P_G9_T30  RAMPDN_G9_T31  1
    P_G10_T30  TOTAL_COST  23
    P_G10_T30  DEMAND_T30  1
    P_G10_T30  PMAX_G10_T30  1
    P_G10_T30  PMIN_G10_T30  1
    P_G10_T30  RAMPUP_G10_T30  1
    P_G10_T30  RAMPDN_G10_T30  -1
    P_G10_T30  RAMPUP_G10_T31  -1
    P_G10_T30  RAMPDN_G10_T31  1
    P_G11_T30  TOTAL_COST  43.8
    P_G11_T30  DEMAND_T30  1
    P_G11_T30  PMAX_G11_T30  1
    P_G11_T30  PMIN_G11_T30  1
    P_G11_T30  RAMPUP_G11_T30  1
    P_G11_T30  RAMPDN_G11_T30  -1
    P_G11_T30  RAMPUP_G11_T31  -1
    P_G11_T30  RAMPDN_G11_T31  1
    P_G12_T30  TOTAL_COST  53
    P_G12_T30  DEMAND_T30  1
    P_G12_T30  PMAX_G12_T30  1
    P_G12_T30  PMIN_G12_T30  1
    P_G12_T30  RAMPUP_G12_T30  1
    P_G12_T30  RAMPDN_G12_T30  -1
    P_G12_T30  RAMPUP_G12_T31  -1
    P_G12_T30  RAMPDN_G12_T31  1
    P_G13_T30  TOTAL_COST  40.9
    P_G13_T30  DEMAND_T30  1
    P_G13_T30  PMAX_G13_T30  1
    P_G13_T30  PMIN_G13_T30  1
    P_G13_T30  RAMPUP_G13_T30  1
    P_G13_T30  RAMPDN_G13_T30  -1
    P_G13_T30  RAMPUP_G13_T31  -1
    P_G13_T30  RAMPDN_G13_T31  1
    P_G14_T30  TOTAL_COST  49.2
    P_G14_T30  DEMAND_T30  1
    P_G14_T30  PMAX_G14_T30  1
    P_G14_T30  PMIN_G14_T30  1
    P_G14_T30  RAMPUP_G14_T30  1
    P_G14_T30  RAMPDN_G14_T30  -1
    P_G14_T30  RAMPUP_G14_T31  -1
    P_G14_T30  RAMPDN_G14_T31  1
    P_G15_T30  TOTAL_COST  51.8
    P_G15_T30  DEMAND_T30  1
    P_G15_T30  PMAX_G15_T30  1
    P_G15_T30  PMIN_G15_T30  1
    P_G15_T30  RAMPUP_G15_T30  1
    P_G15_T30  RAMPDN_G15_T30  -1
    P_G15_T30  RAMPUP_G15_T31  -1
    P_G15_T30  RAMPDN_G15_T31  1
    P_G16_T30  TOTAL_COST  49.5
    P_G16_T30  DEMAND_T30  1
    P_G16_T30  PMAX_G16_T30  1
    P_G16_T30  PMIN_G16_T30  1
    P_G16_T30  RAMPUP_G16_T30  1
    P_G16_T30  RAMPDN_G16_T30  -1
    P_G16_T30  RAMPUP_G16_T31  -1
    P_G16_T30  RAMPDN_G16_T31  1
    P_G17_T30  TOTAL_COST  43.7
    P_G17_T30  DEMAND_T30  1
    P_G17_T30  PMAX_G17_T30  1
    P_G17_T30  PMIN_G17_T30  1
    P_G17_T30  RAMPUP_G17_T30  1
    P_G17_T30  RAMPDN_G17_T30  -1
    P_G17_T30  RAMPUP_G17_T31  -1
    P_G17_T30  RAMPDN_G17_T31  1
    P_G18_T30  TOTAL_COST  49.4
    P_G18_T30  DEMAND_T30  1
    P_G18_T30  PMAX_G18_T30  1
    P_G18_T30  PMIN_G18_T30  1
    P_G18_T30  RAMPUP_G18_T30  1
    P_G18_T30  RAMPDN_G18_T30  -1
    P_G18_T30  RAMPUP_G18_T31  -1
    P_G18_T30  RAMPDN_G18_T31  1
    P_G19_T30  TOTAL_COST  29.2
    P_G19_T30  DEMAND_T30  1
    P_G19_T30  PMAX_G19_T30  1
    P_G19_T30  PMIN_G19_T30  1
    P_G19_T30  RAMPUP_G19_T30  1
    P_G19_T30  RAMPDN_G19_T30  -1
    P_G19_T30  RAMPUP_G19_T31  -1
    P_G19_T30  RAMPDN_G19_T31  1
    MARK1240  'MARKER'                 'INTORG'
    U_G0_T31  TOTAL_COST  141
    U_G0_T31  RESERVE_T31  235
    U_G0_T31  PMAX_G0_T31  -235
    U_G0_T31  PMIN_G0_T31  -65
    MARK1241  'MARKER'                 'INTEND'
    MARK1242  'MARKER'                 'INTORG'
    U_G1_T31  TOTAL_COST  182
    U_G1_T31  RESERVE_T31  223
    U_G1_T31  PMAX_G1_T31  -223
    U_G1_T31  PMIN_G1_T31  -26
    MARK1243  'MARKER'                 'INTEND'
    MARK1244  'MARKER'                 'INTORG'
    U_G2_T31  TOTAL_COST  291
    U_G2_T31  RESERVE_T31  214
    U_G2_T31  PMAX_G2_T31  -214
    U_G2_T31  PMIN_G2_T31  -21
    MARK1245  'MARKER'                 'INTEND'
    MARK1246  'MARKER'                 'INTORG'
    U_G3_T31  TOTAL_COST  114
    U_G3_T31  RESERVE_T31  256
    U_G3_T31  PMAX_G3_T31  -256
    U_G3_T31  PMIN_G3_T31  -77
    MARK1247  'MARKER'                 'INTEND'
    MARK1248  'MARKER'                 'INTORG'
    U_G4_T31  TOTAL_COST  130
    U_G4_T31  RESERVE_T31  147
    U_G4_T31  PMAX_G4_T31  -147
    U_G4_T31  PMIN_G4_T31  -65
    MARK1249  'MARKER'                 'INTEND'
    MARK1250  'MARKER'                 'INTORG'
    U_G5_T31  TOTAL_COST  332
    U_G5_T31  RESERVE_T31  215
    U_G5_T31  PMAX_G5_T31  -215
    U_G5_T31  PMIN_G5_T31  -26
    MARK1251  'MARKER'                 'INTEND'
    MARK1252  'MARKER'                 'INTORG'
    U_G6_T31  TOTAL_COST  341
    U_G6_T31  RESERVE_T31  178
    U_G6_T31  PMAX_G6_T31  -178
    U_G6_T31  PMIN_G6_T31  -65
    MARK1253  'MARKER'                 'INTEND'
    MARK1254  'MARKER'                 'INTORG'
    U_G7_T31  TOTAL_COST  189
    U_G7_T31  RESERVE_T31  254
    U_G7_T31  PMAX_G7_T31  -254
    U_G7_T31  PMIN_G7_T31  -76
    MARK1255  'MARKER'                 'INTEND'
    MARK1256  'MARKER'                 'INTORG'
    U_G8_T31  TOTAL_COST  247
    U_G8_T31  RESERVE_T31  203
    U_G8_T31  PMAX_G8_T31  -203
    U_G8_T31  PMIN_G8_T31  -62
    MARK1257  'MARKER'                 'INTEND'
    MARK1258  'MARKER'                 'INTORG'
    U_G9_T31  TOTAL_COST  300
    U_G9_T31  RESERVE_T31  209
    U_G9_T31  PMAX_G9_T31  -209
    U_G9_T31  PMIN_G9_T31  -56
    MARK1259  'MARKER'                 'INTEND'
    MARK1260  'MARKER'                 'INTORG'
    U_G10_T31  TOTAL_COST  346
    U_G10_T31  RESERVE_T31  136
    U_G10_T31  PMAX_G10_T31  -136
    U_G10_T31  PMIN_G10_T31  -46
    MARK1261  'MARKER'                 'INTEND'
    MARK1262  'MARKER'                 'INTORG'
    U_G11_T31  TOTAL_COST  286
    U_G11_T31  RESERVE_T31  299
    U_G11_T31  PMAX_G11_T31  -299
    U_G11_T31  PMIN_G11_T31  -47
    MARK1263  'MARKER'                 'INTEND'
    MARK1264  'MARKER'                 'INTORG'
    U_G12_T31  TOTAL_COST  248
    U_G12_T31  RESERVE_T31  206
    U_G12_T31  PMAX_G12_T31  -206
    U_G12_T31  PMIN_G12_T31  -72
    MARK1265  'MARKER'                 'INTEND'
    MARK1266  'MARKER'                 'INTORG'
    U_G13_T31  TOTAL_COST  209
    U_G13_T31  RESERVE_T31  173
    U_G13_T31  PMAX_G13_T31  -173
    U_G13_T31  PMIN_G13_T31  -39
    MARK1267  'MARKER'                 'INTEND'
    MARK1268  'MARKER'                 'INTORG'
    U_G14_T31  TOTAL_COST  295
    U_G14_T31  RESERVE_T31  243
    U_G14_T31  PMAX_G14_T31  -243
    U_G14_T31  PMIN_G14_T31  -38
    MARK1269  'MARKER'                 'INTEND'
    MARK1270  'MARKER'                 'INTORG'
    U_G15_T31  TOTAL_COST  221
    U_G15_T31  RESERVE_T31  237
    U_G15_T31  PMAX_G15_T31  -237
    U_G15_T31  PMIN_G15_T31  -67
    MARK1271  'MARKER'                 'INTEND'
    MARK1272  'MARKER'                 'INTORG'
    U_G16_T31  TOTAL_COST  278
    U_G16_T31  RESERVE_T31  174
    U_G16_T31  PMAX_G16_T31  -174
    U_G16_T31  PMIN_G16_T31  -41
    MARK1273  'MARKER'                 'INTEND'
    MARK1274  'MARKER'                 'INTORG'
    U_G17_T31  TOTAL_COST  256
    U_G17_T31  RESERVE_T31  232
    U_G17_T31  PMAX_G17_T31  -232
    U_G17_T31  PMIN_G17_T31  -28
    MARK1275  'MARKER'                 'INTEND'
    MARK1276  'MARKER'                 'INTORG'
    U_G18_T31  TOTAL_COST  284
    U_G18_T31  RESERVE_T31  186
    U_G18_T31  PMAX_G18_T31  -186
    U_G18_T31  PMIN_G18_T31  -24
    MARK1277  'MARKER'                 'INTEND'
    MARK1278  'MARKER'                 'INTORG'
    U_G19_T31  TOTAL_COST  259
    U_G19_T31  RESERVE_T31  253
    U_G19_T31  PMAX_G19_T31  -253
    U_G19_T31  PMIN_G19_T31  -76
    MARK1279  'MARKER'                 'INTEND'
    P_G0_T31  TOTAL_COST  50.1
    P_G0_T31  DEMAND_T31  1
    P_G0_T31  PMAX_G0_T31  1
    P_G0_T31  PMIN_G0_T31  1
    P_G0_T31  RAMPUP_G0_T31  1
    P_G0_T31  RAMPDN_G0_T31  -1
    P_G0_T31  RAMPUP_G0_T32  -1
    P_G0_T31  RAMPDN_G0_T32  1
    P_G1_T31  TOTAL_COST  34.9
    P_G1_T31  DEMAND_T31  1
    P_G1_T31  PMAX_G1_T31  1
    P_G1_T31  PMIN_G1_T31  1
    P_G1_T31  RAMPUP_G1_T31  1
    P_G1_T31  RAMPDN_G1_T31  -1
    P_G1_T31  RAMPUP_G1_T32  -1
    P_G1_T31  RAMPDN_G1_T32  1
    P_G2_T31  TOTAL_COST  47.4
    P_G2_T31  DEMAND_T31  1
    P_G2_T31  PMAX_G2_T31  1
    P_G2_T31  PMIN_G2_T31  1
    P_G2_T31  RAMPUP_G2_T31  1
    P_G2_T31  RAMPDN_G2_T31  -1
    P_G2_T31  RAMPUP_G2_T32  -1
    P_G2_T31  RAMPDN_G2_T32  1
    P_G3_T31  TOTAL_COST  38
    P_G3_T31  DEMAND_T31  1
    P_G3_T31  PMAX_G3_T31  1
    P_G3_T31  PMIN_G3_T31  1
    P_G3_T31  RAMPUP_G3_T31  1
    P_G3_T31  RAMPDN_G3_T31  -1
    P_G3_T31  RAMPUP_G3_T32  -1
    P_G3_T31  RAMPDN_G3_T32  1
    P_G4_T31  TOTAL_COST  37
    P_G4_T31  DEMAND_T31  1
    P_G4_T31  PMAX_G4_T31  1
    P_G4_T31  PMIN_G4_T31  1
    P_G4_T31  RAMPUP_G4_T31  1
    P_G4_T31  RAMPDN_G4_T31  -1
    P_G4_T31  RAMPUP_G4_T32  -1
    P_G4_T31  RAMPDN_G4_T32  1
    P_G5_T31  TOTAL_COST  37.8
    P_G5_T31  DEMAND_T31  1
    P_G5_T31  PMAX_G5_T31  1
    P_G5_T31  PMIN_G5_T31  1
    P_G5_T31  RAMPUP_G5_T31  1
    P_G5_T31  RAMPDN_G5_T31  -1
    P_G5_T31  RAMPUP_G5_T32  -1
    P_G5_T31  RAMPDN_G5_T32  1
    P_G6_T31  TOTAL_COST  50
    P_G6_T31  DEMAND_T31  1
    P_G6_T31  PMAX_G6_T31  1
    P_G6_T31  PMIN_G6_T31  1
    P_G6_T31  RAMPUP_G6_T31  1
    P_G6_T31  RAMPDN_G6_T31  -1
    P_G6_T31  RAMPUP_G6_T32  -1
    P_G6_T31  RAMPDN_G6_T32  1
    P_G7_T31  TOTAL_COST  36.6
    P_G7_T31  DEMAND_T31  1
    P_G7_T31  PMAX_G7_T31  1
    P_G7_T31  PMIN_G7_T31  1
    P_G7_T31  RAMPUP_G7_T31  1
    P_G7_T31  RAMPDN_G7_T31  -1
    P_G7_T31  RAMPUP_G7_T32  -1
    P_G7_T31  RAMPDN_G7_T32  1
    P_G8_T31  TOTAL_COST  41.5
    P_G8_T31  DEMAND_T31  1
    P_G8_T31  PMAX_G8_T31  1
    P_G8_T31  PMIN_G8_T31  1
    P_G8_T31  RAMPUP_G8_T31  1
    P_G8_T31  RAMPDN_G8_T31  -1
    P_G8_T31  RAMPUP_G8_T32  -1
    P_G8_T31  RAMPDN_G8_T32  1
    P_G9_T31  TOTAL_COST  35.4
    P_G9_T31  DEMAND_T31  1
    P_G9_T31  PMAX_G9_T31  1
    P_G9_T31  PMIN_G9_T31  1
    P_G9_T31  RAMPUP_G9_T31  1
    P_G9_T31  RAMPDN_G9_T31  -1
    P_G9_T31  RAMPUP_G9_T32  -1
    P_G9_T31  RAMPDN_G9_T32  1
    P_G10_T31  TOTAL_COST  23
    P_G10_T31  DEMAND_T31  1
    P_G10_T31  PMAX_G10_T31  1
    P_G10_T31  PMIN_G10_T31  1
    P_G10_T31  RAMPUP_G10_T31  1
    P_G10_T31  RAMPDN_G10_T31  -1
    P_G10_T31  RAMPUP_G10_T32  -1
    P_G10_T31  RAMPDN_G10_T32  1
    P_G11_T31  TOTAL_COST  43.8
    P_G11_T31  DEMAND_T31  1
    P_G11_T31  PMAX_G11_T31  1
    P_G11_T31  PMIN_G11_T31  1
    P_G11_T31  RAMPUP_G11_T31  1
    P_G11_T31  RAMPDN_G11_T31  -1
    P_G11_T31  RAMPUP_G11_T32  -1
    P_G11_T31  RAMPDN_G11_T32  1
    P_G12_T31  TOTAL_COST  53
    P_G12_T31  DEMAND_T31  1
    P_G12_T31  PMAX_G12_T31  1
    P_G12_T31  PMIN_G12_T31  1
    P_G12_T31  RAMPUP_G12_T31  1
    P_G12_T31  RAMPDN_G12_T31  -1
    P_G12_T31  RAMPUP_G12_T32  -1
    P_G12_T31  RAMPDN_G12_T32  1
    P_G13_T31  TOTAL_COST  40.9
    P_G13_T31  DEMAND_T31  1
    P_G13_T31  PMAX_G13_T31  1
    P_G13_T31  PMIN_G13_T31  1
    P_G13_T31  RAMPUP_G13_T31  1
    P_G13_T31  RAMPDN_G13_T31  -1
    P_G13_T31  RAMPUP_G13_T32  -1
    P_G13_T31  RAMPDN_G13_T32  1
    P_G14_T31  TOTAL_COST  49.2
    P_G14_T31  DEMAND_T31  1
    P_G14_T31  PMAX_G14_T31  1
    P_G14_T31  PMIN_G14_T31  1
    P_G14_T31  RAMPUP_G14_T31  1
    P_G14_T31  RAMPDN_G14_T31  -1
    P_G14_T31  RAMPUP_G14_T32  -1
    P_G14_T31  RAMPDN_G14_T32  1
    P_G15_T31  TOTAL_COST  51.8
    P_G15_T31  DEMAND_T31  1
    P_G15_T31  PMAX_G15_T31  1
    P_G15_T31  PMIN_G15_T31  1
    P_G15_T31  RAMPUP_G15_T31  1
    P_G15_T31  RAMPDN_G15_T31  -1
    P_G15_T31  RAMPUP_G15_T32  -1
    P_G15_T31  RAMPDN_G15_T32  1
    P_G16_T31  TOTAL_COST  49.5
    P_G16_T31  DEMAND_T31  1
    P_G16_T31  PMAX_G16_T31  1
    P_G16_T31  PMIN_G16_T31  1
    P_G16_T31  RAMPUP_G16_T31  1
    P_G16_T31  RAMPDN_G16_T31  -1
    P_G16_T31  RAMPUP_G16_T32  -1
    P_G16_T31  RAMPDN_G16_T32  1
    P_G17_T31  TOTAL_COST  43.7
    P_G17_T31  DEMAND_T31  1
    P_G17_T31  PMAX_G17_T31  1
    P_G17_T31  PMIN_G17_T31  1
    P_G17_T31  RAMPUP_G17_T31  1
    P_G17_T31  RAMPDN_G17_T31  -1
    P_G17_T31  RAMPUP_G17_T32  -1
    P_G17_T31  RAMPDN_G17_T32  1
    P_G18_T31  TOTAL_COST  49.4
    P_G18_T31  DEMAND_T31  1
    P_G18_T31  PMAX_G18_T31  1
    P_G18_T31  PMIN_G18_T31  1
    P_G18_T31  RAMPUP_G18_T31  1
    P_G18_T31  RAMPDN_G18_T31  -1
    P_G18_T31  RAMPUP_G18_T32  -1
    P_G18_T31  RAMPDN_G18_T32  1
    P_G19_T31  TOTAL_COST  29.2
    P_G19_T31  DEMAND_T31  1
    P_G19_T31  PMAX_G19_T31  1
    P_G19_T31  PMIN_G19_T31  1
    P_G19_T31  RAMPUP_G19_T31  1
    P_G19_T31  RAMPDN_G19_T31  -1
    P_G19_T31  RAMPUP_G19_T32  -1
    P_G19_T31  RAMPDN_G19_T32  1
    MARK1280  'MARKER'                 'INTORG'
    U_G0_T32  TOTAL_COST  141
    U_G0_T32  RESERVE_T32  235
    U_G0_T32  PMAX_G0_T32  -235
    U_G0_T32  PMIN_G0_T32  -65
    MARK1281  'MARKER'                 'INTEND'
    MARK1282  'MARKER'                 'INTORG'
    U_G1_T32  TOTAL_COST  182
    U_G1_T32  RESERVE_T32  223
    U_G1_T32  PMAX_G1_T32  -223
    U_G1_T32  PMIN_G1_T32  -26
    MARK1283  'MARKER'                 'INTEND'
    MARK1284  'MARKER'                 'INTORG'
    U_G2_T32  TOTAL_COST  291
    U_G2_T32  RESERVE_T32  214
    U_G2_T32  PMAX_G2_T32  -214
    U_G2_T32  PMIN_G2_T32  -21
    MARK1285  'MARKER'                 'INTEND'
    MARK1286  'MARKER'                 'INTORG'
    U_G3_T32  TOTAL_COST  114
    U_G3_T32  RESERVE_T32  256
    U_G3_T32  PMAX_G3_T32  -256
    U_G3_T32  PMIN_G3_T32  -77
    MARK1287  'MARKER'                 'INTEND'
    MARK1288  'MARKER'                 'INTORG'
    U_G4_T32  TOTAL_COST  130
    U_G4_T32  RESERVE_T32  147
    U_G4_T32  PMAX_G4_T32  -147
    U_G4_T32  PMIN_G4_T32  -65
    MARK1289  'MARKER'                 'INTEND'
    MARK1290  'MARKER'                 'INTORG'
    U_G5_T32  TOTAL_COST  332
    U_G5_T32  RESERVE_T32  215
    U_G5_T32  PMAX_G5_T32  -215
    U_G5_T32  PMIN_G5_T32  -26
    MARK1291  'MARKER'                 'INTEND'
    MARK1292  'MARKER'                 'INTORG'
    U_G6_T32  TOTAL_COST  341
    U_G6_T32  RESERVE_T32  178
    U_G6_T32  PMAX_G6_T32  -178
    U_G6_T32  PMIN_G6_T32  -65
    MARK1293  'MARKER'                 'INTEND'
    MARK1294  'MARKER'                 'INTORG'
    U_G7_T32  TOTAL_COST  189
    U_G7_T32  RESERVE_T32  254
    U_G7_T32  PMAX_G7_T32  -254
    U_G7_T32  PMIN_G7_T32  -76
    MARK1295  'MARKER'                 'INTEND'
    MARK1296  'MARKER'                 'INTORG'
    U_G8_T32  TOTAL_COST  247
    U_G8_T32  RESERVE_T32  203
    U_G8_T32  PMAX_G8_T32  -203
    U_G8_T32  PMIN_G8_T32  -62
    MARK1297  'MARKER'                 'INTEND'
    MARK1298  'MARKER'                 'INTORG'
    U_G9_T32  TOTAL_COST  300
    U_G9_T32  RESERVE_T32  209
    U_G9_T32  PMAX_G9_T32  -209
    U_G9_T32  PMIN_G9_T32  -56
    MARK1299  'MARKER'                 'INTEND'
    MARK1300  'MARKER'                 'INTORG'
    U_G10_T32  TOTAL_COST  346
    U_G10_T32  RESERVE_T32  136
    U_G10_T32  PMAX_G10_T32  -136
    U_G10_T32  PMIN_G10_T32  -46
    MARK1301  'MARKER'                 'INTEND'
    MARK1302  'MARKER'                 'INTORG'
    U_G11_T32  TOTAL_COST  286
    U_G11_T32  RESERVE_T32  299
    U_G11_T32  PMAX_G11_T32  -299
    U_G11_T32  PMIN_G11_T32  -47
    MARK1303  'MARKER'                 'INTEND'
    MARK1304  'MARKER'                 'INTORG'
    U_G12_T32  TOTAL_COST  248
    U_G12_T32  RESERVE_T32  206
    U_G12_T32  PMAX_G12_T32  -206
    U_G12_T32  PMIN_G12_T32  -72
    MARK1305  'MARKER'                 'INTEND'
    MARK1306  'MARKER'                 'INTORG'
    U_G13_T32  TOTAL_COST  209
    U_G13_T32  RESERVE_T32  173
    U_G13_T32  PMAX_G13_T32  -173
    U_G13_T32  PMIN_G13_T32  -39
    MARK1307  'MARKER'                 'INTEND'
    MARK1308  'MARKER'                 'INTORG'
    U_G14_T32  TOTAL_COST  295
    U_G14_T32  RESERVE_T32  243
    U_G14_T32  PMAX_G14_T32  -243
    U_G14_T32  PMIN_G14_T32  -38
    MARK1309  'MARKER'                 'INTEND'
    MARK1310  'MARKER'                 'INTORG'
    U_G15_T32  TOTAL_COST  221
    U_G15_T32  RESERVE_T32  237
    U_G15_T32  PMAX_G15_T32  -237
    U_G15_T32  PMIN_G15_T32  -67
    MARK1311  'MARKER'                 'INTEND'
    MARK1312  'MARKER'                 'INTORG'
    U_G16_T32  TOTAL_COST  278
    U_G16_T32  RESERVE_T32  174
    U_G16_T32  PMAX_G16_T32  -174
    U_G16_T32  PMIN_G16_T32  -41
    MARK1313  'MARKER'                 'INTEND'
    MARK1314  'MARKER'                 'INTORG'
    U_G17_T32  TOTAL_COST  256
    U_G17_T32  RESERVE_T32  232
    U_G17_T32  PMAX_G17_T32  -232
    U_G17_T32  PMIN_G17_T32  -28
    MARK1315  'MARKER'                 'INTEND'
    MARK1316  'MARKER'                 'INTORG'
    U_G18_T32  TOTAL_COST  284
    U_G18_T32  RESERVE_T32  186
    U_G18_T32  PMAX_G18_T32  -186
    U_G18_T32  PMIN_G18_T32  -24
    MARK1317  'MARKER'                 'INTEND'
    MARK1318  'MARKER'                 'INTORG'
    U_G19_T32  TOTAL_COST  259
    U_G19_T32  RESERVE_T32  253
    U_G19_T32  PMAX_G19_T32  -253
    U_G19_T32  PMIN_G19_T32  -76
    MARK1319  'MARKER'                 'INTEND'
    P_G0_T32  TOTAL_COST  50.1
    P_G0_T32  DEMAND_T32  1
    P_G0_T32  PMAX_G0_T32  1
    P_G0_T32  PMIN_G0_T32  1
    P_G0_T32  RAMPUP_G0_T32  1
    P_G0_T32  RAMPDN_G0_T32  -1
    P_G0_T32  RAMPUP_G0_T33  -1
    P_G0_T32  RAMPDN_G0_T33  1
    P_G1_T32  TOTAL_COST  34.9
    P_G1_T32  DEMAND_T32  1
    P_G1_T32  PMAX_G1_T32  1
    P_G1_T32  PMIN_G1_T32  1
    P_G1_T32  RAMPUP_G1_T32  1
    P_G1_T32  RAMPDN_G1_T32  -1
    P_G1_T32  RAMPUP_G1_T33  -1
    P_G1_T32  RAMPDN_G1_T33  1
    P_G2_T32  TOTAL_COST  47.4
    P_G2_T32  DEMAND_T32  1
    P_G2_T32  PMAX_G2_T32  1
    P_G2_T32  PMIN_G2_T32  1
    P_G2_T32  RAMPUP_G2_T32  1
    P_G2_T32  RAMPDN_G2_T32  -1
    P_G2_T32  RAMPUP_G2_T33  -1
    P_G2_T32  RAMPDN_G2_T33  1
    P_G3_T32  TOTAL_COST  38
    P_G3_T32  DEMAND_T32  1
    P_G3_T32  PMAX_G3_T32  1
    P_G3_T32  PMIN_G3_T32  1
    P_G3_T32  RAMPUP_G3_T32  1
    P_G3_T32  RAMPDN_G3_T32  -1
    P_G3_T32  RAMPUP_G3_T33  -1
    P_G3_T32  RAMPDN_G3_T33  1
    P_G4_T32  TOTAL_COST  37
    P_G4_T32  DEMAND_T32  1
    P_G4_T32  PMAX_G4_T32  1
    P_G4_T32  PMIN_G4_T32  1
    P_G4_T32  RAMPUP_G4_T32  1
    P_G4_T32  RAMPDN_G4_T32  -1
    P_G4_T32  RAMPUP_G4_T33  -1
    P_G4_T32  RAMPDN_G4_T33  1
    P_G5_T32  TOTAL_COST  37.8
    P_G5_T32  DEMAND_T32  1
    P_G5_T32  PMAX_G5_T32  1
    P_G5_T32  PMIN_G5_T32  1
    P_G5_T32  RAMPUP_G5_T32  1
    P_G5_T32  RAMPDN_G5_T32  -1
    P_G5_T32  RAMPUP_G5_T33  -1
    P_G5_T32  RAMPDN_G5_T33  1
    P_G6_T32  TOTAL_COST  50
    P_G6_T32  DEMAND_T32  1
    P_G6_T32  PMAX_G6_T32  1
    P_G6_T32  PMIN_G6_T32  1
    P_G6_T32  RAMPUP_G6_T32  1
    P_G6_T32  RAMPDN_G6_T32  -1
    P_G6_T32  RAMPUP_G6_T33  -1
    P_G6_T32  RAMPDN_G6_T33  1
    P_G7_T32  TOTAL_COST  36.6
    P_G7_T32  DEMAND_T32  1
    P_G7_T32  PMAX_G7_T32  1
    P_G7_T32  PMIN_G7_T32  1
    P_G7_T32  RAMPUP_G7_T32  1
    P_G7_T32  RAMPDN_G7_T32  -1
    P_G7_T32  RAMPUP_G7_T33  -1
    P_G7_T32  RAMPDN_G7_T33  1
    P_G8_T32  TOTAL_COST  41.5
    P_G8_T32  DEMAND_T32  1
    P_G8_T32  PMAX_G8_T32  1
    P_G8_T32  PMIN_G8_T32  1
    P_G8_T32  RAMPUP_G8_T32  1
    P_G8_T32  RAMPDN_G8_T32  -1
    P_G8_T32  RAMPUP_G8_T33  -1
    P_G8_T32  RAMPDN_G8_T33  1
    P_G9_T32  TOTAL_COST  35.4
    P_G9_T32  DEMAND_T32  1
    P_G9_T32  PMAX_G9_T32  1
    P_G9_T32  PMIN_G9_T32  1
    P_G9_T32  RAMPUP_G9_T32  1
    P_G9_T32  RAMPDN_G9_T32  -1
    P_G9_T32  RAMPUP_G9_T33  -1
    P_G9_T32  RAMPDN_G9_T33  1
    P_G10_T32  TOTAL_COST  23
    P_G10_T32  DEMAND_T32  1
    P_G10_T32  PMAX_G10_T32  1
    P_G10_T32  PMIN_G10_T32  1
    P_G10_T32  RAMPUP_G10_T32  1
    P_G10_T32  RAMPDN_G10_T32  -1
    P_G10_T32  RAMPUP_G10_T33  -1
    P_G10_T32  RAMPDN_G10_T33  1
    P_G11_T32  TOTAL_COST  43.8
    P_G11_T32  DEMAND_T32  1
    P_G11_T32  PMAX_G11_T32  1
    P_G11_T32  PMIN_G11_T32  1
    P_G11_T32  RAMPUP_G11_T32  1
    P_G11_T32  RAMPDN_G11_T32  -1
    P_G11_T32  RAMPUP_G11_T33  -1
    P_G11_T32  RAMPDN_G11_T33  1
    P_G12_T32  TOTAL_COST  53
    P_G12_T32  DEMAND_T32  1
    P_G12_T32  PMAX_G12_T32  1
    P_G12_T32  PMIN_G12_T32  1
    P_G12_T32  RAMPUP_G12_T32  1
    P_G12_T32  RAMPDN_G12_T32  -1
    P_G12_T32  RAMPUP_G12_T33  -1
    P_G12_T32  RAMPDN_G12_T33  1
    P_G13_T32  TOTAL_COST  40.9
    P_G13_T32  DEMAND_T32  1
    P_G13_T32  PMAX_G13_T32  1
    P_G13_T32  PMIN_G13_T32  1
    P_G13_T32  RAMPUP_G13_T32  1
    P_G13_T32  RAMPDN_G13_T32  -1
    P_G13_T32  RAMPUP_G13_T33  -1
    P_G13_T32  RAMPDN_G13_T33  1
    P_G14_T32  TOTAL_COST  49.2
    P_G14_T32  DEMAND_T32  1
    P_G14_T32  PMAX_G14_T32  1
    P_G14_T32  PMIN_G14_T32  1
    P_G14_T32  RAMPUP_G14_T32  1
    P_G14_T32  RAMPDN_G14_T32  -1
    P_G14_T32  RAMPUP_G14_T33  -1
    P_G14_T32  RAMPDN_G14_T33  1
    P_G15_T32  TOTAL_COST  51.8
    P_G15_T32  DEMAND_T32  1
    P_G15_T32  PMAX_G15_T32  1
    P_G15_T32  PMIN_G15_T32  1
    P_G15_T32  RAMPUP_G15_T32  1
    P_G15_T32  RAMPDN_G15_T32  -1
    P_G15_T32  RAMPUP_G15_T33  -1
    P_G15_T32  RAMPDN_G15_T33  1
    P_G16_T32  TOTAL_COST  49.5
    P_G16_T32  DEMAND_T32  1
    P_G16_T32  PMAX_G16_T32  1
    P_G16_T32  PMIN_G16_T32  1
    P_G16_T32  RAMPUP_G16_T32  1
    P_G16_T32  RAMPDN_G16_T32  -1
    P_G16_T32  RAMPUP_G16_T33  -1
    P_G16_T32  RAMPDN_G16_T33  1
    P_G17_T32  TOTAL_COST  43.7
    P_G17_T32  DEMAND_T32  1
    P_G17_T32  PMAX_G17_T32  1
    P_G17_T32  PMIN_G17_T32  1
    P_G17_T32  RAMPUP_G17_T32  1
    P_G17_T32  RAMPDN_G17_T32  -1
    P_G17_T32  RAMPUP_G17_T33  -1
    P_G17_T32  RAMPDN_G17_T33  1
    P_G18_T32  TOTAL_COST  49.4
    P_G18_T32  DEMAND_T32  1
    P_G18_T32  PMAX_G18_T32  1
    P_G18_T32  PMIN_G18_T32  1
    P_G18_T32  RAMPUP_G18_T32  1
    P_G18_T32  RAMPDN_G18_T32  -1
    P_G18_T32  RAMPUP_G18_T33  -1
    P_G18_T32  RAMPDN_G18_T33  1
    P_G19_T32  TOTAL_COST  29.2
    P_G19_T32  DEMAND_T32  1
    P_G19_T32  PMAX_G19_T32  1
    P_G19_T32  PMIN_G19_T32  1
    P_G19_T32  RAMPUP_G19_T32  1
    P_G19_T32  RAMPDN_G19_T32  -1
    P_G19_T32  RAMPUP_G19_T33  -1
    P_G19_T32  RAMPDN_G19_T33  1
    MARK1320  'MARKER'                 'INTORG'
    U_G0_T33  TOTAL_COST  141
    U_G0_T33  RESERVE_T33  235
    U_G0_T33  PMAX_G0_T33  -235
    U_G0_T33  PMIN_G0_T33  -65
    MARK1321  'MARKER'                 'INTEND'
    MARK1322  'MARKER'                 'INTORG'
    U_G1_T33  TOTAL_COST  182
    U_G1_T33  RESERVE_T33  223
    U_G1_T33  PMAX_G1_T33  -223
    U_G1_T33  PMIN_G1_T33  -26
    MARK1323  'MARKER'                 'INTEND'
    MARK1324  'MARKER'                 'INTORG'
    U_G2_T33  TOTAL_COST  291
    U_G2_T33  RESERVE_T33  214
    U_G2_T33  PMAX_G2_T33  -214
    U_G2_T33  PMIN_G2_T33  -21
    MARK1325  'MARKER'                 'INTEND'
    MARK1326  'MARKER'                 'INTORG'
    U_G3_T33  TOTAL_COST  114
    U_G3_T33  RESERVE_T33  256
    U_G3_T33  PMAX_G3_T33  -256
    U_G3_T33  PMIN_G3_T33  -77
    MARK1327  'MARKER'                 'INTEND'
    MARK1328  'MARKER'                 'INTORG'
    U_G4_T33  TOTAL_COST  130
    U_G4_T33  RESERVE_T33  147
    U_G4_T33  PMAX_G4_T33  -147
    U_G4_T33  PMIN_G4_T33  -65
    MARK1329  'MARKER'                 'INTEND'
    MARK1330  'MARKER'                 'INTORG'
    U_G5_T33  TOTAL_COST  332
    U_G5_T33  RESERVE_T33  215
    U_G5_T33  PMAX_G5_T33  -215
    U_G5_T33  PMIN_G5_T33  -26
    MARK1331  'MARKER'                 'INTEND'
    MARK1332  'MARKER'                 'INTORG'
    U_G6_T33  TOTAL_COST  341
    U_G6_T33  RESERVE_T33  178
    U_G6_T33  PMAX_G6_T33  -178
    U_G6_T33  PMIN_G6_T33  -65
    MARK1333  'MARKER'                 'INTEND'
    MARK1334  'MARKER'                 'INTORG'
    U_G7_T33  TOTAL_COST  189
    U_G7_T33  RESERVE_T33  254
    U_G7_T33  PMAX_G7_T33  -254
    U_G7_T33  PMIN_G7_T33  -76
    MARK1335  'MARKER'                 'INTEND'
    MARK1336  'MARKER'                 'INTORG'
    U_G8_T33  TOTAL_COST  247
    U_G8_T33  RESERVE_T33  203
    U_G8_T33  PMAX_G8_T33  -203
    U_G8_T33  PMIN_G8_T33  -62
    MARK1337  'MARKER'                 'INTEND'
    MARK1338  'MARKER'                 'INTORG'
    U_G9_T33  TOTAL_COST  300
    U_G9_T33  RESERVE_T33  209
    U_G9_T33  PMAX_G9_T33  -209
    U_G9_T33  PMIN_G9_T33  -56
    MARK1339  'MARKER'                 'INTEND'
    MARK1340  'MARKER'                 'INTORG'
    U_G10_T33  TOTAL_COST  346
    U_G10_T33  RESERVE_T33  136
    U_G10_T33  PMAX_G10_T33  -136
    U_G10_T33  PMIN_G10_T33  -46
    MARK1341  'MARKER'                 'INTEND'
    MARK1342  'MARKER'                 'INTORG'
    U_G11_T33  TOTAL_COST  286
    U_G11_T33  RESERVE_T33  299
    U_G11_T33  PMAX_G11_T33  -299
    U_G11_T33  PMIN_G11_T33  -47
    MARK1343  'MARKER'                 'INTEND'
    MARK1344  'MARKER'                 'INTORG'
    U_G12_T33  TOTAL_COST  248
    U_G12_T33  RESERVE_T33  206
    U_G12_T33  PMAX_G12_T33  -206
    U_G12_T33  PMIN_G12_T33  -72
    MARK1345  'MARKER'                 'INTEND'
    MARK1346  'MARKER'                 'INTORG'
    U_G13_T33  TOTAL_COST  209
    U_G13_T33  RESERVE_T33  173
    U_G13_T33  PMAX_G13_T33  -173
    U_G13_T33  PMIN_G13_T33  -39
    MARK1347  'MARKER'                 'INTEND'
    MARK1348  'MARKER'                 'INTORG'
    U_G14_T33  TOTAL_COST  295
    U_G14_T33  RESERVE_T33  243
    U_G14_T33  PMAX_G14_T33  -243
    U_G14_T33  PMIN_G14_T33  -38
    MARK1349  'MARKER'                 'INTEND'
    MARK1350  'MARKER'                 'INTORG'
    U_G15_T33  TOTAL_COST  221
    U_G15_T33  RESERVE_T33  237
    U_G15_T33  PMAX_G15_T33  -237
    U_G15_T33  PMIN_G15_T33  -67
    MARK1351  'MARKER'                 'INTEND'
    MARK1352  'MARKER'                 'INTORG'
    U_G16_T33  TOTAL_COST  278
    U_G16_T33  RESERVE_T33  174
    U_G16_T33  PMAX_G16_T33  -174
    U_G16_T33  PMIN_G16_T33  -41
    MARK1353  'MARKER'                 'INTEND'
    MARK1354  'MARKER'                 'INTORG'
    U_G17_T33  TOTAL_COST  256
    U_G17_T33  RESERVE_T33  232
    U_G17_T33  PMAX_G17_T33  -232
    U_G17_T33  PMIN_G17_T33  -28
    MARK1355  'MARKER'                 'INTEND'
    MARK1356  'MARKER'                 'INTORG'
    U_G18_T33  TOTAL_COST  284
    U_G18_T33  RESERVE_T33  186
    U_G18_T33  PMAX_G18_T33  -186
    U_G18_T33  PMIN_G18_T33  -24
    MARK1357  'MARKER'                 'INTEND'
    MARK1358  'MARKER'                 'INTORG'
    U_G19_T33  TOTAL_COST  259
    U_G19_T33  RESERVE_T33  253
    U_G19_T33  PMAX_G19_T33  -253
    U_G19_T33  PMIN_G19_T33  -76
    MARK1359  'MARKER'                 'INTEND'
    P_G0_T33  TOTAL_COST  50.1
    P_G0_T33  DEMAND_T33  1
    P_G0_T33  PMAX_G0_T33  1
    P_G0_T33  PMIN_G0_T33  1
    P_G0_T33  RAMPUP_G0_T33  1
    P_G0_T33  RAMPDN_G0_T33  -1
    P_G0_T33  RAMPUP_G0_T34  -1
    P_G0_T33  RAMPDN_G0_T34  1
    P_G1_T33  TOTAL_COST  34.9
    P_G1_T33  DEMAND_T33  1
    P_G1_T33  PMAX_G1_T33  1
    P_G1_T33  PMIN_G1_T33  1
    P_G1_T33  RAMPUP_G1_T33  1
    P_G1_T33  RAMPDN_G1_T33  -1
    P_G1_T33  RAMPUP_G1_T34  -1
    P_G1_T33  RAMPDN_G1_T34  1
    P_G2_T33  TOTAL_COST  47.4
    P_G2_T33  DEMAND_T33  1
    P_G2_T33  PMAX_G2_T33  1
    P_G2_T33  PMIN_G2_T33  1
    P_G2_T33  RAMPUP_G2_T33  1
    P_G2_T33  RAMPDN_G2_T33  -1
    P_G2_T33  RAMPUP_G2_T34  -1
    P_G2_T33  RAMPDN_G2_T34  1
    P_G3_T33  TOTAL_COST  38
    P_G3_T33  DEMAND_T33  1
    P_G3_T33  PMAX_G3_T33  1
    P_G3_T33  PMIN_G3_T33  1
    P_G3_T33  RAMPUP_G3_T33  1
    P_G3_T33  RAMPDN_G3_T33  -1
    P_G3_T33  RAMPUP_G3_T34  -1
    P_G3_T33  RAMPDN_G3_T34  1
    P_G4_T33  TOTAL_COST  37
    P_G4_T33  DEMAND_T33  1
    P_G4_T33  PMAX_G4_T33  1
    P_G4_T33  PMIN_G4_T33  1
    P_G4_T33  RAMPUP_G4_T33  1
    P_G4_T33  RAMPDN_G4_T33  -1
    P_G4_T33  RAMPUP_G4_T34  -1
    P_G4_T33  RAMPDN_G4_T34  1
    P_G5_T33  TOTAL_COST  37.8
    P_G5_T33  DEMAND_T33  1
    P_G5_T33  PMAX_G5_T33  1
    P_G5_T33  PMIN_G5_T33  1
    P_G5_T33  RAMPUP_G5_T33  1
    P_G5_T33  RAMPDN_G5_T33  -1
    P_G5_T33  RAMPUP_G5_T34  -1
    P_G5_T33  RAMPDN_G5_T34  1
    P_G6_T33  TOTAL_COST  50
    P_G6_T33  DEMAND_T33  1
    P_G6_T33  PMAX_G6_T33  1
    P_G6_T33  PMIN_G6_T33  1
    P_G6_T33  RAMPUP_G6_T33  1
    P_G6_T33  RAMPDN_G6_T33  -1
    P_G6_T33  RAMPUP_G6_T34  -1
    P_G6_T33  RAMPDN_G6_T34  1
    P_G7_T33  TOTAL_COST  36.6
    P_G7_T33  DEMAND_T33  1
    P_G7_T33  PMAX_G7_T33  1
    P_G7_T33  PMIN_G7_T33  1
    P_G7_T33  RAMPUP_G7_T33  1
    P_G7_T33  RAMPDN_G7_T33  -1
    P_G7_T33  RAMPUP_G7_T34  -1
    P_G7_T33  RAMPDN_G7_T34  1
    P_G8_T33  TOTAL_COST  41.5
    P_G8_T33  DEMAND_T33  1
    P_G8_T33  PMAX_G8_T33  1
    P_G8_T33  PMIN_G8_T33  1
    P_G8_T33  RAMPUP_G8_T33  1
    P_G8_T33  RAMPDN_G8_T33  -1
    P_G8_T33  RAMPUP_G8_T34  -1
    P_G8_T33  RAMPDN_G8_T34  1
    P_G9_T33  TOTAL_COST  35.4
    P_G9_T33  DEMAND_T33  1
    P_G9_T33  PMAX_G9_T33  1
    P_G9_T33  PMIN_G9_T33  1
    P_G9_T33  RAMPUP_G9_T33  1
    P_G9_T33  RAMPDN_G9_T33  -1
    P_G9_T33  RAMPUP_G9_T34  -1
    P_G9_T33  RAMPDN_G9_T34  1
    P_G10_T33  TOTAL_COST  23
    P_G10_T33  DEMAND_T33  1
    P_G10_T33  PMAX_G10_T33  1
    P_G10_T33  PMIN_G10_T33  1
    P_G10_T33  RAMPUP_G10_T33  1
    P_G10_T33  RAMPDN_G10_T33  -1
    P_G10_T33  RAMPUP_G10_T34  -1
    P_G10_T33  RAMPDN_G10_T34  1
    P_G11_T33  TOTAL_COST  43.8
    P_G11_T33  DEMAND_T33  1
    P_G11_T33  PMAX_G11_T33  1
    P_G11_T33  PMIN_G11_T33  1
    P_G11_T33  RAMPUP_G11_T33  1
    P_G11_T33  RAMPDN_G11_T33  -1
    P_G11_T33  RAMPUP_G11_T34  -1
    P_G11_T33  RAMPDN_G11_T34  1
    P_G12_T33  TOTAL_COST  53
    P_G12_T33  DEMAND_T33  1
    P_G12_T33  PMAX_G12_T33  1
    P_G12_T33  PMIN_G12_T33  1
    P_G12_T33  RAMPUP_G12_T33  1
    P_G12_T33  RAMPDN_G12_T33  -1
    P_G12_T33  RAMPUP_G12_T34  -1
    P_G12_T33  RAMPDN_G12_T34  1
    P_G13_T33  TOTAL_COST  40.9
    P_G13_T33  DEMAND_T33  1
    P_G13_T33  PMAX_G13_T33  1
    P_G13_T33  PMIN_G13_T33  1
    P_G13_T33  RAMPUP_G13_T33  1
    P_G13_T33  RAMPDN_G13_T33  -1
    P_G13_T33  RAMPUP_G13_T34  -1
    P_G13_T33  RAMPDN_G13_T34  1
    P_G14_T33  TOTAL_COST  49.2
    P_G14_T33  DEMAND_T33  1
    P_G14_T33  PMAX_G14_T33  1
    P_G14_T33  PMIN_G14_T33  1
    P_G14_T33  RAMPUP_G14_T33  1
    P_G14_T33  RAMPDN_G14_T33  -1
    P_G14_T33  RAMPUP_G14_T34  -1
    P_G14_T33  RAMPDN_G14_T34  1
    P_G15_T33  TOTAL_COST  51.8
    P_G15_T33  DEMAND_T33  1
    P_G15_T33  PMAX_G15_T33  1
    P_G15_T33  PMIN_G15_T33  1
    P_G15_T33  RAMPUP_G15_T33  1
    P_G15_T33  RAMPDN_G15_T33  -1
    P_G15_T33  RAMPUP_G15_T34  -1
    P_G15_T33  RAMPDN_G15_T34  1
    P_G16_T33  TOTAL_COST  49.5
    P_G16_T33  DEMAND_T33  1
    P_G16_T33  PMAX_G16_T33  1
    P_G16_T33  PMIN_G16_T33  1
    P_G16_T33  RAMPUP_G16_T33  1
    P_G16_T33  RAMPDN_G16_T33  -1
    P_G16_T33  RAMPUP_G16_T34  -1
    P_G16_T33  RAMPDN_G16_T34  1
    P_G17_T33  TOTAL_COST  43.7
    P_G17_T33  DEMAND_T33  1
    P_G17_T33  PMAX_G17_T33  1
    P_G17_T33  PMIN_G17_T33  1
    P_G17_T33  RAMPUP_G17_T33  1
    P_G17_T33  RAMPDN_G17_T33  -1
    P_G17_T33  RAMPUP_G17_T34  -1
    P_G17_T33  RAMPDN_G17_T34  1
    P_G18_T33  TOTAL_COST  49.4
    P_G18_T33  DEMAND_T33  1
    P_G18_T33  PMAX_G18_T33  1
    P_G18_T33  PMIN_G18_T33  1
    P_G18_T33  RAMPUP_G18_T33  1
    P_G18_T33  RAMPDN_G18_T33  -1
    P_G18_T33  RAMPUP_G18_T34  -1
    P_G18_T33  RAMPDN_G18_T34  1
    P_G19_T33  TOTAL_COST  29.2
    P_G19_T33  DEMAND_T33  1
    P_G19_T33  PMAX_G19_T33  1
    P_G19_T33  PMIN_G19_T33  1
    P_G19_T33  RAMPUP_G19_T33  1
    P_G19_T33  RAMPDN_G19_T33  -1
    P_G19_T33  RAMPUP_G19_T34  -1
    P_G19_T33  RAMPDN_G19_T34  1
    MARK1360  'MARKER'                 'INTORG'
    U_G0_T34  TOTAL_COST  141
    U_G0_T34  RESERVE_T34  235
    U_G0_T34  PMAX_G0_T34  -235
    U_G0_T34  PMIN_G0_T34  -65
    MARK1361  'MARKER'                 'INTEND'
    MARK1362  'MARKER'                 'INTORG'
    U_G1_T34  TOTAL_COST  182
    U_G1_T34  RESERVE_T34  223
    U_G1_T34  PMAX_G1_T34  -223
    U_G1_T34  PMIN_G1_T34  -26
    MARK1363  'MARKER'                 'INTEND'
    MARK1364  'MARKER'                 'INTORG'
    U_G2_T34  TOTAL_COST  291
    U_G2_T34  RESERVE_T34  214
    U_G2_T34  PMAX_G2_T34  -214
    U_G2_T34  PMIN_G2_T34  -21
    MARK1365  'MARKER'                 'INTEND'
    MARK1366  'MARKER'                 'INTORG'
    U_G3_T34  TOTAL_COST  114
    U_G3_T34  RESERVE_T34  256
    U_G3_T34  PMAX_G3_T34  -256
    U_G3_T34  PMIN_G3_T34  -77
    MARK1367  'MARKER'                 'INTEND'
    MARK1368  'MARKER'                 'INTORG'
    U_G4_T34  TOTAL_COST  130
    U_G4_T34  RESERVE_T34  147
    U_G4_T34  PMAX_G4_T34  -147
    U_G4_T34  PMIN_G4_T34  -65
    MARK1369  'MARKER'                 'INTEND'
    MARK1370  'MARKER'                 'INTORG'
    U_G5_T34  TOTAL_COST  332
    U_G5_T34  RESERVE_T34  215
    U_G5_T34  PMAX_G5_T34  -215
    U_G5_T34  PMIN_G5_T34  -26
    MARK1371  'MARKER'                 'INTEND'
    MARK1372  'MARKER'                 'INTORG'
    U_G6_T34  TOTAL_COST  341
    U_G6_T34  RESERVE_T34  178
    U_G6_T34  PMAX_G6_T34  -178
    U_G6_T34  PMIN_G6_T34  -65
    MARK1373  'MARKER'                 'INTEND'
    MARK1374  'MARKER'                 'INTORG'
    U_G7_T34  TOTAL_COST  189
    U_G7_T34  RESERVE_T34  254
    U_G7_T34  PMAX_G7_T34  -254
    U_G7_T34  PMIN_G7_T34  -76
    MARK1375  'MARKER'                 'INTEND'
    MARK1376  'MARKER'                 'INTORG'
    U_G8_T34  TOTAL_COST  247
    U_G8_T34  RESERVE_T34  203
    U_G8_T34  PMAX_G8_T34  -203
    U_G8_T34  PMIN_G8_T34  -62
    MARK1377  'MARKER'                 'INTEND'
    MARK1378  'MARKER'                 'INTORG'
    U_G9_T34  TOTAL_COST  300
    U_G9_T34  RESERVE_T34  209
    U_G9_T34  PMAX_G9_T34  -209
    U_G9_T34  PMIN_G9_T34  -56
    MARK1379  'MARKER'                 'INTEND'
    MARK1380  'MARKER'                 'INTORG'
    U_G10_T34  TOTAL_COST  346
    U_G10_T34  RESERVE_T34  136
    U_G10_T34  PMAX_G10_T34  -136
    U_G10_T34  PMIN_G10_T34  -46
    MARK1381  'MARKER'                 'INTEND'
    MARK1382  'MARKER'                 'INTORG'
    U_G11_T34  TOTAL_COST  286
    U_G11_T34  RESERVE_T34  299
    U_G11_T34  PMAX_G11_T34  -299
    U_G11_T34  PMIN_G11_T34  -47
    MARK1383  'MARKER'                 'INTEND'
    MARK1384  'MARKER'                 'INTORG'
    U_G12_T34  TOTAL_COST  248
    U_G12_T34  RESERVE_T34  206
    U_G12_T34  PMAX_G12_T34  -206
    U_G12_T34  PMIN_G12_T34  -72
    MARK1385  'MARKER'                 'INTEND'
    MARK1386  'MARKER'                 'INTORG'
    U_G13_T34  TOTAL_COST  209
    U_G13_T34  RESERVE_T34  173
    U_G13_T34  PMAX_G13_T34  -173
    U_G13_T34  PMIN_G13_T34  -39
    MARK1387  'MARKER'                 'INTEND'
    MARK1388  'MARKER'                 'INTORG'
    U_G14_T34  TOTAL_COST  295
    U_G14_T34  RESERVE_T34  243
    U_G14_T34  PMAX_G14_T34  -243
    U_G14_T34  PMIN_G14_T34  -38
    MARK1389  'MARKER'                 'INTEND'
    MARK1390  'MARKER'                 'INTORG'
    U_G15_T34  TOTAL_COST  221
    U_G15_T34  RESERVE_T34  237
    U_G15_T34  PMAX_G15_T34  -237
    U_G15_T34  PMIN_G15_T34  -67
    MARK1391  'MARKER'                 'INTEND'
    MARK1392  'MARKER'                 'INTORG'
    U_G16_T34  TOTAL_COST  278
    U_G16_T34  RESERVE_T34  174
    U_G16_T34  PMAX_G16_T34  -174
    U_G16_T34  PMIN_G16_T34  -41
    MARK1393  'MARKER'                 'INTEND'
    MARK1394  'MARKER'                 'INTORG'
    U_G17_T34  TOTAL_COST  256
    U_G17_T34  RESERVE_T34  232
    U_G17_T34  PMAX_G17_T34  -232
    U_G17_T34  PMIN_G17_T34  -28
    MARK1395  'MARKER'                 'INTEND'
    MARK1396  'MARKER'                 'INTORG'
    U_G18_T34  TOTAL_COST  284
    U_G18_T34  RESERVE_T34  186
    U_G18_T34  PMAX_G18_T34  -186
    U_G18_T34  PMIN_G18_T34  -24
    MARK1397  'MARKER'                 'INTEND'
    MARK1398  'MARKER'                 'INTORG'
    U_G19_T34  TOTAL_COST  259
    U_G19_T34  RESERVE_T34  253
    U_G19_T34  PMAX_G19_T34  -253
    U_G19_T34  PMIN_G19_T34  -76
    MARK1399  'MARKER'                 'INTEND'
    P_G0_T34  TOTAL_COST  50.1
    P_G0_T34  DEMAND_T34  1
    P_G0_T34  PMAX_G0_T34  1
    P_G0_T34  PMIN_G0_T34  1
    P_G0_T34  RAMPUP_G0_T34  1
    P_G0_T34  RAMPDN_G0_T34  -1
    P_G0_T34  RAMPUP_G0_T35  -1
    P_G0_T34  RAMPDN_G0_T35  1
    P_G1_T34  TOTAL_COST  34.9
    P_G1_T34  DEMAND_T34  1
    P_G1_T34  PMAX_G1_T34  1
    P_G1_T34  PMIN_G1_T34  1
    P_G1_T34  RAMPUP_G1_T34  1
    P_G1_T34  RAMPDN_G1_T34  -1
    P_G1_T34  RAMPUP_G1_T35  -1
    P_G1_T34  RAMPDN_G1_T35  1
    P_G2_T34  TOTAL_COST  47.4
    P_G2_T34  DEMAND_T34  1
    P_G2_T34  PMAX_G2_T34  1
    P_G2_T34  PMIN_G2_T34  1
    P_G2_T34  RAMPUP_G2_T34  1
    P_G2_T34  RAMPDN_G2_T34  -1
    P_G2_T34  RAMPUP_G2_T35  -1
    P_G2_T34  RAMPDN_G2_T35  1
    P_G3_T34  TOTAL_COST  38
    P_G3_T34  DEMAND_T34  1
    P_G3_T34  PMAX_G3_T34  1
    P_G3_T34  PMIN_G3_T34  1
    P_G3_T34  RAMPUP_G3_T34  1
    P_G3_T34  RAMPDN_G3_T34  -1
    P_G3_T34  RAMPUP_G3_T35  -1
    P_G3_T34  RAMPDN_G3_T35  1
    P_G4_T34  TOTAL_COST  37
    P_G4_T34  DEMAND_T34  1
    P_G4_T34  PMAX_G4_T34  1
    P_G4_T34  PMIN_G4_T34  1
    P_G4_T34  RAMPUP_G4_T34  1
    P_G4_T34  RAMPDN_G4_T34  -1
    P_G4_T34  RAMPUP_G4_T35  -1
    P_G4_T34  RAMPDN_G4_T35  1
    P_G5_T34  TOTAL_COST  37.8
    P_G5_T34  DEMAND_T34  1
    P_G5_T34  PMAX_G5_T34  1
    P_G5_T34  PMIN_G5_T34  1
    P_G5_T34  RAMPUP_G5_T34  1
    P_G5_T34  RAMPDN_G5_T34  -1
    P_G5_T34  RAMPUP_G5_T35  -1
    P_G5_T34  RAMPDN_G5_T35  1
    P_G6_T34  TOTAL_COST  50
    P_G6_T34  DEMAND_T34  1
    P_G6_T34  PMAX_G6_T34  1
    P_G6_T34  PMIN_G6_T34  1
    P_G6_T34  RAMPUP_G6_T34  1
    P_G6_T34  RAMPDN_G6_T34  -1
    P_G6_T34  RAMPUP_G6_T35  -1
    P_G6_T34  RAMPDN_G6_T35  1
    P_G7_T34  TOTAL_COST  36.6
    P_G7_T34  DEMAND_T34  1
    P_G7_T34  PMAX_G7_T34  1
    P_G7_T34  PMIN_G7_T34  1
    P_G7_T34  RAMPUP_G7_T34  1
    P_G7_T34  RAMPDN_G7_T34  -1
    P_G7_T34  RAMPUP_G7_T35  -1
    P_G7_T34  RAMPDN_G7_T35  1
    P_G8_T34  TOTAL_COST  41.5
    P_G8_T34  DEMAND_T34  1
    P_G8_T34  PMAX_G8_T34  1
    P_G8_T34  PMIN_G8_T34  1
    P_G8_T34  RAMPUP_G8_T34  1
    P_G8_T34  RAMPDN_G8_T34  -1
    P_G8_T34  RAMPUP_G8_T35  -1
    P_G8_T34  RAMPDN_G8_T35  1
    P_G9_T34  TOTAL_COST  35.4
    P_G9_T34  DEMAND_T34  1
    P_G9_T34  PMAX_G9_T34  1
    P_G9_T34  PMIN_G9_T34  1
    P_G9_T34  RAMPUP_G9_T34  1
    P_G9_T34  RAMPDN_G9_T34  -1
    P_G9_T34  RAMPUP_G9_T35  -1
    P_G9_T34  RAMPDN_G9_T35  1
    P_G10_T34  TOTAL_COST  23
    P_G10_T34  DEMAND_T34  1
    P_G10_T34  PMAX_G10_T34  1
    P_G10_T34  PMIN_G10_T34  1
    P_G10_T34  RAMPUP_G10_T34  1
    P_G10_T34  RAMPDN_G10_T34  -1
    P_G10_T34  RAMPUP_G10_T35  -1
    P_G10_T34  RAMPDN_G10_T35  1
    P_G11_T34  TOTAL_COST  43.8
    P_G11_T34  DEMAND_T34  1
    P_G11_T34  PMAX_G11_T34  1
    P_G11_T34  PMIN_G11_T34  1
    P_G11_T34  RAMPUP_G11_T34  1
    P_G11_T34  RAMPDN_G11_T34  -1
    P_G11_T34  RAMPUP_G11_T35  -1
    P_G11_T34  RAMPDN_G11_T35  1
    P_G12_T34  TOTAL_COST  53
    P_G12_T34  DEMAND_T34  1
    P_G12_T34  PMAX_G12_T34  1
    P_G12_T34  PMIN_G12_T34  1
    P_G12_T34  RAMPUP_G12_T34  1
    P_G12_T34  RAMPDN_G12_T34  -1
    P_G12_T34  RAMPUP_G12_T35  -1
    P_G12_T34  RAMPDN_G12_T35  1
    P_G13_T34  TOTAL_COST  40.9
    P_G13_T34  DEMAND_T34  1
    P_G13_T34  PMAX_G13_T34  1
    P_G13_T34  PMIN_G13_T34  1
    P_G13_T34  RAMPUP_G13_T34  1
    P_G13_T34  RAMPDN_G13_T34  -1
    P_G13_T34  RAMPUP_G13_T35  -1
    P_G13_T34  RAMPDN_G13_T35  1
    P_G14_T34  TOTAL_COST  49.2
    P_G14_T34  DEMAND_T34  1
    P_G14_T34  PMAX_G14_T34  1
    P_G14_T34  PMIN_G14_T34  1
    P_G14_T34  RAMPUP_G14_T34  1
    P_G14_T34  RAMPDN_G14_T34  -1
    P_G14_T34  RAMPUP_G14_T35  -1
    P_G14_T34  RAMPDN_G14_T35  1
    P_G15_T34  TOTAL_COST  51.8
    P_G15_T34  DEMAND_T34  1
    P_G15_T34  PMAX_G15_T34  1
    P_G15_T34  PMIN_G15_T34  1
    P_G15_T34  RAMPUP_G15_T34  1
    P_G15_T34  RAMPDN_G15_T34  -1
    P_G15_T34  RAMPUP_G15_T35  -1
    P_G15_T34  RAMPDN_G15_T35  1
    P_G16_T34  TOTAL_COST  49.5
    P_G16_T34  DEMAND_T34  1
    P_G16_T34  PMAX_G16_T34  1
    P_G16_T34  PMIN_G16_T34  1
    P_G16_T34  RAMPUP_G16_T34  1
    P_G16_T34  RAMPDN_G16_T34  -1
    P_G16_T34  RAMPUP_G16_T35  -1
    P_G16_T34  RAMPDN_G16_T35  1
    P_G17_T34  TOTAL_COST  43.7
    P_G17_T34  DEMAND_T34  1
    P_G17_T34  PMAX_G17_T34  1
    P_G17_T34  PMIN_G17_T34  1
    P_G17_T34  RAMPUP_G17_T34  1
    P_G17_T34  RAMPDN_G17_T34  -1
    P_G17_T34  RAMPUP_G17_T35  -1
    P_G17_T34  RAMPDN_G17_T35  1
    P_G18_T34  TOTAL_COST  49.4
    P_G18_T34  DEMAND_T34  1
    P_G18_T34  PMAX_G18_T34  1
    P_G18_T34  PMIN_G18_T34  1
    P_G18_T34  RAMPUP_G18_T34  1
    P_G18_T34  RAMPDN_G18_T34  -1
    P_G18_T34  RAMPUP_G18_T35  -1
    P_G18_T34  RAMPDN_G18_T35  1
    P_G19_T34  TOTAL_COST  29.2
    P_G19_T34  DEMAND_T34  1
    P_G19_T34  PMAX_G19_T34  1
    P_G19_T34  PMIN_G19_T34  1
    P_G19_T34  RAMPUP_G19_T34  1
    P_G19_T34  RAMPDN_G19_T34  -1
    P_G19_T34  RAMPUP_G19_T35  -1
    P_G19_T34  RAMPDN_G19_T35  1
    MARK1400  'MARKER'                 'INTORG'
    U_G0_T35  TOTAL_COST  141
    U_G0_T35  RESERVE_T35  235
    U_G0_T35  PMAX_G0_T35  -235
    U_G0_T35  PMIN_G0_T35  -65
    MARK1401  'MARKER'                 'INTEND'
    MARK1402  'MARKER'                 'INTORG'
    U_G1_T35  TOTAL_COST  182
    U_G1_T35  RESERVE_T35  223
    U_G1_T35  PMAX_G1_T35  -223
    U_G1_T35  PMIN_G1_T35  -26
    MARK1403  'MARKER'                 'INTEND'
    MARK1404  'MARKER'                 'INTORG'
    U_G2_T35  TOTAL_COST  291
    U_G2_T35  RESERVE_T35  214
    U_G2_T35  PMAX_G2_T35  -214
    U_G2_T35  PMIN_G2_T35  -21
    MARK1405  'MARKER'                 'INTEND'
    MARK1406  'MARKER'                 'INTORG'
    U_G3_T35  TOTAL_COST  114
    U_G3_T35  RESERVE_T35  256
    U_G3_T35  PMAX_G3_T35  -256
    U_G3_T35  PMIN_G3_T35  -77
    MARK1407  'MARKER'                 'INTEND'
    MARK1408  'MARKER'                 'INTORG'
    U_G4_T35  TOTAL_COST  130
    U_G4_T35  RESERVE_T35  147
    U_G4_T35  PMAX_G4_T35  -147
    U_G4_T35  PMIN_G4_T35  -65
    MARK1409  'MARKER'                 'INTEND'
    MARK1410  'MARKER'                 'INTORG'
    U_G5_T35  TOTAL_COST  332
    U_G5_T35  RESERVE_T35  215
    U_G5_T35  PMAX_G5_T35  -215
    U_G5_T35  PMIN_G5_T35  -26
    MARK1411  'MARKER'                 'INTEND'
    MARK1412  'MARKER'                 'INTORG'
    U_G6_T35  TOTAL_COST  341
    U_G6_T35  RESERVE_T35  178
    U_G6_T35  PMAX_G6_T35  -178
    U_G6_T35  PMIN_G6_T35  -65
    MARK1413  'MARKER'                 'INTEND'
    MARK1414  'MARKER'                 'INTORG'
    U_G7_T35  TOTAL_COST  189
    U_G7_T35  RESERVE_T35  254
    U_G7_T35  PMAX_G7_T35  -254
    U_G7_T35  PMIN_G7_T35  -76
    MARK1415  'MARKER'                 'INTEND'
    MARK1416  'MARKER'                 'INTORG'
    U_G8_T35  TOTAL_COST  247
    U_G8_T35  RESERVE_T35  203
    U_G8_T35  PMAX_G8_T35  -203
    U_G8_T35  PMIN_G8_T35  -62
    MARK1417  'MARKER'                 'INTEND'
    MARK1418  'MARKER'                 'INTORG'
    U_G9_T35  TOTAL_COST  300
    U_G9_T35  RESERVE_T35  209
    U_G9_T35  PMAX_G9_T35  -209
    U_G9_T35  PMIN_G9_T35  -56
    MARK1419  'MARKER'                 'INTEND'
    MARK1420  'MARKER'                 'INTORG'
    U_G10_T35  TOTAL_COST  346
    U_G10_T35  RESERVE_T35  136
    U_G10_T35  PMAX_G10_T35  -136
    U_G10_T35  PMIN_G10_T35  -46
    MARK1421  'MARKER'                 'INTEND'
    MARK1422  'MARKER'                 'INTORG'
    U_G11_T35  TOTAL_COST  286
    U_G11_T35  RESERVE_T35  299
    U_G11_T35  PMAX_G11_T35  -299
    U_G11_T35  PMIN_G11_T35  -47
    MARK1423  'MARKER'                 'INTEND'
    MARK1424  'MARKER'                 'INTORG'
    U_G12_T35  TOTAL_COST  248
    U_G12_T35  RESERVE_T35  206
    U_G12_T35  PMAX_G12_T35  -206
    U_G12_T35  PMIN_G12_T35  -72
    MARK1425  'MARKER'                 'INTEND'
    MARK1426  'MARKER'                 'INTORG'
    U_G13_T35  TOTAL_COST  209
    U_G13_T35  RESERVE_T35  173
    U_G13_T35  PMAX_G13_T35  -173
    U_G13_T35  PMIN_G13_T35  -39
    MARK1427  'MARKER'                 'INTEND'
    MARK1428  'MARKER'                 'INTORG'
    U_G14_T35  TOTAL_COST  295
    U_G14_T35  RESERVE_T35  243
    U_G14_T35  PMAX_G14_T35  -243
    U_G14_T35  PMIN_G14_T35  -38
    MARK1429  'MARKER'                 'INTEND'
    MARK1430  'MARKER'                 'INTORG'
    U_G15_T35  TOTAL_COST  221
    U_G15_T35  RESERVE_T35  237
    U_G15_T35  PMAX_G15_T35  -237
    U_G15_T35  PMIN_G15_T35  -67
    MARK1431  'MARKER'                 'INTEND'
    MARK1432  'MARKER'                 'INTORG'
    U_G16_T35  TOTAL_COST  278
    U_G16_T35  RESERVE_T35  174
    U_G16_T35  PMAX_G16_T35  -174
    U_G16_T35  PMIN_G16_T35  -41
    MARK1433  'MARKER'                 'INTEND'
    MARK1434  'MARKER'                 'INTORG'
    U_G17_T35  TOTAL_COST  256
    U_G17_T35  RESERVE_T35  232
    U_G17_T35  PMAX_G17_T35  -232
    U_G17_T35  PMIN_G17_T35  -28
    MARK1435  'MARKER'                 'INTEND'
    MARK1436  'MARKER'                 'INTORG'
    U_G18_T35  TOTAL_COST  284
    U_G18_T35  RESERVE_T35  186
    U_G18_T35  PMAX_G18_T35  -186
    U_G18_T35  PMIN_G18_T35  -24
    MARK1437  'MARKER'                 'INTEND'
    MARK1438  'MARKER'                 'INTORG'
    U_G19_T35  TOTAL_COST  259
    U_G19_T35  RESERVE_T35  253
    U_G19_T35  PMAX_G19_T35  -253
    U_G19_T35  PMIN_G19_T35  -76
    MARK1439  'MARKER'                 'INTEND'
    P_G0_T35  TOTAL_COST  50.1
    P_G0_T35  DEMAND_T35  1
    P_G0_T35  PMAX_G0_T35  1
    P_G0_T35  PMIN_G0_T35  1
    P_G0_T35  RAMPUP_G0_T35  1
    P_G0_T35  RAMPDN_G0_T35  -1
    P_G0_T35  RAMPUP_G0_T36  -1
    P_G0_T35  RAMPDN_G0_T36  1
    P_G1_T35  TOTAL_COST  34.9
    P_G1_T35  DEMAND_T35  1
    P_G1_T35  PMAX_G1_T35  1
    P_G1_T35  PMIN_G1_T35  1
    P_G1_T35  RAMPUP_G1_T35  1
    P_G1_T35  RAMPDN_G1_T35  -1
    P_G1_T35  RAMPUP_G1_T36  -1
    P_G1_T35  RAMPDN_G1_T36  1
    P_G2_T35  TOTAL_COST  47.4
    P_G2_T35  DEMAND_T35  1
    P_G2_T35  PMAX_G2_T35  1
    P_G2_T35  PMIN_G2_T35  1
    P_G2_T35  RAMPUP_G2_T35  1
    P_G2_T35  RAMPDN_G2_T35  -1
    P_G2_T35  RAMPUP_G2_T36  -1
    P_G2_T35  RAMPDN_G2_T36  1
    P_G3_T35  TOTAL_COST  38
    P_G3_T35  DEMAND_T35  1
    P_G3_T35  PMAX_G3_T35  1
    P_G3_T35  PMIN_G3_T35  1
    P_G3_T35  RAMPUP_G3_T35  1
    P_G3_T35  RAMPDN_G3_T35  -1
    P_G3_T35  RAMPUP_G3_T36  -1
    P_G3_T35  RAMPDN_G3_T36  1
    P_G4_T35  TOTAL_COST  37
    P_G4_T35  DEMAND_T35  1
    P_G4_T35  PMAX_G4_T35  1
    P_G4_T35  PMIN_G4_T35  1
    P_G4_T35  RAMPUP_G4_T35  1
    P_G4_T35  RAMPDN_G4_T35  -1
    P_G4_T35  RAMPUP_G4_T36  -1
    P_G4_T35  RAMPDN_G4_T36  1
    P_G5_T35  TOTAL_COST  37.8
    P_G5_T35  DEMAND_T35  1
    P_G5_T35  PMAX_G5_T35  1
    P_G5_T35  PMIN_G5_T35  1
    P_G5_T35  RAMPUP_G5_T35  1
    P_G5_T35  RAMPDN_G5_T35  -1
    P_G5_T35  RAMPUP_G5_T36  -1
    P_G5_T35  RAMPDN_G5_T36  1
    P_G6_T35  TOTAL_COST  50
    P_G6_T35  DEMAND_T35  1
    P_G6_T35  PMAX_G6_T35  1
    P_G6_T35  PMIN_G6_T35  1
    P_G6_T35  RAMPUP_G6_T35  1
    P_G6_T35  RAMPDN_G6_T35  -1
    P_G6_T35  RAMPUP_G6_T36  -1
    P_G6_T35  RAMPDN_G6_T36  1
    P_G7_T35  TOTAL_COST  36.6
    P_G7_T35  DEMAND_T35  1
    P_G7_T35  PMAX_G7_T35  1
    P_G7_T35  PMIN_G7_T35  1
    P_G7_T35  RAMPUP_G7_T35  1
    P_G7_T35  RAMPDN_G7_T35  -1
    P_G7_T35  RAMPUP_G7_T36  -1
    P_G7_T35  RAMPDN_G7_T36  1
    P_G8_T35  TOTAL_COST  41.5
    P_G8_T35  DEMAND_T35  1
    P_G8_T35  PMAX_G8_T35  1
    P_G8_T35  PMIN_G8_T35  1
    P_G8_T35  RAMPUP_G8_T35  1
    P_G8_T35  RAMPDN_G8_T35  -1
    P_G8_T35  RAMPUP_G8_T36  -1
    P_G8_T35  RAMPDN_G8_T36  1
    P_G9_T35  TOTAL_COST  35.4
    P_G9_T35  DEMAND_T35  1
    P_G9_T35  PMAX_G9_T35  1
    P_G9_T35  PMIN_G9_T35  1
    P_G9_T35  RAMPUP_G9_T35  1
    P_G9_T35  RAMPDN_G9_T35  -1
    P_G9_T35  RAMPUP_G9_T36  -1
    P_G9_T35  RAMPDN_G9_T36  1
    P_G10_T35  TOTAL_COST  23
    P_G10_T35  DEMAND_T35  1
    P_G10_T35  PMAX_G10_T35  1
    P_G10_T35  PMIN_G10_T35  1
    P_G10_T35  RAMPUP_G10_T35  1
    P_G10_T35  RAMPDN_G10_T35  -1
    P_G10_T35  RAMPUP_G10_T36  -1
    P_G10_T35  RAMPDN_G10_T36  1
    P_G11_T35  TOTAL_COST  43.8
    P_G11_T35  DEMAND_T35  1
    P_G11_T35  PMAX_G11_T35  1
    P_G11_T35  PMIN_G11_T35  1
    P_G11_T35  RAMPUP_G11_T35  1
    P_G11_T35  RAMPDN_G11_T35  -1
    P_G11_T35  RAMPUP_G11_T36  -1
    P_G11_T35  RAMPDN_G11_T36  1
    P_G12_T35  TOTAL_COST  53
    P_G12_T35  DEMAND_T35  1
    P_G12_T35  PMAX_G12_T35  1
    P_G12_T35  PMIN_G12_T35  1
    P_G12_T35  RAMPUP_G12_T35  1
    P_G12_T35  RAMPDN_G12_T35  -1
    P_G12_T35  RAMPUP_G12_T36  -1
    P_G12_T35  RAMPDN_G12_T36  1
    P_G13_T35  TOTAL_COST  40.9
    P_G13_T35  DEMAND_T35  1
    P_G13_T35  PMAX_G13_T35  1
    P_G13_T35  PMIN_G13_T35  1
    P_G13_T35  RAMPUP_G13_T35  1
    P_G13_T35  RAMPDN_G13_T35  -1
    P_G13_T35  RAMPUP_G13_T36  -1
    P_G13_T35  RAMPDN_G13_T36  1
    P_G14_T35  TOTAL_COST  49.2
    P_G14_T35  DEMAND_T35  1
    P_G14_T35  PMAX_G14_T35  1
    P_G14_T35  PMIN_G14_T35  1
    P_G14_T35  RAMPUP_G14_T35  1
    P_G14_T35  RAMPDN_G14_T35  -1
    P_G14_T35  RAMPUP_G14_T36  -1
    P_G14_T35  RAMPDN_G14_T36  1
    P_G15_T35  TOTAL_COST  51.8
    P_G15_T35  DEMAND_T35  1
    P_G15_T35  PMAX_G15_T35  1
    P_G15_T35  PMIN_G15_T35  1
    P_G15_T35  RAMPUP_G15_T35  1
    P_G15_T35  RAMPDN_G15_T35  -1
    P_G15_T35  RAMPUP_G15_T36  -1
    P_G15_T35  RAMPDN_G15_T36  1
    P_G16_T35  TOTAL_COST  49.5
    P_G16_T35  DEMAND_T35  1
    P_G16_T35  PMAX_G16_T35  1
    P_G16_T35  PMIN_G16_T35  1
    P_G16_T35  RAMPUP_G16_T35  1
    P_G16_T35  RAMPDN_G16_T35  -1
    P_G16_T35  RAMPUP_G16_T36  -1
    P_G16_T35  RAMPDN_G16_T36  1
    P_G17_T35  TOTAL_COST  43.7
    P_G17_T35  DEMAND_T35  1
    P_G17_T35  PMAX_G17_T35  1
    P_G17_T35  PMIN_G17_T35  1
    P_G17_T35  RAMPUP_G17_T35  1
    P_G17_T35  RAMPDN_G17_T35  -1
    P_G17_T35  RAMPUP_G17_T36  -1
    P_G17_T35  RAMPDN_G17_T36  1
    P_G18_T35  TOTAL_COST  49.4
    P_G18_T35  DEMAND_T35  1
    P_G18_T35  PMAX_G18_T35  1
    P_G18_T35  PMIN_G18_T35  1
    P_G18_T35  RAMPUP_G18_T35  1
    P_G18_T35  RAMPDN_G18_T35  -1
    P_G18_T35  RAMPUP_G18_T36  -1
    P_G18_T35  RAMPDN_G18_T36  1
    P_G19_T35  TOTAL_COST  29.2
    P_G19_T35  DEMAND_T35  1
    P_G19_T35  PMAX_G19_T35  1
    P_G19_T35  PMIN_G19_T35  1
    P_G19_T35  RAMPUP_G19_T35  1
    P_G19_T35  RAMPDN_G19_T35  -1
    P_G19_T35  RAMPUP_G19_T36  -1
    P_G19_T35  RAMPDN_G19_T36  1
    MARK1440  'MARKER'                 'INTORG'
    U_G0_T36  TOTAL_COST  141
    U_G0_T36  RESERVE_T36  235
    U_G0_T36  PMAX_G0_T36  -235
    U_G0_T36  PMIN_G0_T36  -65
    MARK1441  'MARKER'                 'INTEND'
    MARK1442  'MARKER'                 'INTORG'
    U_G1_T36  TOTAL_COST  182
    U_G1_T36  RESERVE_T36  223
    U_G1_T36  PMAX_G1_T36  -223
    U_G1_T36  PMIN_G1_T36  -26
    MARK1443  'MARKER'                 'INTEND'
    MARK1444  'MARKER'                 'INTORG'
    U_G2_T36  TOTAL_COST  291
    U_G2_T36  RESERVE_T36  214
    U_G2_T36  PMAX_G2_T36  -214
    U_G2_T36  PMIN_G2_T36  -21
    MARK1445  'MARKER'                 'INTEND'
    MARK1446  'MARKER'                 'INTORG'
    U_G3_T36  TOTAL_COST  114
    U_G3_T36  RESERVE_T36  256
    U_G3_T36  PMAX_G3_T36  -256
    U_G3_T36  PMIN_G3_T36  -77
    MARK1447  'MARKER'                 'INTEND'
    MARK1448  'MARKER'                 'INTORG'
    U_G4_T36  TOTAL_COST  130
    U_G4_T36  RESERVE_T36  147
    U_G4_T36  PMAX_G4_T36  -147
    U_G4_T36  PMIN_G4_T36  -65
    MARK1449  'MARKER'                 'INTEND'
    MARK1450  'MARKER'                 'INTORG'
    U_G5_T36  TOTAL_COST  332
    U_G5_T36  RESERVE_T36  215
    U_G5_T36  PMAX_G5_T36  -215
    U_G5_T36  PMIN_G5_T36  -26
    MARK1451  'MARKER'                 'INTEND'
    MARK1452  'MARKER'                 'INTORG'
    U_G6_T36  TOTAL_COST  341
    U_G6_T36  RESERVE_T36  178
    U_G6_T36  PMAX_G6_T36  -178
    U_G6_T36  PMIN_G6_T36  -65
    MARK1453  'MARKER'                 'INTEND'
    MARK1454  'MARKER'                 'INTORG'
    U_G7_T36  TOTAL_COST  189
    U_G7_T36  RESERVE_T36  254
    U_G7_T36  PMAX_G7_T36  -254
    U_G7_T36  PMIN_G7_T36  -76
    MARK1455  'MARKER'                 'INTEND'
    MARK1456  'MARKER'                 'INTORG'
    U_G8_T36  TOTAL_COST  247
    U_G8_T36  RESERVE_T36  203
    U_G8_T36  PMAX_G8_T36  -203
    U_G8_T36  PMIN_G8_T36  -62
    MARK1457  'MARKER'                 'INTEND'
    MARK1458  'MARKER'                 'INTORG'
    U_G9_T36  TOTAL_COST  300
    U_G9_T36  RESERVE_T36  209
    U_G9_T36  PMAX_G9_T36  -209
    U_G9_T36  PMIN_G9_T36  -56
    MARK1459  'MARKER'                 'INTEND'
    MARK1460  'MARKER'                 'INTORG'
    U_G10_T36  TOTAL_COST  346
    U_G10_T36  RESERVE_T36  136
    U_G10_T36  PMAX_G10_T36  -136
    U_G10_T36  PMIN_G10_T36  -46
    MARK1461  'MARKER'                 'INTEND'
    MARK1462  'MARKER'                 'INTORG'
    U_G11_T36  TOTAL_COST  286
    U_G11_T36  RESERVE_T36  299
    U_G11_T36  PMAX_G11_T36  -299
    U_G11_T36  PMIN_G11_T36  -47
    MARK1463  'MARKER'                 'INTEND'
    MARK1464  'MARKER'                 'INTORG'
    U_G12_T36  TOTAL_COST  248
    U_G12_T36  RESERVE_T36  206
    U_G12_T36  PMAX_G12_T36  -206
    U_G12_T36  PMIN_G12_T36  -72
    MARK1465  'MARKER'                 'INTEND'
    MARK1466  'MARKER'                 'INTORG'
    U_G13_T36  TOTAL_COST  209
    U_G13_T36  RESERVE_T36  173
    U_G13_T36  PMAX_G13_T36  -173
    U_G13_T36  PMIN_G13_T36  -39
    MARK1467  'MARKER'                 'INTEND'
    MARK1468  'MARKER'                 'INTORG'
    U_G14_T36  TOTAL_COST  295
    U_G14_T36  RESERVE_T36  243
    U_G14_T36  PMAX_G14_T36  -243
    U_G14_T36  PMIN_G14_T36  -38
    MARK1469  'MARKER'                 'INTEND'
    MARK1470  'MARKER'                 'INTORG'
    U_G15_T36  TOTAL_COST  221
    U_G15_T36  RESERVE_T36  237
    U_G15_T36  PMAX_G15_T36  -237
    U_G15_T36  PMIN_G15_T36  -67
    MARK1471  'MARKER'                 'INTEND'
    MARK1472  'MARKER'                 'INTORG'
    U_G16_T36  TOTAL_COST  278
    U_G16_T36  RESERVE_T36  174
    U_G16_T36  PMAX_G16_T36  -174
    U_G16_T36  PMIN_G16_T36  -41
    MARK1473  'MARKER'                 'INTEND'
    MARK1474  'MARKER'                 'INTORG'
    U_G17_T36  TOTAL_COST  256
    U_G17_T36  RESERVE_T36  232
    U_G17_T36  PMAX_G17_T36  -232
    U_G17_T36  PMIN_G17_T36  -28
    MARK1475  'MARKER'                 'INTEND'
    MARK1476  'MARKER'                 'INTORG'
    U_G18_T36  TOTAL_COST  284
    U_G18_T36  RESERVE_T36  186
    U_G18_T36  PMAX_G18_T36  -186
    U_G18_T36  PMIN_G18_T36  -24
    MARK1477  'MARKER'                 'INTEND'
    MARK1478  'MARKER'                 'INTORG'
    U_G19_T36  TOTAL_COST  259
    U_G19_T36  RESERVE_T36  253
    U_G19_T36  PMAX_G19_T36  -253
    U_G19_T36  PMIN_G19_T36  -76
    MARK1479  'MARKER'                 'INTEND'
    P_G0_T36  TOTAL_COST  50.1
    P_G0_T36  DEMAND_T36  1
    P_G0_T36  PMAX_G0_T36  1
    P_G0_T36  PMIN_G0_T36  1
    P_G0_T36  RAMPUP_G0_T36  1
    P_G0_T36  RAMPDN_G0_T36  -1
    P_G0_T36  RAMPUP_G0_T37  -1
    P_G0_T36  RAMPDN_G0_T37  1
    P_G1_T36  TOTAL_COST  34.9
    P_G1_T36  DEMAND_T36  1
    P_G1_T36  PMAX_G1_T36  1
    P_G1_T36  PMIN_G1_T36  1
    P_G1_T36  RAMPUP_G1_T36  1
    P_G1_T36  RAMPDN_G1_T36  -1
    P_G1_T36  RAMPUP_G1_T37  -1
    P_G1_T36  RAMPDN_G1_T37  1
    P_G2_T36  TOTAL_COST  47.4
    P_G2_T36  DEMAND_T36  1
    P_G2_T36  PMAX_G2_T36  1
    P_G2_T36  PMIN_G2_T36  1
    P_G2_T36  RAMPUP_G2_T36  1
    P_G2_T36  RAMPDN_G2_T36  -1
    P_G2_T36  RAMPUP_G2_T37  -1
    P_G2_T36  RAMPDN_G2_T37  1
    P_G3_T36  TOTAL_COST  38
    P_G3_T36  DEMAND_T36  1
    P_G3_T36  PMAX_G3_T36  1
    P_G3_T36  PMIN_G3_T36  1
    P_G3_T36  RAMPUP_G3_T36  1
    P_G3_T36  RAMPDN_G3_T36  -1
    P_G3_T36  RAMPUP_G3_T37  -1
    P_G3_T36  RAMPDN_G3_T37  1
    P_G4_T36  TOTAL_COST  37
    P_G4_T36  DEMAND_T36  1
    P_G4_T36  PMAX_G4_T36  1
    P_G4_T36  PMIN_G4_T36  1
    P_G4_T36  RAMPUP_G4_T36  1
    P_G4_T36  RAMPDN_G4_T36  -1
    P_G4_T36  RAMPUP_G4_T37  -1
    P_G4_T36  RAMPDN_G4_T37  1
    P_G5_T36  TOTAL_COST  37.8
    P_G5_T36  DEMAND_T36  1
    P_G5_T36  PMAX_G5_T36  1
    P_G5_T36  PMIN_G5_T36  1
    P_G5_T36  RAMPUP_G5_T36  1
    P_G5_T36  RAMPDN_G5_T36  -1
    P_G5_T36  RAMPUP_G5_T37  -1
    P_G5_T36  RAMPDN_G5_T37  1
    P_G6_T36  TOTAL_COST  50
    P_G6_T36  DEMAND_T36  1
    P_G6_T36  PMAX_G6_T36  1
    P_G6_T36  PMIN_G6_T36  1
    P_G6_T36  RAMPUP_G6_T36  1
    P_G6_T36  RAMPDN_G6_T36  -1
    P_G6_T36  RAMPUP_G6_T37  -1
    P_G6_T36  RAMPDN_G6_T37  1
    P_G7_T36  TOTAL_COST  36.6
    P_G7_T36  DEMAND_T36  1
    P_G7_T36  PMAX_G7_T36  1
    P_G7_T36  PMIN_G7_T36  1
    P_G7_T36  RAMPUP_G7_T36  1
    P_G7_T36  RAMPDN_G7_T36  -1
    P_G7_T36  RAMPUP_G7_T37  -1
    P_G7_T36  RAMPDN_G7_T37  1
    P_G8_T36  TOTAL_COST  41.5
    P_G8_T36  DEMAND_T36  1
    P_G8_T36  PMAX_G8_T36  1
    P_G8_T36  PMIN_G8_T36  1
    P_G8_T36  RAMPUP_G8_T36  1
    P_G8_T36  RAMPDN_G8_T36  -1
    P_G8_T36  RAMPUP_G8_T37  -1
    P_G8_T36  RAMPDN_G8_T37  1
    P_G9_T36  TOTAL_COST  35.4
    P_G9_T36  DEMAND_T36  1
    P_G9_T36  PMAX_G9_T36  1
    P_G9_T36  PMIN_G9_T36  1
    P_G9_T36  RAMPUP_G9_T36  1
    P_G9_T36  RAMPDN_G9_T36  -1
    P_G9_T36  RAMPUP_G9_T37  -1
    P_G9_T36  RAMPDN_G9_T37  1
    P_G10_T36  TOTAL_COST  23
    P_G10_T36  DEMAND_T36  1
    P_G10_T36  PMAX_G10_T36  1
    P_G10_T36  PMIN_G10_T36  1
    P_G10_T36  RAMPUP_G10_T36  1
    P_G10_T36  RAMPDN_G10_T36  -1
    P_G10_T36  RAMPUP_G10_T37  -1
    P_G10_T36  RAMPDN_G10_T37  1
    P_G11_T36  TOTAL_COST  43.8
    P_G11_T36  DEMAND_T36  1
    P_G11_T36  PMAX_G11_T36  1
    P_G11_T36  PMIN_G11_T36  1
    P_G11_T36  RAMPUP_G11_T36  1
    P_G11_T36  RAMPDN_G11_T36  -1
    P_G11_T36  RAMPUP_G11_T37  -1
    P_G11_T36  RAMPDN_G11_T37  1
    P_G12_T36  TOTAL_COST  53
    P_G12_T36  DEMAND_T36  1
    P_G12_T36  PMAX_G12_T36  1
    P_G12_T36  PMIN_G12_T36  1
    P_G12_T36  RAMPUP_G12_T36  1
    P_G12_T36  RAMPDN_G12_T36  -1
    P_G12_T36  RAMPUP_G12_T37  -1
    P_G12_T36  RAMPDN_G12_T37  1
    P_G13_T36  TOTAL_COST  40.9
    P_G13_T36  DEMAND_T36  1
    P_G13_T36  PMAX_G13_T36  1
    P_G13_T36  PMIN_G13_T36  1
    P_G13_T36  RAMPUP_G13_T36  1
    P_G13_T36  RAMPDN_G13_T36  -1
    P_G13_T36  RAMPUP_G13_T37  -1
    P_G13_T36  RAMPDN_G13_T37  1
    P_G14_T36  TOTAL_COST  49.2
    P_G14_T36  DEMAND_T36  1
    P_G14_T36  PMAX_G14_T36  1
    P_G14_T36  PMIN_G14_T36  1
    P_G14_T36  RAMPUP_G14_T36  1
    P_G14_T36  RAMPDN_G14_T36  -1
    P_G14_T36  RAMPUP_G14_T37  -1
    P_G14_T36  RAMPDN_G14_T37  1
    P_G15_T36  TOTAL_COST  51.8
    P_G15_T36  DEMAND_T36  1
    P_G15_T36  PMAX_G15_T36  1
    P_G15_T36  PMIN_G15_T36  1
    P_G15_T36  RAMPUP_G15_T36  1
    P_G15_T36  RAMPDN_G15_T36  -1
    P_G15_T36  RAMPUP_G15_T37  -1
    P_G15_T36  RAMPDN_G15_T37  1
    P_G16_T36  TOTAL_COST  49.5
    P_G16_T36  DEMAND_T36  1
    P_G16_T36  PMAX_G16_T36  1
    P_G16_T36  PMIN_G16_T36  1
    P_G16_T36  RAMPUP_G16_T36  1
    P_G16_T36  RAMPDN_G16_T36  -1
    P_G16_T36  RAMPUP_G16_T37  -1
    P_G16_T36  RAMPDN_G16_T37  1
    P_G17_T36  TOTAL_COST  43.7
    P_G17_T36  DEMAND_T36  1
    P_G17_T36  PMAX_G17_T36  1
    P_G17_T36  PMIN_G17_T36  1
    P_G17_T36  RAMPUP_G17_T36  1
    P_G17_T36  RAMPDN_G17_T36  -1
    P_G17_T36  RAMPUP_G17_T37  -1
    P_G17_T36  RAMPDN_G17_T37  1
    P_G18_T36  TOTAL_COST  49.4
    P_G18_T36  DEMAND_T36  1
    P_G18_T36  PMAX_G18_T36  1
    P_G18_T36  PMIN_G18_T36  1
    P_G18_T36  RAMPUP_G18_T36  1
    P_G18_T36  RAMPDN_G18_T36  -1
    P_G18_T36  RAMPUP_G18_T37  -1
    P_G18_T36  RAMPDN_G18_T37  1
    P_G19_T36  TOTAL_COST  29.2
    P_G19_T36  DEMAND_T36  1
    P_G19_T36  PMAX_G19_T36  1
    P_G19_T36  PMIN_G19_T36  1
    P_G19_T36  RAMPUP_G19_T36  1
    P_G19_T36  RAMPDN_G19_T36  -1
    P_G19_T36  RAMPUP_G19_T37  -1
    P_G19_T36  RAMPDN_G19_T37  1
    MARK1480  'MARKER'                 'INTORG'
    U_G0_T37  TOTAL_COST  141
    U_G0_T37  RESERVE_T37  235
    U_G0_T37  PMAX_G0_T37  -235
    U_G0_T37  PMIN_G0_T37  -65
    MARK1481  'MARKER'                 'INTEND'
    MARK1482  'MARKER'                 'INTORG'
    U_G1_T37  TOTAL_COST  182
    U_G1_T37  RESERVE_T37  223
    U_G1_T37  PMAX_G1_T37  -223
    U_G1_T37  PMIN_G1_T37  -26
    MARK1483  'MARKER'                 'INTEND'
    MARK1484  'MARKER'                 'INTORG'
    U_G2_T37  TOTAL_COST  291
    U_G2_T37  RESERVE_T37  214
    U_G2_T37  PMAX_G2_T37  -214
    U_G2_T37  PMIN_G2_T37  -21
    MARK1485  'MARKER'                 'INTEND'
    MARK1486  'MARKER'                 'INTORG'
    U_G3_T37  TOTAL_COST  114
    U_G3_T37  RESERVE_T37  256
    U_G3_T37  PMAX_G3_T37  -256
    U_G3_T37  PMIN_G3_T37  -77
    MARK1487  'MARKER'                 'INTEND'
    MARK1488  'MARKER'                 'INTORG'
    U_G4_T37  TOTAL_COST  130
    U_G4_T37  RESERVE_T37  147
    U_G4_T37  PMAX_G4_T37  -147
    U_G4_T37  PMIN_G4_T37  -65
    MARK1489  'MARKER'                 'INTEND'
    MARK1490  'MARKER'                 'INTORG'
    U_G5_T37  TOTAL_COST  332
    U_G5_T37  RESERVE_T37  215
    U_G5_T37  PMAX_G5_T37  -215
    U_G5_T37  PMIN_G5_T37  -26
    MARK1491  'MARKER'                 'INTEND'
    MARK1492  'MARKER'                 'INTORG'
    U_G6_T37  TOTAL_COST  341
    U_G6_T37  RESERVE_T37  178
    U_G6_T37  PMAX_G6_T37  -178
    U_G6_T37  PMIN_G6_T37  -65
    MARK1493  'MARKER'                 'INTEND'
    MARK1494  'MARKER'                 'INTORG'
    U_G7_T37  TOTAL_COST  189
    U_G7_T37  RESERVE_T37  254
    U_G7_T37  PMAX_G7_T37  -254
    U_G7_T37  PMIN_G7_T37  -76
    MARK1495  'MARKER'                 'INTEND'
    MARK1496  'MARKER'                 'INTORG'
    U_G8_T37  TOTAL_COST  247
    U_G8_T37  RESERVE_T37  203
    U_G8_T37  PMAX_G8_T37  -203
    U_G8_T37  PMIN_G8_T37  -62
    MARK1497  'MARKER'                 'INTEND'
    MARK1498  'MARKER'                 'INTORG'
    U_G9_T37  TOTAL_COST  300
    U_G9_T37  RESERVE_T37  209
    U_G9_T37  PMAX_G9_T37  -209
    U_G9_T37  PMIN_G9_T37  -56
    MARK1499  'MARKER'                 'INTEND'
    MARK1500  'MARKER'                 'INTORG'
    U_G10_T37  TOTAL_COST  346
    U_G10_T37  RESERVE_T37  136
    U_G10_T37  PMAX_G10_T37  -136
    U_G10_T37  PMIN_G10_T37  -46
    MARK1501  'MARKER'                 'INTEND'
    MARK1502  'MARKER'                 'INTORG'
    U_G11_T37  TOTAL_COST  286
    U_G11_T37  RESERVE_T37  299
    U_G11_T37  PMAX_G11_T37  -299
    U_G11_T37  PMIN_G11_T37  -47
    MARK1503  'MARKER'                 'INTEND'
    MARK1504  'MARKER'                 'INTORG'
    U_G12_T37  TOTAL_COST  248
    U_G12_T37  RESERVE_T37  206
    U_G12_T37  PMAX_G12_T37  -206
    U_G12_T37  PMIN_G12_T37  -72
    MARK1505  'MARKER'                 'INTEND'
    MARK1506  'MARKER'                 'INTORG'
    U_G13_T37  TOTAL_COST  209
    U_G13_T37  RESERVE_T37  173
    U_G13_T37  PMAX_G13_T37  -173
    U_G13_T37  PMIN_G13_T37  -39
    MARK1507  'MARKER'                 'INTEND'
    MARK1508  'MARKER'                 'INTORG'
    U_G14_T37  TOTAL_COST  295
    U_G14_T37  RESERVE_T37  243
    U_G14_T37  PMAX_G14_T37  -243
    U_G14_T37  PMIN_G14_T37  -38
    MARK1509  'MARKER'                 'INTEND'
    MARK1510  'MARKER'                 'INTORG'
    U_G15_T37  TOTAL_COST  221
    U_G15_T37  RESERVE_T37  237
    U_G15_T37  PMAX_G15_T37  -237
    U_G15_T37  PMIN_G15_T37  -67
    MARK1511  'MARKER'                 'INTEND'
    MARK1512  'MARKER'                 'INTORG'
    U_G16_T37  TOTAL_COST  278
    U_G16_T37  RESERVE_T37  174
    U_G16_T37  PMAX_G16_T37  -174
    U_G16_T37  PMIN_G16_T37  -41
    MARK1513  'MARKER'                 'INTEND'
    MARK1514  'MARKER'                 'INTORG'
    U_G17_T37  TOTAL_COST  256
    U_G17_T37  RESERVE_T37  232
    U_G17_T37  PMAX_G17_T37  -232
    U_G17_T37  PMIN_G17_T37  -28
    MARK1515  'MARKER'                 'INTEND'
    MARK1516  'MARKER'                 'INTORG'
    U_G18_T37  TOTAL_COST  284
    U_G18_T37  RESERVE_T37  186
    U_G18_T37  PMAX_G18_T37  -186
    U_G18_T37  PMIN_G18_T37  -24
    MARK1517  'MARKER'                 'INTEND'
    MARK1518  'MARKER'                 'INTORG'
    U_G19_T37  TOTAL_COST  259
    U_G19_T37  RESERVE_T37  253
    U_G19_T37  PMAX_G19_T37  -253
    U_G19_T37  PMIN_G19_T37  -76
    MARK1519  'MARKER'                 'INTEND'
    P_G0_T37  TOTAL_COST  50.1
    P_G0_T37  DEMAND_T37  1
    P_G0_T37  PMAX_G0_T37  1
    P_G0_T37  PMIN_G0_T37  1
    P_G0_T37  RAMPUP_G0_T37  1
    P_G0_T37  RAMPDN_G0_T37  -1
    P_G0_T37  RAMPUP_G0_T38  -1
    P_G0_T37  RAMPDN_G0_T38  1
    P_G1_T37  TOTAL_COST  34.9
    P_G1_T37  DEMAND_T37  1
    P_G1_T37  PMAX_G1_T37  1
    P_G1_T37  PMIN_G1_T37  1
    P_G1_T37  RAMPUP_G1_T37  1
    P_G1_T37  RAMPDN_G1_T37  -1
    P_G1_T37  RAMPUP_G1_T38  -1
    P_G1_T37  RAMPDN_G1_T38  1
    P_G2_T37  TOTAL_COST  47.4
    P_G2_T37  DEMAND_T37  1
    P_G2_T37  PMAX_G2_T37  1
    P_G2_T37  PMIN_G2_T37  1
    P_G2_T37  RAMPUP_G2_T37  1
    P_G2_T37  RAMPDN_G2_T37  -1
    P_G2_T37  RAMPUP_G2_T38  -1
    P_G2_T37  RAMPDN_G2_T38  1
    P_G3_T37  TOTAL_COST  38
    P_G3_T37  DEMAND_T37  1
    P_G3_T37  PMAX_G3_T37  1
    P_G3_T37  PMIN_G3_T37  1
    P_G3_T37  RAMPUP_G3_T37  1
    P_G3_T37  RAMPDN_G3_T37  -1
    P_G3_T37  RAMPUP_G3_T38  -1
    P_G3_T37  RAMPDN_G3_T38  1
    P_G4_T37  TOTAL_COST  37
    P_G4_T37  DEMAND_T37  1
    P_G4_T37  PMAX_G4_T37  1
    P_G4_T37  PMIN_G4_T37  1
    P_G4_T37  RAMPUP_G4_T37  1
    P_G4_T37  RAMPDN_G4_T37  -1
    P_G4_T37  RAMPUP_G4_T38  -1
    P_G4_T37  RAMPDN_G4_T38  1
    P_G5_T37  TOTAL_COST  37.8
    P_G5_T37  DEMAND_T37  1
    P_G5_T37  PMAX_G5_T37  1
    P_G5_T37  PMIN_G5_T37  1
    P_G5_T37  RAMPUP_G5_T37  1
    P_G5_T37  RAMPDN_G5_T37  -1
    P_G5_T37  RAMPUP_G5_T38  -1
    P_G5_T37  RAMPDN_G5_T38  1
    P_G6_T37  TOTAL_COST  50
    P_G6_T37  DEMAND_T37  1
    P_G6_T37  PMAX_G6_T37  1
    P_G6_T37  PMIN_G6_T37  1
    P_G6_T37  RAMPUP_G6_T37  1
    P_G6_T37  RAMPDN_G6_T37  -1
    P_G6_T37  RAMPUP_G6_T38  -1
    P_G6_T37  RAMPDN_G6_T38  1
    P_G7_T37  TOTAL_COST  36.6
    P_G7_T37  DEMAND_T37  1
    P_G7_T37  PMAX_G7_T37  1
    P_G7_T37  PMIN_G7_T37  1
    P_G7_T37  RAMPUP_G7_T37  1
    P_G7_T37  RAMPDN_G7_T37  -1
    P_G7_T37  RAMPUP_G7_T38  -1
    P_G7_T37  RAMPDN_G7_T38  1
    P_G8_T37  TOTAL_COST  41.5
    P_G8_T37  DEMAND_T37  1
    P_G8_T37  PMAX_G8_T37  1
    P_G8_T37  PMIN_G8_T37  1
    P_G8_T37  RAMPUP_G8_T37  1
    P_G8_T37  RAMPDN_G8_T37  -1
    P_G8_T37  RAMPUP_G8_T38  -1
    P_G8_T37  RAMPDN_G8_T38  1
    P_G9_T37  TOTAL_COST  35.4
    P_G9_T37  DEMAND_T37  1
    P_G9_T37  PMAX_G9_T37  1
    P_G9_T37  PMIN_G9_T37  1
    P_G9_T37  RAMPUP_G9_T37  1
    P_G9_T37  RAMPDN_G9_T37  -1
    P_G9_T37  RAMPUP_G9_T38  -1
    P_G9_T37  RAMPDN_G9_T38  1
    P_G10_T37  TOTAL_COST  23
    P_G10_T37  DEMAND_T37  1
    P_G10_T37  PMAX_G10_T37  1
    P_G10_T37  PMIN_G10_T37  1
    P_G10_T37  RAMPUP_G10_T37  1
    P_G10_T37  RAMPDN_G10_T37  -1
    P_G10_T37  RAMPUP_G10_T38  -1
    P_G10_T37  RAMPDN_G10_T38  1
    P_G11_T37  TOTAL_COST  43.8
    P_G11_T37  DEMAND_T37  1
    P_G11_T37  PMAX_G11_T37  1
    P_G11_T37  PMIN_G11_T37  1
    P_G11_T37  RAMPUP_G11_T37  1
    P_G11_T37  RAMPDN_G11_T37  -1
    P_G11_T37  RAMPUP_G11_T38  -1
    P_G11_T37  RAMPDN_G11_T38  1
    P_G12_T37  TOTAL_COST  53
    P_G12_T37  DEMAND_T37  1
    P_G12_T37  PMAX_G12_T37  1
    P_G12_T37  PMIN_G12_T37  1
    P_G12_T37  RAMPUP_G12_T37  1
    P_G12_T37  RAMPDN_G12_T37  -1
    P_G12_T37  RAMPUP_G12_T38  -1
    P_G12_T37  RAMPDN_G12_T38  1
    P_G13_T37  TOTAL_COST  40.9
    P_G13_T37  DEMAND_T37  1
    P_G13_T37  PMAX_G13_T37  1
    P_G13_T37  PMIN_G13_T37  1
    P_G13_T37  RAMPUP_G13_T37  1
    P_G13_T37  RAMPDN_G13_T37  -1
    P_G13_T37  RAMPUP_G13_T38  -1
    P_G13_T37  RAMPDN_G13_T38  1
    P_G14_T37  TOTAL_COST  49.2
    P_G14_T37  DEMAND_T37  1
    P_G14_T37  PMAX_G14_T37  1
    P_G14_T37  PMIN_G14_T37  1
    P_G14_T37  RAMPUP_G14_T37  1
    P_G14_T37  RAMPDN_G14_T37  -1
    P_G14_T37  RAMPUP_G14_T38  -1
    P_G14_T37  RAMPDN_G14_T38  1
    P_G15_T37  TOTAL_COST  51.8
    P_G15_T37  DEMAND_T37  1
    P_G15_T37  PMAX_G15_T37  1
    P_G15_T37  PMIN_G15_T37  1
    P_G15_T37  RAMPUP_G15_T37  1
    P_G15_T37  RAMPDN_G15_T37  -1
    P_G15_T37  RAMPUP_G15_T38  -1
    P_G15_T37  RAMPDN_G15_T38  1
    P_G16_T37  TOTAL_COST  49.5
    P_G16_T37  DEMAND_T37  1
    P_G16_T37  PMAX_G16_T37  1
    P_G16_T37  PMIN_G16_T37  1
    P_G16_T37  RAMPUP_G16_T37  1
    P_G16_T37  RAMPDN_G16_T37  -1
    P_G16_T37  RAMPUP_G16_T38  -1
    P_G16_T37  RAMPDN_G16_T38  1
    P_G17_T37  TOTAL_COST  43.7
    P_G17_T37  DEMAND_T37  1
    P_G17_T37  PMAX_G17_T37  1
    P_G17_T37  PMIN_G17_T37  1
    P_G17_T37  RAMPUP_G17_T37  1
    P_G17_T37  RAMPDN_G17_T37  -1
    P_G17_T37  RAMPUP_G17_T38  -1
    P_G17_T37  RAMPDN_G17_T38  1
    P_G18_T37  TOTAL_COST  49.4
    P_G18_T37  DEMAND_T37  1
    P_G18_T37  PMAX_G18_T37  1
    P_G18_T37  PMIN_G18_T37  1
    P_G18_T37  RAMPUP_G18_T37  1
    P_G18_T37  RAMPDN_G18_T37  -1
    P_G18_T37  RAMPUP_G18_T38  -1
    P_G18_T37  RAMPDN_G18_T38  1
    P_G19_T37  TOTAL_COST  29.2
    P_G19_T37  DEMAND_T37  1
    P_G19_T37  PMAX_G19_T37  1
    P_G19_T37  PMIN_G19_T37  1
    P_G19_T37  RAMPUP_G19_T37  1
    P_G19_T37  RAMPDN_G19_T37  -1
    P_G19_T37  RAMPUP_G19_T38  -1
    P_G19_T37  RAMPDN_G19_T38  1
    MARK1520  'MARKER'                 'INTORG'
    U_G0_T38  TOTAL_COST  141
    U_G0_T38  RESERVE_T38  235
    U_G0_T38  PMAX_G0_T38  -235
    U_G0_T38  PMIN_G0_T38  -65
    MARK1521  'MARKER'                 'INTEND'
    MARK1522  'MARKER'                 'INTORG'
    U_G1_T38  TOTAL_COST  182
    U_G1_T38  RESERVE_T38  223
    U_G1_T38  PMAX_G1_T38  -223
    U_G1_T38  PMIN_G1_T38  -26
    MARK1523  'MARKER'                 'INTEND'
    MARK1524  'MARKER'                 'INTORG'
    U_G2_T38  TOTAL_COST  291
    U_G2_T38  RESERVE_T38  214
    U_G2_T38  PMAX_G2_T38  -214
    U_G2_T38  PMIN_G2_T38  -21
    MARK1525  'MARKER'                 'INTEND'
    MARK1526  'MARKER'                 'INTORG'
    U_G3_T38  TOTAL_COST  114
    U_G3_T38  RESERVE_T38  256
    U_G3_T38  PMAX_G3_T38  -256
    U_G3_T38  PMIN_G3_T38  -77
    MARK1527  'MARKER'                 'INTEND'
    MARK1528  'MARKER'                 'INTORG'
    U_G4_T38  TOTAL_COST  130
    U_G4_T38  RESERVE_T38  147
    U_G4_T38  PMAX_G4_T38  -147
    U_G4_T38  PMIN_G4_T38  -65
    MARK1529  'MARKER'                 'INTEND'
    MARK1530  'MARKER'                 'INTORG'
    U_G5_T38  TOTAL_COST  332
    U_G5_T38  RESERVE_T38  215
    U_G5_T38  PMAX_G5_T38  -215
    U_G5_T38  PMIN_G5_T38  -26
    MARK1531  'MARKER'                 'INTEND'
    MARK1532  'MARKER'                 'INTORG'
    U_G6_T38  TOTAL_COST  341
    U_G6_T38  RESERVE_T38  178
    U_G6_T38  PMAX_G6_T38  -178
    U_G6_T38  PMIN_G6_T38  -65
    MARK1533  'MARKER'                 'INTEND'
    MARK1534  'MARKER'                 'INTORG'
    U_G7_T38  TOTAL_COST  189
    U_G7_T38  RESERVE_T38  254
    U_G7_T38  PMAX_G7_T38  -254
    U_G7_T38  PMIN_G7_T38  -76
    MARK1535  'MARKER'                 'INTEND'
    MARK1536  'MARKER'                 'INTORG'
    U_G8_T38  TOTAL_COST  247
    U_G8_T38  RESERVE_T38  203
    U_G8_T38  PMAX_G8_T38  -203
    U_G8_T38  PMIN_G8_T38  -62
    MARK1537  'MARKER'                 'INTEND'
    MARK1538  'MARKER'                 'INTORG'
    U_G9_T38  TOTAL_COST  300
    U_G9_T38  RESERVE_T38  209
    U_G9_T38  PMAX_G9_T38  -209
    U_G9_T38  PMIN_G9_T38  -56
    MARK1539  'MARKER'                 'INTEND'
    MARK1540  'MARKER'                 'INTORG'
    U_G10_T38  TOTAL_COST  346
    U_G10_T38  RESERVE_T38  136
    U_G10_T38  PMAX_G10_T38  -136
    U_G10_T38  PMIN_G10_T38  -46
    MARK1541  'MARKER'                 'INTEND'
    MARK1542  'MARKER'                 'INTORG'
    U_G11_T38  TOTAL_COST  286
    U_G11_T38  RESERVE_T38  299
    U_G11_T38  PMAX_G11_T38  -299
    U_G11_T38  PMIN_G11_T38  -47
    MARK1543  'MARKER'                 'INTEND'
    MARK1544  'MARKER'                 'INTORG'
    U_G12_T38  TOTAL_COST  248
    U_G12_T38  RESERVE_T38  206
    U_G12_T38  PMAX_G12_T38  -206
    U_G12_T38  PMIN_G12_T38  -72
    MARK1545  'MARKER'                 'INTEND'
    MARK1546  'MARKER'                 'INTORG'
    U_G13_T38  TOTAL_COST  209
    U_G13_T38  RESERVE_T38  173
    U_G13_T38  PMAX_G13_T38  -173
    U_G13_T38  PMIN_G13_T38  -39
    MARK1547  'MARKER'                 'INTEND'
    MARK1548  'MARKER'                 'INTORG'
    U_G14_T38  TOTAL_COST  295
    U_G14_T38  RESERVE_T38  243
    U_G14_T38  PMAX_G14_T38  -243
    U_G14_T38  PMIN_G14_T38  -38
    MARK1549  'MARKER'                 'INTEND'
    MARK1550  'MARKER'                 'INTORG'
    U_G15_T38  TOTAL_COST  221
    U_G15_T38  RESERVE_T38  237
    U_G15_T38  PMAX_G15_T38  -237
    U_G15_T38  PMIN_G15_T38  -67
    MARK1551  'MARKER'                 'INTEND'
    MARK1552  'MARKER'                 'INTORG'
    U_G16_T38  TOTAL_COST  278
    U_G16_T38  RESERVE_T38  174
    U_G16_T38  PMAX_G16_T38  -174
    U_G16_T38  PMIN_G16_T38  -41
    MARK1553  'MARKER'                 'INTEND'
    MARK1554  'MARKER'                 'INTORG'
    U_G17_T38  TOTAL_COST  256
    U_G17_T38  RESERVE_T38  232
    U_G17_T38  PMAX_G17_T38  -232
    U_G17_T38  PMIN_G17_T38  -28
    MARK1555  'MARKER'                 'INTEND'
    MARK1556  'MARKER'                 'INTORG'
    U_G18_T38  TOTAL_COST  284
    U_G18_T38  RESERVE_T38  186
    U_G18_T38  PMAX_G18_T38  -186
    U_G18_T38  PMIN_G18_T38  -24
    MARK1557  'MARKER'                 'INTEND'
    MARK1558  'MARKER'                 'INTORG'
    U_G19_T38  TOTAL_COST  259
    U_G19_T38  RESERVE_T38  253
    U_G19_T38  PMAX_G19_T38  -253
    U_G19_T38  PMIN_G19_T38  -76
    MARK1559  'MARKER'                 'INTEND'
    P_G0_T38  TOTAL_COST  50.1
    P_G0_T38  DEMAND_T38  1
    P_G0_T38  PMAX_G0_T38  1
    P_G0_T38  PMIN_G0_T38  1
    P_G0_T38  RAMPUP_G0_T38  1
    P_G0_T38  RAMPDN_G0_T38  -1
    P_G0_T38  RAMPUP_G0_T39  -1
    P_G0_T38  RAMPDN_G0_T39  1
    P_G1_T38  TOTAL_COST  34.9
    P_G1_T38  DEMAND_T38  1
    P_G1_T38  PMAX_G1_T38  1
    P_G1_T38  PMIN_G1_T38  1
    P_G1_T38  RAMPUP_G1_T38  1
    P_G1_T38  RAMPDN_G1_T38  -1
    P_G1_T38  RAMPUP_G1_T39  -1
    P_G1_T38  RAMPDN_G1_T39  1
    P_G2_T38  TOTAL_COST  47.4
    P_G2_T38  DEMAND_T38  1
    P_G2_T38  PMAX_G2_T38  1
    P_G2_T38  PMIN_G2_T38  1
    P_G2_T38  RAMPUP_G2_T38  1
    P_G2_T38  RAMPDN_G2_T38  -1
    P_G2_T38  RAMPUP_G2_T39  -1
    P_G2_T38  RAMPDN_G2_T39  1
    P_G3_T38  TOTAL_COST  38
    P_G3_T38  DEMAND_T38  1
    P_G3_T38  PMAX_G3_T38  1
    P_G3_T38  PMIN_G3_T38  1
    P_G3_T38  RAMPUP_G3_T38  1
    P_G3_T38  RAMPDN_G3_T38  -1
    P_G3_T38  RAMPUP_G3_T39  -1
    P_G3_T38  RAMPDN_G3_T39  1
    P_G4_T38  TOTAL_COST  37
    P_G4_T38  DEMAND_T38  1
    P_G4_T38  PMAX_G4_T38  1
    P_G4_T38  PMIN_G4_T38  1
    P_G4_T38  RAMPUP_G4_T38  1
    P_G4_T38  RAMPDN_G4_T38  -1
    P_G4_T38  RAMPUP_G4_T39  -1
    P_G4_T38  RAMPDN_G4_T39  1
    P_G5_T38  TOTAL_COST  37.8
    P_G5_T38  DEMAND_T38  1
    P_G5_T38  PMAX_G5_T38  1
    P_G5_T38  PMIN_G5_T38  1
    P_G5_T38  RAMPUP_G5_T38  1
    P_G5_T38  RAMPDN_G5_T38  -1
    P_G5_T38  RAMPUP_G5_T39  -1
    P_G5_T38  RAMPDN_G5_T39  1
    P_G6_T38  TOTAL_COST  50
    P_G6_T38  DEMAND_T38  1
    P_G6_T38  PMAX_G6_T38  1
    P_G6_T38  PMIN_G6_T38  1
    P_G6_T38  RAMPUP_G6_T38  1
    P_G6_T38  RAMPDN_G6_T38  -1
    P_G6_T38  RAMPUP_G6_T39  -1
    P_G6_T38  RAMPDN_G6_T39  1
    P_G7_T38  TOTAL_COST  36.6
    P_G7_T38  DEMAND_T38  1
    P_G7_T38  PMAX_G7_T38  1
    P_G7_T38  PMIN_G7_T38  1
    P_G7_T38  RAMPUP_G7_T38  1
    P_G7_T38  RAMPDN_G7_T38  -1
    P_G7_T38  RAMPUP_G7_T39  -1
    P_G7_T38  RAMPDN_G7_T39  1
    P_G8_T38  TOTAL_COST  41.5
    P_G8_T38  DEMAND_T38  1
    P_G8_T38  PMAX_G8_T38  1
    P_G8_T38  PMIN_G8_T38  1
    P_G8_T38  RAMPUP_G8_T38  1
    P_G8_T38  RAMPDN_G8_T38  -1
    P_G8_T38  RAMPUP_G8_T39  -1
    P_G8_T38  RAMPDN_G8_T39  1
    P_G9_T38  TOTAL_COST  35.4
    P_G9_T38  DEMAND_T38  1
    P_G9_T38  PMAX_G9_T38  1
    P_G9_T38  PMIN_G9_T38  1
    P_G9_T38  RAMPUP_G9_T38  1
    P_G9_T38  RAMPDN_G9_T38  -1
    P_G9_T38  RAMPUP_G9_T39  -1
    P_G9_T38  RAMPDN_G9_T39  1
    P_G10_T38  TOTAL_COST  23
    P_G10_T38  DEMAND_T38  1
    P_G10_T38  PMAX_G10_T38  1
    P_G10_T38  PMIN_G10_T38  1
    P_G10_T38  RAMPUP_G10_T38  1
    P_G10_T38  RAMPDN_G10_T38  -1
    P_G10_T38  RAMPUP_G10_T39  -1
    P_G10_T38  RAMPDN_G10_T39  1
    P_G11_T38  TOTAL_COST  43.8
    P_G11_T38  DEMAND_T38  1
    P_G11_T38  PMAX_G11_T38  1
    P_G11_T38  PMIN_G11_T38  1
    P_G11_T38  RAMPUP_G11_T38  1
    P_G11_T38  RAMPDN_G11_T38  -1
    P_G11_T38  RAMPUP_G11_T39  -1
    P_G11_T38  RAMPDN_G11_T39  1
    P_G12_T38  TOTAL_COST  53
    P_G12_T38  DEMAND_T38  1
    P_G12_T38  PMAX_G12_T38  1
    P_G12_T38  PMIN_G12_T38  1
    P_G12_T38  RAMPUP_G12_T38  1
    P_G12_T38  RAMPDN_G12_T38  -1
    P_G12_T38  RAMPUP_G12_T39  -1
    P_G12_T38  RAMPDN_G12_T39  1
    P_G13_T38  TOTAL_COST  40.9
    P_G13_T38  DEMAND_T38  1
    P_G13_T38  PMAX_G13_T38  1
    P_G13_T38  PMIN_G13_T38  1
    P_G13_T38  RAMPUP_G13_T38  1
    P_G13_T38  RAMPDN_G13_T38  -1
    P_G13_T38  RAMPUP_G13_T39  -1
    P_G13_T38  RAMPDN_G13_T39  1
    P_G14_T38  TOTAL_COST  49.2
    P_G14_T38  DEMAND_T38  1
    P_G14_T38  PMAX_G14_T38  1
    P_G14_T38  PMIN_G14_T38  1
    P_G14_T38  RAMPUP_G14_T38  1
    P_G14_T38  RAMPDN_G14_T38  -1
    P_G14_T38  RAMPUP_G14_T39  -1
    P_G14_T38  RAMPDN_G14_T39  1
    P_G15_T38  TOTAL_COST  51.8
    P_G15_T38  DEMAND_T38  1
    P_G15_T38  PMAX_G15_T38  1
    P_G15_T38  PMIN_G15_T38  1
    P_G15_T38  RAMPUP_G15_T38  1
    P_G15_T38  RAMPDN_G15_T38  -1
    P_G15_T38  RAMPUP_G15_T39  -1
    P_G15_T38  RAMPDN_G15_T39  1
    P_G16_T38  TOTAL_COST  49.5
    P_G16_T38  DEMAND_T38  1
    P_G16_T38  PMAX_G16_T38  1
    P_G16_T38  PMIN_G16_T38  1
    P_G16_T38  RAMPUP_G16_T38  1
    P_G16_T38  RAMPDN_G16_T38  -1
    P_G16_T38  RAMPUP_G16_T39  -1
    P_G16_T38  RAMPDN_G16_T39  1
    P_G17_T38  TOTAL_COST  43.7
    P_G17_T38  DEMAND_T38  1
    P_G17_T38  PMAX_G17_T38  1
    P_G17_T38  PMIN_G17_T38  1
    P_G17_T38  RAMPUP_G17_T38  1
    P_G17_T38  RAMPDN_G17_T38  -1
    P_G17_T38  RAMPUP_G17_T39  -1
    P_G17_T38  RAMPDN_G17_T39  1
    P_G18_T38  TOTAL_COST  49.4
    P_G18_T38  DEMAND_T38  1
    P_G18_T38  PMAX_G18_T38  1
    P_G18_T38  PMIN_G18_T38  1
    P_G18_T38  RAMPUP_G18_T38  1
    P_G18_T38  RAMPDN_G18_T38  -1
    P_G18_T38  RAMPUP_G18_T39  -1
    P_G18_T38  RAMPDN_G18_T39  1
    P_G19_T38  TOTAL_COST  29.2
    P_G19_T38  DEMAND_T38  1
    P_G19_T38  PMAX_G19_T38  1
    P_G19_T38  PMIN_G19_T38  1
    P_G19_T38  RAMPUP_G19_T38  1
    P_G19_T38  RAMPDN_G19_T38  -1
    P_G19_T38  RAMPUP_G19_T39  -1
    P_G19_T38  RAMPDN_G19_T39  1
    MARK1560  'MARKER'                 'INTORG'
    U_G0_T39  TOTAL_COST  141
    U_G0_T39  RESERVE_T39  235
    U_G0_T39  PMAX_G0_T39  -235
    U_G0_T39  PMIN_G0_T39  -65
    MARK1561  'MARKER'                 'INTEND'
    MARK1562  'MARKER'                 'INTORG'
    U_G1_T39  TOTAL_COST  182
    U_G1_T39  RESERVE_T39  223
    U_G1_T39  PMAX_G1_T39  -223
    U_G1_T39  PMIN_G1_T39  -26
    MARK1563  'MARKER'                 'INTEND'
    MARK1564  'MARKER'                 'INTORG'
    U_G2_T39  TOTAL_COST  291
    U_G2_T39  RESERVE_T39  214
    U_G2_T39  PMAX_G2_T39  -214
    U_G2_T39  PMIN_G2_T39  -21
    MARK1565  'MARKER'                 'INTEND'
    MARK1566  'MARKER'                 'INTORG'
    U_G3_T39  TOTAL_COST  114
    U_G3_T39  RESERVE_T39  256
    U_G3_T39  PMAX_G3_T39  -256
    U_G3_T39  PMIN_G3_T39  -77
    MARK1567  'MARKER'                 'INTEND'
    MARK1568  'MARKER'                 'INTORG'
    U_G4_T39  TOTAL_COST  130
    U_G4_T39  RESERVE_T39  147
    U_G4_T39  PMAX_G4_T39  -147
    U_G4_T39  PMIN_G4_T39  -65
    MARK1569  'MARKER'                 'INTEND'
    MARK1570  'MARKER'                 'INTORG'
    U_G5_T39  TOTAL_COST  332
    U_G5_T39  RESERVE_T39  215
    U_G5_T39  PMAX_G5_T39  -215
    U_G5_T39  PMIN_G5_T39  -26
    MARK1571  'MARKER'                 'INTEND'
    MARK1572  'MARKER'                 'INTORG'
    U_G6_T39  TOTAL_COST  341
    U_G6_T39  RESERVE_T39  178
    U_G6_T39  PMAX_G6_T39  -178
    U_G6_T39  PMIN_G6_T39  -65
    MARK1573  'MARKER'                 'INTEND'
    MARK1574  'MARKER'                 'INTORG'
    U_G7_T39  TOTAL_COST  189
    U_G7_T39  RESERVE_T39  254
    U_G7_T39  PMAX_G7_T39  -254
    U_G7_T39  PMIN_G7_T39  -76
    MARK1575  'MARKER'                 'INTEND'
    MARK1576  'MARKER'                 'INTORG'
    U_G8_T39  TOTAL_COST  247
    U_G8_T39  RESERVE_T39  203
    U_G8_T39  PMAX_G8_T39  -203
    U_G8_T39  PMIN_G8_T39  -62
    MARK1577  'MARKER'                 'INTEND'
    MARK1578  'MARKER'                 'INTORG'
    U_G9_T39  TOTAL_COST  300
    U_G9_T39  RESERVE_T39  209
    U_G9_T39  PMAX_G9_T39  -209
    U_G9_T39  PMIN_G9_T39  -56
    MARK1579  'MARKER'                 'INTEND'
    MARK1580  'MARKER'                 'INTORG'
    U_G10_T39  TOTAL_COST  346
    U_G10_T39  RESERVE_T39  136
    U_G10_T39  PMAX_G10_T39  -136
    U_G10_T39  PMIN_G10_T39  -46
    MARK1581  'MARKER'                 'INTEND'
    MARK1582  'MARKER'                 'INTORG'
    U_G11_T39  TOTAL_COST  286
    U_G11_T39  RESERVE_T39  299
    U_G11_T39  PMAX_G11_T39  -299
    U_G11_T39  PMIN_G11_T39  -47
    MARK1583  'MARKER'                 'INTEND'
    MARK1584  'MARKER'                 'INTORG'
    U_G12_T39  TOTAL_COST  248
    U_G12_T39  RESERVE_T39  206
    U_G12_T39  PMAX_G12_T39  -206
    U_G12_T39  PMIN_G12_T39  -72
    MARK1585  'MARKER'                 'INTEND'
    MARK1586  'MARKER'                 'INTORG'
    U_G13_T39  TOTAL_COST  209
    U_G13_T39  RESERVE_T39  173
    U_G13_T39  PMAX_G13_T39  -173
    U_G13_T39  PMIN_G13_T39  -39
    MARK1587  'MARKER'                 'INTEND'
    MARK1588  'MARKER'                 'INTORG'
    U_G14_T39  TOTAL_COST  295
    U_G14_T39  RESERVE_T39  243
    U_G14_T39  PMAX_G14_T39  -243
    U_G14_T39  PMIN_G14_T39  -38
    MARK1589  'MARKER'                 'INTEND'
    MARK1590  'MARKER'                 'INTORG'
    U_G15_T39  TOTAL_COST  221
    U_G15_T39  RESERVE_T39  237
    U_G15_T39  PMAX_G15_T39  -237
    U_G15_T39  PMIN_G15_T39  -67
    MARK1591  'MARKER'                 'INTEND'
    MARK1592  'MARKER'                 'INTORG'
    U_G16_T39  TOTAL_COST  278
    U_G16_T39  RESERVE_T39  174
    U_G16_T39  PMAX_G16_T39  -174
    U_G16_T39  PMIN_G16_T39  -41
    MARK1593  'MARKER'                 'INTEND'
    MARK1594  'MARKER'                 'INTORG'
    U_G17_T39  TOTAL_COST  256
    U_G17_T39  RESERVE_T39  232
    U_G17_T39  PMAX_G17_T39  -232
    U_G17_T39  PMIN_G17_T39  -28
    MARK1595  'MARKER'                 'INTEND'
    MARK1596  'MARKER'                 'INTORG'
    U_G18_T39  TOTAL_COST  284
    U_G18_T39  RESERVE_T39  186
    U_G18_T39  PMAX_G18_T39  -186
    U_G18_T39  PMIN_G18_T39  -24
    MARK1597  'MARKER'                 'INTEND'
    MARK1598  'MARKER'                 'INTORG'
    U_G19_T39  TOTAL_COST  259
    U_G19_T39  RESERVE_T39  253
    U_G19_T39  PMAX_G19_T39  -253
    U_G19_T39  PMIN_G19_T39  -76
    MARK1599  'MARKER'                 'INTEND'
    P_G0_T39  TOTAL_COST  50.1
    P_G0_T39  DEMAND_T39  1
    P_G0_T39  PMAX_G0_T39  1
    P_G0_T39  PMIN_G0_T39  1
    P_G0_T39  RAMPUP_G0_T39  1
    P_G0_T39  RAMPDN_G0_T39  -1
    P_G0_T39  RAMPUP_G0_T40  -1
    P_G0_T39  RAMPDN_G0_T40  1
    P_G1_T39  TOTAL_COST  34.9
    P_G1_T39  DEMAND_T39  1
    P_G1_T39  PMAX_G1_T39  1
    P_G1_T39  PMIN_G1_T39  1
    P_G1_T39  RAMPUP_G1_T39  1
    P_G1_T39  RAMPDN_G1_T39  -1
    P_G1_T39  RAMPUP_G1_T40  -1
    P_G1_T39  RAMPDN_G1_T40  1
    P_G2_T39  TOTAL_COST  47.4
    P_G2_T39  DEMAND_T39  1
    P_G2_T39  PMAX_G2_T39  1
    P_G2_T39  PMIN_G2_T39  1
    P_G2_T39  RAMPUP_G2_T39  1
    P_G2_T39  RAMPDN_G2_T39  -1
    P_G2_T39  RAMPUP_G2_T40  -1
    P_G2_T39  RAMPDN_G2_T40  1
    P_G3_T39  TOTAL_COST  38
    P_G3_T39  DEMAND_T39  1
    P_G3_T39  PMAX_G3_T39  1
    P_G3_T39  PMIN_G3_T39  1
    P_G3_T39  RAMPUP_G3_T39  1
    P_G3_T39  RAMPDN_G3_T39  -1
    P_G3_T39  RAMPUP_G3_T40  -1
    P_G3_T39  RAMPDN_G3_T40  1
    P_G4_T39  TOTAL_COST  37
    P_G4_T39  DEMAND_T39  1
    P_G4_T39  PMAX_G4_T39  1
    P_G4_T39  PMIN_G4_T39  1
    P_G4_T39  RAMPUP_G4_T39  1
    P_G4_T39  RAMPDN_G4_T39  -1
    P_G4_T39  RAMPUP_G4_T40  -1
    P_G4_T39  RAMPDN_G4_T40  1
    P_G5_T39  TOTAL_COST  37.8
    P_G5_T39  DEMAND_T39  1
    P_G5_T39  PMAX_G5_T39  1
    P_G5_T39  PMIN_G5_T39  1
    P_G5_T39  RAMPUP_G5_T39  1
    P_G5_T39  RAMPDN_G5_T39  -1
    P_G5_T39  RAMPUP_G5_T40  -1
    P_G5_T39  RAMPDN_G5_T40  1
    P_G6_T39  TOTAL_COST  50
    P_G6_T39  DEMAND_T39  1
    P_G6_T39  PMAX_G6_T39  1
    P_G6_T39  PMIN_G6_T39  1
    P_G6_T39  RAMPUP_G6_T39  1
    P_G6_T39  RAMPDN_G6_T39  -1
    P_G6_T39  RAMPUP_G6_T40  -1
    P_G6_T39  RAMPDN_G6_T40  1
    P_G7_T39  TOTAL_COST  36.6
    P_G7_T39  DEMAND_T39  1
    P_G7_T39  PMAX_G7_T39  1
    P_G7_T39  PMIN_G7_T39  1
    P_G7_T39  RAMPUP_G7_T39  1
    P_G7_T39  RAMPDN_G7_T39  -1
    P_G7_T39  RAMPUP_G7_T40  -1
    P_G7_T39  RAMPDN_G7_T40  1
    P_G8_T39  TOTAL_COST  41.5
    P_G8_T39  DEMAND_T39  1
    P_G8_T39  PMAX_G8_T39  1
    P_G8_T39  PMIN_G8_T39  1
    P_G8_T39  RAMPUP_G8_T39  1
    P_G8_T39  RAMPDN_G8_T39  -1
    P_G8_T39  RAMPUP_G8_T40  -1
    P_G8_T39  RAMPDN_G8_T40  1
    P_G9_T39  TOTAL_COST  35.4
    P_G9_T39  DEMAND_T39  1
    P_G9_T39  PMAX_G9_T39  1
    P_G9_T39  PMIN_G9_T39  1
    P_G9_T39  RAMPUP_G9_T39  1
    P_G9_T39  RAMPDN_G9_T39  -1
    P_G9_T39  RAMPUP_G9_T40  -1
    P_G9_T39  RAMPDN_G9_T40  1
    P_G10_T39  TOTAL_COST  23
    P_G10_T39  DEMAND_T39  1
    P_G10_T39  PMAX_G10_T39  1
    P_G10_T39  PMIN_G10_T39  1
    P_G10_T39  RAMPUP_G10_T39  1
    P_G10_T39  RAMPDN_G10_T39  -1
    P_G10_T39  RAMPUP_G10_T40  -1
    P_G10_T39  RAMPDN_G10_T40  1
    P_G11_T39  TOTAL_COST  43.8
    P_G11_T39  DEMAND_T39  1
    P_G11_T39  PMAX_G11_T39  1
    P_G11_T39  PMIN_G11_T39  1
    P_G11_T39  RAMPUP_G11_T39  1
    P_G11_T39  RAMPDN_G11_T39  -1
    P_G11_T39  RAMPUP_G11_T40  -1
    P_G11_T39  RAMPDN_G11_T40  1
    P_G12_T39  TOTAL_COST  53
    P_G12_T39  DEMAND_T39  1
    P_G12_T39  PMAX_G12_T39  1
    P_G12_T39  PMIN_G12_T39  1
    P_G12_T39  RAMPUP_G12_T39  1
    P_G12_T39  RAMPDN_G12_T39  -1
    P_G12_T39  RAMPUP_G12_T40  -1
    P_G12_T39  RAMPDN_G12_T40  1
    P_G13_T39  TOTAL_COST  40.9
    P_G13_T39  DEMAND_T39  1
    P_G13_T39  PMAX_G13_T39  1
    P_G13_T39  PMIN_G13_T39  1
    P_G13_T39  RAMPUP_G13_T39  1
    P_G13_T39  RAMPDN_G13_T39  -1
    P_G13_T39  RAMPUP_G13_T40  -1
    P_G13_T39  RAMPDN_G13_T40  1
    P_G14_T39  TOTAL_COST  49.2
    P_G14_T39  DEMAND_T39  1
    P_G14_T39  PMAX_G14_T39  1
    P_G14_T39  PMIN_G14_T39  1
    P_G14_T39  RAMPUP_G14_T39  1
    P_G14_T39  RAMPDN_G14_T39  -1
    P_G14_T39  RAMPUP_G14_T40  -1
    P_G14_T39  RAMPDN_G14_T40  1
    P_G15_T39  TOTAL_COST  51.8
    P_G15_T39  DEMAND_T39  1
    P_G15_T39  PMAX_G15_T39  1
    P_G15_T39  PMIN_G15_T39  1
    P_G15_T39  RAMPUP_G15_T39  1
    P_G15_T39  RAMPDN_G15_T39  -1
    P_G15_T39  RAMPUP_G15_T40  -1
    P_G15_T39  RAMPDN_G15_T40  1
    P_G16_T39  TOTAL_COST  49.5
    P_G16_T39  DEMAND_T39  1
    P_G16_T39  PMAX_G16_T39  1
    P_G16_T39  PMIN_G16_T39  1
    P_G16_T39  RAMPUP_G16_T39  1
    P_G16_T39  RAMPDN_G16_T39  -1
    P_G16_T39  RAMPUP_G16_T40  -1
    P_G16_T39  RAMPDN_G16_T40  1
    P_G17_T39  TOTAL_COST  43.7
    P_G17_T39  DEMAND_T39  1
    P_G17_T39  PMAX_G17_T39  1
    P_G17_T39  PMIN_G17_T39  1
    P_G17_T39  RAMPUP_G17_T39  1
    P_G17_T39  RAMPDN_G17_T39  -1
    P_G17_T39  RAMPUP_G17_T40  -1
    P_G17_T39  RAMPDN_G17_T40  1
    P_G18_T39  TOTAL_COST  49.4
    P_G18_T39  DEMAND_T39  1
    P_G18_T39  PMAX_G18_T39  1
    P_G18_T39  PMIN_G18_T39  1
    P_G18_T39  RAMPUP_G18_T39  1
    P_G18_T39  RAMPDN_G18_T39  -1
    P_G18_T39  RAMPUP_G18_T40  -1
    P_G18_T39  RAMPDN_G18_T40  1
    P_G19_T39  TOTAL_COST  29.2
    P_G19_T39  DEMAND_T39  1
    P_G19_T39  PMAX_G19_T39  1
    P_G19_T39  PMIN_G19_T39  1
    P_G19_T39  RAMPUP_G19_T39  1
    P_G19_T39  RAMPDN_G19_T39  -1
    P_G19_T39  RAMPUP_G19_T40  -1
    P_G19_T39  RAMPDN_G19_T40  1
    MARK1600  'MARKER'                 'INTORG'
    U_G0_T40  TOTAL_COST  141
    U_G0_T40  RESERVE_T40  235
    U_G0_T40  PMAX_G0_T40  -235
    U_G0_T40  PMIN_G0_T40  -65
    MARK1601  'MARKER'                 'INTEND'
    MARK1602  'MARKER'                 'INTORG'
    U_G1_T40  TOTAL_COST  182
    U_G1_T40  RESERVE_T40  223
    U_G1_T40  PMAX_G1_T40  -223
    U_G1_T40  PMIN_G1_T40  -26
    MARK1603  'MARKER'                 'INTEND'
    MARK1604  'MARKER'                 'INTORG'
    U_G2_T40  TOTAL_COST  291
    U_G2_T40  RESERVE_T40  214
    U_G2_T40  PMAX_G2_T40  -214
    U_G2_T40  PMIN_G2_T40  -21
    MARK1605  'MARKER'                 'INTEND'
    MARK1606  'MARKER'                 'INTORG'
    U_G3_T40  TOTAL_COST  114
    U_G3_T40  RESERVE_T40  256
    U_G3_T40  PMAX_G3_T40  -256
    U_G3_T40  PMIN_G3_T40  -77
    MARK1607  'MARKER'                 'INTEND'
    MARK1608  'MARKER'                 'INTORG'
    U_G4_T40  TOTAL_COST  130
    U_G4_T40  RESERVE_T40  147
    U_G4_T40  PMAX_G4_T40  -147
    U_G4_T40  PMIN_G4_T40  -65
    MARK1609  'MARKER'                 'INTEND'
    MARK1610  'MARKER'                 'INTORG'
    U_G5_T40  TOTAL_COST  332
    U_G5_T40  RESERVE_T40  215
    U_G5_T40  PMAX_G5_T40  -215
    U_G5_T40  PMIN_G5_T40  -26
    MARK1611  'MARKER'                 'INTEND'
    MARK1612  'MARKER'                 'INTORG'
    U_G6_T40  TOTAL_COST  341
    U_G6_T40  RESERVE_T40  178
    U_G6_T40  PMAX_G6_T40  -178
    U_G6_T40  PMIN_G6_T40  -65
    MARK1613  'MARKER'                 'INTEND'
    MARK1614  'MARKER'                 'INTORG'
    U_G7_T40  TOTAL_COST  189
    U_G7_T40  RESERVE_T40  254
    U_G7_T40  PMAX_G7_T40  -254
    U_G7_T40  PMIN_G7_T40  -76
    MARK1615  'MARKER'                 'INTEND'
    MARK1616  'MARKER'                 'INTORG'
    U_G8_T40  TOTAL_COST  247
    U_G8_T40  RESERVE_T40  203
    U_G8_T40  PMAX_G8_T40  -203
    U_G8_T40  PMIN_G8_T40  -62
    MARK1617  'MARKER'                 'INTEND'
    MARK1618  'MARKER'                 'INTORG'
    U_G9_T40  TOTAL_COST  300
    U_G9_T40  RESERVE_T40  209
    U_G9_T40  PMAX_G9_T40  -209
    U_G9_T40  PMIN_G9_T40  -56
    MARK1619  'MARKER'                 'INTEND'
    MARK1620  'MARKER'                 'INTORG'
    U_G10_T40  TOTAL_COST  346
    U_G10_T40  RESERVE_T40  136
    U_G10_T40  PMAX_G10_T40  -136
    U_G10_T40  PMIN_G10_T40  -46
    MARK1621  'MARKER'                 'INTEND'
    MARK1622  'MARKER'                 'INTORG'
    U_G11_T40  TOTAL_COST  286
    U_G11_T40  RESERVE_T40  299
    U_G11_T40  PMAX_G11_T40  -299
    U_G11_T40  PMIN_G11_T40  -47
    MARK1623  'MARKER'                 'INTEND'
    MARK1624  'MARKER'                 'INTORG'
    U_G12_T40  TOTAL_COST  248
    U_G12_T40  RESERVE_T40  206
    U_G12_T40  PMAX_G12_T40  -206
    U_G12_T40  PMIN_G12_T40  -72
    MARK1625  'MARKER'                 'INTEND'
    MARK1626  'MARKER'                 'INTORG'
    U_G13_T40  TOTAL_COST  209
    U_G13_T40  RESERVE_T40  173
    U_G13_T40  PMAX_G13_T40  -173
    U_G13_T40  PMIN_G13_T40  -39
    MARK1627  'MARKER'                 'INTEND'
    MARK1628  'MARKER'                 'INTORG'
    U_G14_T40  TOTAL_COST  295
    U_G14_T40  RESERVE_T40  243
    U_G14_T40  PMAX_G14_T40  -243
    U_G14_T40  PMIN_G14_T40  -38
    MARK1629  'MARKER'                 'INTEND'
    MARK1630  'MARKER'                 'INTORG'
    U_G15_T40  TOTAL_COST  221
    U_G15_T40  RESERVE_T40  237
    U_G15_T40  PMAX_G15_T40  -237
    U_G15_T40  PMIN_G15_T40  -67
    MARK1631  'MARKER'                 'INTEND'
    MARK1632  'MARKER'                 'INTORG'
    U_G16_T40  TOTAL_COST  278
    U_G16_T40  RESERVE_T40  174
    U_G16_T40  PMAX_G16_T40  -174
    U_G16_T40  PMIN_G16_T40  -41
    MARK1633  'MARKER'                 'INTEND'
    MARK1634  'MARKER'                 'INTORG'
    U_G17_T40  TOTAL_COST  256
    U_G17_T40  RESERVE_T40  232
    U_G17_T40  PMAX_G17_T40  -232
    U_G17_T40  PMIN_G17_T40  -28
    MARK1635  'MARKER'                 'INTEND'
    MARK1636  'MARKER'                 'INTORG'
    U_G18_T40  TOTAL_COST  284
    U_G18_T40  RESERVE_T40  186
    U_G18_T40  PMAX_G18_T40  -186
    U_G18_T40  PMIN_G18_T40  -24
    MARK1637  'MARKER'                 'INTEND'
    MARK1638  'MARKER'                 'INTORG'
    U_G19_T40  TOTAL_COST  259
    U_G19_T40  RESERVE_T40  253
    U_G19_T40  PMAX_G19_T40  -253
    U_G19_T40  PMIN_G19_T40  -76
    MARK1639  'MARKER'                 'INTEND'
    P_G0_T40  TOTAL_COST  50.1
    P_G0_T40  DEMAND_T40  1
    P_G0_T40  PMAX_G0_T40  1
    P_G0_T40  PMIN_G0_T40  1
    P_G0_T40  RAMPUP_G0_T40  1
    P_G0_T40  RAMPDN_G0_T40  -1
    P_G0_T40  RAMPUP_G0_T41  -1
    P_G0_T40  RAMPDN_G0_T41  1
    P_G1_T40  TOTAL_COST  34.9
    P_G1_T40  DEMAND_T40  1
    P_G1_T40  PMAX_G1_T40  1
    P_G1_T40  PMIN_G1_T40  1
    P_G1_T40  RAMPUP_G1_T40  1
    P_G1_T40  RAMPDN_G1_T40  -1
    P_G1_T40  RAMPUP_G1_T41  -1
    P_G1_T40  RAMPDN_G1_T41  1
    P_G2_T40  TOTAL_COST  47.4
    P_G2_T40  DEMAND_T40  1
    P_G2_T40  PMAX_G2_T40  1
    P_G2_T40  PMIN_G2_T40  1
    P_G2_T40  RAMPUP_G2_T40  1
    P_G2_T40  RAMPDN_G2_T40  -1
    P_G2_T40  RAMPUP_G2_T41  -1
    P_G2_T40  RAMPDN_G2_T41  1
    P_G3_T40  TOTAL_COST  38
    P_G3_T40  DEMAND_T40  1
    P_G3_T40  PMAX_G3_T40  1
    P_G3_T40  PMIN_G3_T40  1
    P_G3_T40  RAMPUP_G3_T40  1
    P_G3_T40  RAMPDN_G3_T40  -1
    P_G3_T40  RAMPUP_G3_T41  -1
    P_G3_T40  RAMPDN_G3_T41  1
    P_G4_T40  TOTAL_COST  37
    P_G4_T40  DEMAND_T40  1
    P_G4_T40  PMAX_G4_T40  1
    P_G4_T40  PMIN_G4_T40  1
    P_G4_T40  RAMPUP_G4_T40  1
    P_G4_T40  RAMPDN_G4_T40  -1
    P_G4_T40  RAMPUP_G4_T41  -1
    P_G4_T40  RAMPDN_G4_T41  1
    P_G5_T40  TOTAL_COST  37.8
    P_G5_T40  DEMAND_T40  1
    P_G5_T40  PMAX_G5_T40  1
    P_G5_T40  PMIN_G5_T40  1
    P_G5_T40  RAMPUP_G5_T40  1
    P_G5_T40  RAMPDN_G5_T40  -1
    P_G5_T40  RAMPUP_G5_T41  -1
    P_G5_T40  RAMPDN_G5_T41  1
    P_G6_T40  TOTAL_COST  50
    P_G6_T40  DEMAND_T40  1
    P_G6_T40  PMAX_G6_T40  1
    P_G6_T40  PMIN_G6_T40  1
    P_G6_T40  RAMPUP_G6_T40  1
    P_G6_T40  RAMPDN_G6_T40  -1
    P_G6_T40  RAMPUP_G6_T41  -1
    P_G6_T40  RAMPDN_G6_T41  1
    P_G7_T40  TOTAL_COST  36.6
    P_G7_T40  DEMAND_T40  1
    P_G7_T40  PMAX_G7_T40  1
    P_G7_T40  PMIN_G7_T40  1
    P_G7_T40  RAMPUP_G7_T40  1
    P_G7_T40  RAMPDN_G7_T40  -1
    P_G7_T40  RAMPUP_G7_T41  -1
    P_G7_T40  RAMPDN_G7_T41  1
    P_G8_T40  TOTAL_COST  41.5
    P_G8_T40  DEMAND_T40  1
    P_G8_T40  PMAX_G8_T40  1
    P_G8_T40  PMIN_G8_T40  1
    P_G8_T40  RAMPUP_G8_T40  1
    P_G8_T40  RAMPDN_G8_T40  -1
    P_G8_T40  RAMPUP_G8_T41  -1
    P_G8_T40  RAMPDN_G8_T41  1
    P_G9_T40  TOTAL_COST  35.4
    P_G9_T40  DEMAND_T40  1
    P_G9_T40  PMAX_G9_T40  1
    P_G9_T40  PMIN_G9_T40  1
    P_G9_T40  RAMPUP_G9_T40  1
    P_G9_T40  RAMPDN_G9_T40  -1
    P_G9_T40  RAMPUP_G9_T41  -1
    P_G9_T40  RAMPDN_G9_T41  1
    P_G10_T40  TOTAL_COST  23
    P_G10_T40  DEMAND_T40  1
    P_G10_T40  PMAX_G10_T40  1
    P_G10_T40  PMIN_G10_T40  1
    P_G10_T40  RAMPUP_G10_T40  1
    P_G10_T40  RAMPDN_G10_T40  -1
    P_G10_T40  RAMPUP_G10_T41  -1
    P_G10_T40  RAMPDN_G10_T41  1
    P_G11_T40  TOTAL_COST  43.8
    P_G11_T40  DEMAND_T40  1
    P_G11_T40  PMAX_G11_T40  1
    P_G11_T40  PMIN_G11_T40  1
    P_G11_T40  RAMPUP_G11_T40  1
    P_G11_T40  RAMPDN_G11_T40  -1
    P_G11_T40  RAMPUP_G11_T41  -1
    P_G11_T40  RAMPDN_G11_T41  1
    P_G12_T40  TOTAL_COST  53
    P_G12_T40  DEMAND_T40  1
    P_G12_T40  PMAX_G12_T40  1
    P_G12_T40  PMIN_G12_T40  1
    P_G12_T40  RAMPUP_G12_T40  1
    P_G12_T40  RAMPDN_G12_T40  -1
    P_G12_T40  RAMPUP_G12_T41  -1
    P_G12_T40  RAMPDN_G12_T41  1
    P_G13_T40  TOTAL_COST  40.9
    P_G13_T40  DEMAND_T40  1
    P_G13_T40  PMAX_G13_T40  1
    P_G13_T40  PMIN_G13_T40  1
    P_G13_T40  RAMPUP_G13_T40  1
    P_G13_T40  RAMPDN_G13_T40  -1
    P_G13_T40  RAMPUP_G13_T41  -1
    P_G13_T40  RAMPDN_G13_T41  1
    P_G14_T40  TOTAL_COST  49.2
    P_G14_T40  DEMAND_T40  1
    P_G14_T40  PMAX_G14_T40  1
    P_G14_T40  PMIN_G14_T40  1
    P_G14_T40  RAMPUP_G14_T40  1
    P_G14_T40  RAMPDN_G14_T40  -1
    P_G14_T40  RAMPUP_G14_T41  -1
    P_G14_T40  RAMPDN_G14_T41  1
    P_G15_T40  TOTAL_COST  51.8
    P_G15_T40  DEMAND_T40  1
    P_G15_T40  PMAX_G15_T40  1
    P_G15_T40  PMIN_G15_T40  1
    P_G15_T40  RAMPUP_G15_T40  1
    P_G15_T40  RAMPDN_G15_T40  -1
    P_G15_T40  RAMPUP_G15_T41  -1
    P_G15_T40  RAMPDN_G15_T41  1
    P_G16_T40  TOTAL_COST  49.5
    P_G16_T40  DEMAND_T40  1
    P_G16_T40  PMAX_G16_T40  1
    P_G16_T40  PMIN_G16_T40  1
    P_G16_T40  RAMPUP_G16_T40  1
    P_G16_T40  RAMPDN_G16_T40  -1
    P_G16_T40  RAMPUP_G16_T41  -1
    P_G16_T40  RAMPDN_G16_T41  1
    P_G17_T40  TOTAL_COST  43.7
    P_G17_T40  DEMAND_T40  1
    P_G17_T40  PMAX_G17_T40  1
    P_G17_T40  PMIN_G17_T40  1
    P_G17_T40  RAMPUP_G17_T40  1
    P_G17_T40  RAMPDN_G17_T40  -1
    P_G17_T40  RAMPUP_G17_T41  -1
    P_G17_T40  RAMPDN_G17_T41  1
    P_G18_T40  TOTAL_COST  49.4
    P_G18_T40  DEMAND_T40  1
    P_G18_T40  PMAX_G18_T40  1
    P_G18_T40  PMIN_G18_T40  1
    P_G18_T40  RAMPUP_G18_T40  1
    P_G18_T40  RAMPDN_G18_T40  -1
    P_G18_T40  RAMPUP_G18_T41  -1
    P_G18_T40  RAMPDN_G18_T41  1
    P_G19_T40  TOTAL_COST  29.2
    P_G19_T40  DEMAND_T40  1
    P_G19_T40  PMAX_G19_T40  1
    P_G19_T40  PMIN_G19_T40  1
    P_G19_T40  RAMPUP_G19_T40  1
    P_G19_T40  RAMPDN_G19_T40  -1
    P_G19_T40  RAMPUP_G19_T41  -1
    P_G19_T40  RAMPDN_G19_T41  1
    MARK1640  'MARKER'                 'INTORG'
    U_G0_T41  TOTAL_COST  141
    U_G0_T41  RESERVE_T41  235
    U_G0_T41  PMAX_G0_T41  -235
    U_G0_T41  PMIN_G0_T41  -65
    MARK1641  'MARKER'                 'INTEND'
    MARK1642  'MARKER'                 'INTORG'
    U_G1_T41  TOTAL_COST  182
    U_G1_T41  RESERVE_T41  223
    U_G1_T41  PMAX_G1_T41  -223
    U_G1_T41  PMIN_G1_T41  -26
    MARK1643  'MARKER'                 'INTEND'
    MARK1644  'MARKER'                 'INTORG'
    U_G2_T41  TOTAL_COST  291
    U_G2_T41  RESERVE_T41  214
    U_G2_T41  PMAX_G2_T41  -214
    U_G2_T41  PMIN_G2_T41  -21
    MARK1645  'MARKER'                 'INTEND'
    MARK1646  'MARKER'                 'INTORG'
    U_G3_T41  TOTAL_COST  114
    U_G3_T41  RESERVE_T41  256
    U_G3_T41  PMAX_G3_T41  -256
    U_G3_T41  PMIN_G3_T41  -77
    MARK1647  'MARKER'                 'INTEND'
    MARK1648  'MARKER'                 'INTORG'
    U_G4_T41  TOTAL_COST  130
    U_G4_T41  RESERVE_T41  147
    U_G4_T41  PMAX_G4_T41  -147
    U_G4_T41  PMIN_G4_T41  -65
    MARK1649  'MARKER'                 'INTEND'
    MARK1650  'MARKER'                 'INTORG'
    U_G5_T41  TOTAL_COST  332
    U_G5_T41  RESERVE_T41  215
    U_G5_T41  PMAX_G5_T41  -215
    U_G5_T41  PMIN_G5_T41  -26
    MARK1651  'MARKER'                 'INTEND'
    MARK1652  'MARKER'                 'INTORG'
    U_G6_T41  TOTAL_COST  341
    U_G6_T41  RESERVE_T41  178
    U_G6_T41  PMAX_G6_T41  -178
    U_G6_T41  PMIN_G6_T41  -65
    MARK1653  'MARKER'                 'INTEND'
    MARK1654  'MARKER'                 'INTORG'
    U_G7_T41  TOTAL_COST  189
    U_G7_T41  RESERVE_T41  254
    U_G7_T41  PMAX_G7_T41  -254
    U_G7_T41  PMIN_G7_T41  -76
    MARK1655  'MARKER'                 'INTEND'
    MARK1656  'MARKER'                 'INTORG'
    U_G8_T41  TOTAL_COST  247
    U_G8_T41  RESERVE_T41  203
    U_G8_T41  PMAX_G8_T41  -203
    U_G8_T41  PMIN_G8_T41  -62
    MARK1657  'MARKER'                 'INTEND'
    MARK1658  'MARKER'                 'INTORG'
    U_G9_T41  TOTAL_COST  300
    U_G9_T41  RESERVE_T41  209
    U_G9_T41  PMAX_G9_T41  -209
    U_G9_T41  PMIN_G9_T41  -56
    MARK1659  'MARKER'                 'INTEND'
    MARK1660  'MARKER'                 'INTORG'
    U_G10_T41  TOTAL_COST  346
    U_G10_T41  RESERVE_T41  136
    U_G10_T41  PMAX_G10_T41  -136
    U_G10_T41  PMIN_G10_T41  -46
    MARK1661  'MARKER'                 'INTEND'
    MARK1662  'MARKER'                 'INTORG'
    U_G11_T41  TOTAL_COST  286
    U_G11_T41  RESERVE_T41  299
    U_G11_T41  PMAX_G11_T41  -299
    U_G11_T41  PMIN_G11_T41  -47
    MARK1663  'MARKER'                 'INTEND'
    MARK1664  'MARKER'                 'INTORG'
    U_G12_T41  TOTAL_COST  248
    U_G12_T41  RESERVE_T41  206
    U_G12_T41  PMAX_G12_T41  -206
    U_G12_T41  PMIN_G12_T41  -72
    MARK1665  'MARKER'                 'INTEND'
    MARK1666  'MARKER'                 'INTORG'
    U_G13_T41  TOTAL_COST  209
    U_G13_T41  RESERVE_T41  173
    U_G13_T41  PMAX_G13_T41  -173
    U_G13_T41  PMIN_G13_T41  -39
    MARK1667  'MARKER'                 'INTEND'
    MARK1668  'MARKER'                 'INTORG'
    U_G14_T41  TOTAL_COST  295
    U_G14_T41  RESERVE_T41  243
    U_G14_T41  PMAX_G14_T41  -243
    U_G14_T41  PMIN_G14_T41  -38
    MARK1669  'MARKER'                 'INTEND'
    MARK1670  'MARKER'                 'INTORG'
    U_G15_T41  TOTAL_COST  221
    U_G15_T41  RESERVE_T41  237
    U_G15_T41  PMAX_G15_T41  -237
    U_G15_T41  PMIN_G15_T41  -67
    MARK1671  'MARKER'                 'INTEND'
    MARK1672  'MARKER'                 'INTORG'
    U_G16_T41  TOTAL_COST  278
    U_G16_T41  RESERVE_T41  174
    U_G16_T41  PMAX_G16_T41  -174
    U_G16_T41  PMIN_G16_T41  -41
    MARK1673  'MARKER'                 'INTEND'
    MARK1674  'MARKER'                 'INTORG'
    U_G17_T41  TOTAL_COST  256
    U_G17_T41  RESERVE_T41  232
    U_G17_T41  PMAX_G17_T41  -232
    U_G17_T41  PMIN_G17_T41  -28
    MARK1675  'MARKER'                 'INTEND'
    MARK1676  'MARKER'                 'INTORG'
    U_G18_T41  TOTAL_COST  284
    U_G18_T41  RESERVE_T41  186
    U_G18_T41  PMAX_G18_T41  -186
    U_G18_T41  PMIN_G18_T41  -24
    MARK1677  'MARKER'                 'INTEND'
    MARK1678  'MARKER'                 'INTORG'
    U_G19_T41  TOTAL_COST  259
    U_G19_T41  RESERVE_T41  253
    U_G19_T41  PMAX_G19_T41  -253
    U_G19_T41  PMIN_G19_T41  -76
    MARK1679  'MARKER'                 'INTEND'
    P_G0_T41  TOTAL_COST  50.1
    P_G0_T41  DEMAND_T41  1
    P_G0_T41  PMAX_G0_T41  1
    P_G0_T41  PMIN_G0_T41  1
    P_G0_T41  RAMPUP_G0_T41  1
    P_G0_T41  RAMPDN_G0_T41  -1
    P_G0_T41  RAMPUP_G0_T42  -1
    P_G0_T41  RAMPDN_G0_T42  1
    P_G1_T41  TOTAL_COST  34.9
    P_G1_T41  DEMAND_T41  1
    P_G1_T41  PMAX_G1_T41  1
    P_G1_T41  PMIN_G1_T41  1
    P_G1_T41  RAMPUP_G1_T41  1
    P_G1_T41  RAMPDN_G1_T41  -1
    P_G1_T41  RAMPUP_G1_T42  -1
    P_G1_T41  RAMPDN_G1_T42  1
    P_G2_T41  TOTAL_COST  47.4
    P_G2_T41  DEMAND_T41  1
    P_G2_T41  PMAX_G2_T41  1
    P_G2_T41  PMIN_G2_T41  1
    P_G2_T41  RAMPUP_G2_T41  1
    P_G2_T41  RAMPDN_G2_T41  -1
    P_G2_T41  RAMPUP_G2_T42  -1
    P_G2_T41  RAMPDN_G2_T42  1
    P_G3_T41  TOTAL_COST  38
    P_G3_T41  DEMAND_T41  1
    P_G3_T41  PMAX_G3_T41  1
    P_G3_T41  PMIN_G3_T41  1
    P_G3_T41  RAMPUP_G3_T41  1
    P_G3_T41  RAMPDN_G3_T41  -1
    P_G3_T41  RAMPUP_G3_T42  -1
    P_G3_T41  RAMPDN_G3_T42  1
    P_G4_T41  TOTAL_COST  37
    P_G4_T41  DEMAND_T41  1
    P_G4_T41  PMAX_G4_T41  1
    P_G4_T41  PMIN_G4_T41  1
    P_G4_T41  RAMPUP_G4_T41  1
    P_G4_T41  RAMPDN_G4_T41  -1
    P_G4_T41  RAMPUP_G4_T42  -1
    P_G4_T41  RAMPDN_G4_T42  1
    P_G5_T41  TOTAL_COST  37.8
    P_G5_T41  DEMAND_T41  1
    P_G5_T41  PMAX_G5_T41  1
    P_G5_T41  PMIN_G5_T41  1
    P_G5_T41  RAMPUP_G5_T41  1
    P_G5_T41  RAMPDN_G5_T41  -1
    P_G5_T41  RAMPUP_G5_T42  -1
    P_G5_T41  RAMPDN_G5_T42  1
    P_G6_T41  TOTAL_COST  50
    P_G6_T41  DEMAND_T41  1
    P_G6_T41  PMAX_G6_T41  1
    P_G6_T41  PMIN_G6_T41  1
    P_G6_T41  RAMPUP_G6_T41  1
    P_G6_T41  RAMPDN_G6_T41  -1
    P_G6_T41  RAMPUP_G6_T42  -1
    P_G6_T41  RAMPDN_G6_T42  1
    P_G7_T41  TOTAL_COST  36.6
    P_G7_T41  DEMAND_T41  1
    P_G7_T41  PMAX_G7_T41  1
    P_G7_T41  PMIN_G7_T41  1
    P_G7_T41  RAMPUP_G7_T41  1
    P_G7_T41  RAMPDN_G7_T41  -1
    P_G7_T41  RAMPUP_G7_T42  -1
    P_G7_T41  RAMPDN_G7_T42  1
    P_G8_T41  TOTAL_COST  41.5
    P_G8_T41  DEMAND_T41  1
    P_G8_T41  PMAX_G8_T41  1
    P_G8_T41  PMIN_G8_T41  1
    P_G8_T41  RAMPUP_G8_T41  1
    P_G8_T41  RAMPDN_G8_T41  -1
    P_G8_T41  RAMPUP_G8_T42  -1
    P_G8_T41  RAMPDN_G8_T42  1
    P_G9_T41  TOTAL_COST  35.4
    P_G9_T41  DEMAND_T41  1
    P_G9_T41  PMAX_G9_T41  1
    P_G9_T41  PMIN_G9_T41  1
    P_G9_T41  RAMPUP_G9_T41  1
    P_G9_T41  RAMPDN_G9_T41  -1
    P_G9_T41  RAMPUP_G9_T42  -1
    P_G9_T41  RAMPDN_G9_T42  1
    P_G10_T41  TOTAL_COST  23
    P_G10_T41  DEMAND_T41  1
    P_G10_T41  PMAX_G10_T41  1
    P_G10_T41  PMIN_G10_T41  1
    P_G10_T41  RAMPUP_G10_T41  1
    P_G10_T41  RAMPDN_G10_T41  -1
    P_G10_T41  RAMPUP_G10_T42  -1
    P_G10_T41  RAMPDN_G10_T42  1
    P_G11_T41  TOTAL_COST  43.8
    P_G11_T41  DEMAND_T41  1
    P_G11_T41  PMAX_G11_T41  1
    P_G11_T41  PMIN_G11_T41  1
    P_G11_T41  RAMPUP_G11_T41  1
    P_G11_T41  RAMPDN_G11_T41  -1
    P_G11_T41  RAMPUP_G11_T42  -1
    P_G11_T41  RAMPDN_G11_T42  1
    P_G12_T41  TOTAL_COST  53
    P_G12_T41  DEMAND_T41  1
    P_G12_T41  PMAX_G12_T41  1
    P_G12_T41  PMIN_G12_T41  1
    P_G12_T41  RAMPUP_G12_T41  1
    P_G12_T41  RAMPDN_G12_T41  -1
    P_G12_T41  RAMPUP_G12_T42  -1
    P_G12_T41  RAMPDN_G12_T42  1
    P_G13_T41  TOTAL_COST  40.9
    P_G13_T41  DEMAND_T41  1
    P_G13_T41  PMAX_G13_T41  1
    P_G13_T41  PMIN_G13_T41  1
    P_G13_T41  RAMPUP_G13_T41  1
    P_G13_T41  RAMPDN_G13_T41  -1
    P_G13_T41  RAMPUP_G13_T42  -1
    P_G13_T41  RAMPDN_G13_T42  1
    P_G14_T41  TOTAL_COST  49.2
    P_G14_T41  DEMAND_T41  1
    P_G14_T41  PMAX_G14_T41  1
    P_G14_T41  PMIN_G14_T41  1
    P_G14_T41  RAMPUP_G14_T41  1
    P_G14_T41  RAMPDN_G14_T41  -1
    P_G14_T41  RAMPUP_G14_T42  -1
    P_G14_T41  RAMPDN_G14_T42  1
    P_G15_T41  TOTAL_COST  51.8
    P_G15_T41  DEMAND_T41  1
    P_G15_T41  PMAX_G15_T41  1
    P_G15_T41  PMIN_G15_T41  1
    P_G15_T41  RAMPUP_G15_T41  1
    P_G15_T41  RAMPDN_G15_T41  -1
    P_G15_T41  RAMPUP_G15_T42  -1
    P_G15_T41  RAMPDN_G15_T42  1
    P_G16_T41  TOTAL_COST  49.5
    P_G16_T41  DEMAND_T41  1
    P_G16_T41  PMAX_G16_T41  1
    P_G16_T41  PMIN_G16_T41  1
    P_G16_T41  RAMPUP_G16_T41  1
    P_G16_T41  RAMPDN_G16_T41  -1
    P_G16_T41  RAMPUP_G16_T42  -1
    P_G16_T41  RAMPDN_G16_T42  1
    P_G17_T41  TOTAL_COST  43.7
    P_G17_T41  DEMAND_T41  1
    P_G17_T41  PMAX_G17_T41  1
    P_G17_T41  PMIN_G17_T41  1
    P_G17_T41  RAMPUP_G17_T41  1
    P_G17_T41  RAMPDN_G17_T41  -1
    P_G17_T41  RAMPUP_G17_T42  -1
    P_G17_T41  RAMPDN_G17_T42  1
    P_G18_T41  TOTAL_COST  49.4
    P_G18_T41  DEMAND_T41  1
    P_G18_T41  PMAX_G18_T41  1
    P_G18_T41  PMIN_G18_T41  1
    P_G18_T41  RAMPUP_G18_T41  1
    P_G18_T41  RAMPDN_G18_T41  -1
    P_G18_T41  RAMPUP_G18_T42  -1
    P_G18_T41  RAMPDN_G18_T42  1
    P_G19_T41  TOTAL_COST  29.2
    P_G19_T41  DEMAND_T41  1
    P_G19_T41  PMAX_G19_T41  1
    P_G19_T41  PMIN_G19_T41  1
    P_G19_T41  RAMPUP_G19_T41  1
    P_G19_T41  RAMPDN_G19_T41  -1
    P_G19_T41  RAMPUP_G19_T42  -1
    P_G19_T41  RAMPDN_G19_T42  1
    MARK1680  'MARKER'                 'INTORG'
    U_G0_T42  TOTAL_COST  141
    U_G0_T42  RESERVE_T42  235
    U_G0_T42  PMAX_G0_T42  -235
    U_G0_T42  PMIN_G0_T42  -65
    MARK1681  'MARKER'                 'INTEND'
    MARK1682  'MARKER'                 'INTORG'
    U_G1_T42  TOTAL_COST  182
    U_G1_T42  RESERVE_T42  223
    U_G1_T42  PMAX_G1_T42  -223
    U_G1_T42  PMIN_G1_T42  -26
    MARK1683  'MARKER'                 'INTEND'
    MARK1684  'MARKER'                 'INTORG'
    U_G2_T42  TOTAL_COST  291
    U_G2_T42  RESERVE_T42  214
    U_G2_T42  PMAX_G2_T42  -214
    U_G2_T42  PMIN_G2_T42  -21
    MARK1685  'MARKER'                 'INTEND'
    MARK1686  'MARKER'                 'INTORG'
    U_G3_T42  TOTAL_COST  114
    U_G3_T42  RESERVE_T42  256
    U_G3_T42  PMAX_G3_T42  -256
    U_G3_T42  PMIN_G3_T42  -77
    MARK1687  'MARKER'                 'INTEND'
    MARK1688  'MARKER'                 'INTORG'
    U_G4_T42  TOTAL_COST  130
    U_G4_T42  RESERVE_T42  147
    U_G4_T42  PMAX_G4_T42  -147
    U_G4_T42  PMIN_G4_T42  -65
    MARK1689  'MARKER'                 'INTEND'
    MARK1690  'MARKER'                 'INTORG'
    U_G5_T42  TOTAL_COST  332
    U_G5_T42  RESERVE_T42  215
    U_G5_T42  PMAX_G5_T42  -215
    U_G5_T42  PMIN_G5_T42  -26
    MARK1691  'MARKER'                 'INTEND'
    MARK1692  'MARKER'                 'INTORG'
    U_G6_T42  TOTAL_COST  341
    U_G6_T42  RESERVE_T42  178
    U_G6_T42  PMAX_G6_T42  -178
    U_G6_T42  PMIN_G6_T42  -65
    MARK1693  'MARKER'                 'INTEND'
    MARK1694  'MARKER'                 'INTORG'
    U_G7_T42  TOTAL_COST  189
    U_G7_T42  RESERVE_T42  254
    U_G7_T42  PMAX_G7_T42  -254
    U_G7_T42  PMIN_G7_T42  -76
    MARK1695  'MARKER'                 'INTEND'
    MARK1696  'MARKER'                 'INTORG'
    U_G8_T42  TOTAL_COST  247
    U_G8_T42  RESERVE_T42  203
    U_G8_T42  PMAX_G8_T42  -203
    U_G8_T42  PMIN_G8_T42  -62
    MARK1697  'MARKER'                 'INTEND'
    MARK1698  'MARKER'                 'INTORG'
    U_G9_T42  TOTAL_COST  300
    U_G9_T42  RESERVE_T42  209
    U_G9_T42  PMAX_G9_T42  -209
    U_G9_T42  PMIN_G9_T42  -56
    MARK1699  'MARKER'                 'INTEND'
    MARK1700  'MARKER'                 'INTORG'
    U_G10_T42  TOTAL_COST  346
    U_G10_T42  RESERVE_T42  136
    U_G10_T42  PMAX_G10_T42  -136
    U_G10_T42  PMIN_G10_T42  -46
    MARK1701  'MARKER'                 'INTEND'
    MARK1702  'MARKER'                 'INTORG'
    U_G11_T42  TOTAL_COST  286
    U_G11_T42  RESERVE_T42  299
    U_G11_T42  PMAX_G11_T42  -299
    U_G11_T42  PMIN_G11_T42  -47
    MARK1703  'MARKER'                 'INTEND'
    MARK1704  'MARKER'                 'INTORG'
    U_G12_T42  TOTAL_COST  248
    U_G12_T42  RESERVE_T42  206
    U_G12_T42  PMAX_G12_T42  -206
    U_G12_T42  PMIN_G12_T42  -72
    MARK1705  'MARKER'                 'INTEND'
    MARK1706  'MARKER'                 'INTORG'
    U_G13_T42  TOTAL_COST  209
    U_G13_T42  RESERVE_T42  173
    U_G13_T42  PMAX_G13_T42  -173
    U_G13_T42  PMIN_G13_T42  -39
    MARK1707  'MARKER'                 'INTEND'
    MARK1708  'MARKER'                 'INTORG'
    U_G14_T42  TOTAL_COST  295
    U_G14_T42  RESERVE_T42  243
    U_G14_T42  PMAX_G14_T42  -243
    U_G14_T42  PMIN_G14_T42  -38
    MARK1709  'MARKER'                 'INTEND'
    MARK1710  'MARKER'                 'INTORG'
    U_G15_T42  TOTAL_COST  221
    U_G15_T42  RESERVE_T42  237
    U_G15_T42  PMAX_G15_T42  -237
    U_G15_T42  PMIN_G15_T42  -67
    MARK1711  'MARKER'                 'INTEND'
    MARK1712  'MARKER'                 'INTORG'
    U_G16_T42  TOTAL_COST  278
    U_G16_T42  RESERVE_T42  174
    U_G16_T42  PMAX_G16_T42  -174
    U_G16_T42  PMIN_G16_T42  -41
    MARK1713  'MARKER'                 'INTEND'
    MARK1714  'MARKER'                 'INTORG'
    U_G17_T42  TOTAL_COST  256
    U_G17_T42  RESERVE_T42  232
    U_G17_T42  PMAX_G17_T42  -232
    U_G17_T42  PMIN_G17_T42  -28
    MARK1715  'MARKER'                 'INTEND'
    MARK1716  'MARKER'                 'INTORG'
    U_G18_T42  TOTAL_COST  284
    U_G18_T42  RESERVE_T42  186
    U_G18_T42  PMAX_G18_T42  -186
    U_G18_T42  PMIN_G18_T42  -24
    MARK1717  'MARKER'                 'INTEND'
    MARK1718  'MARKER'                 'INTORG'
    U_G19_T42  TOTAL_COST  259
    U_G19_T42  RESERVE_T42  253
    U_G19_T42  PMAX_G19_T42  -253
    U_G19_T42  PMIN_G19_T42  -76
    MARK1719  'MARKER'                 'INTEND'
    P_G0_T42  TOTAL_COST  50.1
    P_G0_T42  DEMAND_T42  1
    P_G0_T42  PMAX_G0_T42  1
    P_G0_T42  PMIN_G0_T42  1
    P_G0_T42  RAMPUP_G0_T42  1
    P_G0_T42  RAMPDN_G0_T42  -1
    P_G0_T42  RAMPUP_G0_T43  -1
    P_G0_T42  RAMPDN_G0_T43  1
    P_G1_T42  TOTAL_COST  34.9
    P_G1_T42  DEMAND_T42  1
    P_G1_T42  PMAX_G1_T42  1
    P_G1_T42  PMIN_G1_T42  1
    P_G1_T42  RAMPUP_G1_T42  1
    P_G1_T42  RAMPDN_G1_T42  -1
    P_G1_T42  RAMPUP_G1_T43  -1
    P_G1_T42  RAMPDN_G1_T43  1
    P_G2_T42  TOTAL_COST  47.4
    P_G2_T42  DEMAND_T42  1
    P_G2_T42  PMAX_G2_T42  1
    P_G2_T42  PMIN_G2_T42  1
    P_G2_T42  RAMPUP_G2_T42  1
    P_G2_T42  RAMPDN_G2_T42  -1
    P_G2_T42  RAMPUP_G2_T43  -1
    P_G2_T42  RAMPDN_G2_T43  1
    P_G3_T42  TOTAL_COST  38
    P_G3_T42  DEMAND_T42  1
    P_G3_T42  PMAX_G3_T42  1
    P_G3_T42  PMIN_G3_T42  1
    P_G3_T42  RAMPUP_G3_T42  1
    P_G3_T42  RAMPDN_G3_T42  -1
    P_G3_T42  RAMPUP_G3_T43  -1
    P_G3_T42  RAMPDN_G3_T43  1
    P_G4_T42  TOTAL_COST  37
    P_G4_T42  DEMAND_T42  1
    P_G4_T42  PMAX_G4_T42  1
    P_G4_T42  PMIN_G4_T42  1
    P_G4_T42  RAMPUP_G4_T42  1
    P_G4_T42  RAMPDN_G4_T42  -1
    P_G4_T42  RAMPUP_G4_T43  -1
    P_G4_T42  RAMPDN_G4_T43  1
    P_G5_T42  TOTAL_COST  37.8
    P_G5_T42  DEMAND_T42  1
    P_G5_T42  PMAX_G5_T42  1
    P_G5_T42  PMIN_G5_T42  1
    P_G5_T42  RAMPUP_G5_T42  1
    P_G5_T42  RAMPDN_G5_T42  -1
    P_G5_T42  RAMPUP_G5_T43  -1
    P_G5_T42  RAMPDN_G5_T43  1
    P_G6_T42  TOTAL_COST  50
    P_G6_T42  DEMAND_T42  1
    P_G6_T42  PMAX_G6_T42  1
    P_G6_T42  PMIN_G6_T42  1
    P_G6_T42  RAMPUP_G6_T42  1
    P_G6_T42  RAMPDN_G6_T42  -1
    P_G6_T42  RAMPUP_G6_T43  -1
    P_G6_T42  RAMPDN_G6_T43  1
    P_G7_T42  TOTAL_COST  36.6
    P_G7_T42  DEMAND_T42  1
    P_G7_T42  PMAX_G7_T42  1
    P_G7_T42  PMIN_G7_T42  1
    P_G7_T42  RAMPUP_G7_T42  1
    P_G7_T42  RAMPDN_G7_T42  -1
    P_G7_T42  RAMPUP_G7_T43  -1
    P_G7_T42  RAMPDN_G7_T43  1
    P_G8_T42  TOTAL_COST  41.5
    P_G8_T42  DEMAND_T42  1
    P_G8_T42  PMAX_G8_T42  1
    P_G8_T42  PMIN_G8_T42  1
    P_G8_T42  RAMPUP_G8_T42  1
    P_G8_T42  RAMPDN_G8_T42  -1
    P_G8_T42  RAMPUP_G8_T43  -1
    P_G8_T42  RAMPDN_G8_T43  1
    P_G9_T42  TOTAL_COST  35.4
    P_G9_T42  DEMAND_T42  1
    P_G9_T42  PMAX_G9_T42  1
    P_G9_T42  PMIN_G9_T42  1
    P_G9_T42  RAMPUP_G9_T42  1
    P_G9_T42  RAMPDN_G9_T42  -1
    P_G9_T42  RAMPUP_G9_T43  -1
    P_G9_T42  RAMPDN_G9_T43  1
    P_G10_T42  TOTAL_COST  23
    P_G10_T42  DEMAND_T42  1
    P_G10_T42  PMAX_G10_T42  1
    P_G10_T42  PMIN_G10_T42  1
    P_G10_T42  RAMPUP_G10_T42  1
    P_G10_T42  RAMPDN_G10_T42  -1
    P_G10_T42  RAMPUP_G10_T43  -1
    P_G10_T42  RAMPDN_G10_T43  1
    P_G11_T42  TOTAL_COST  43.8
    P_G11_T42  DEMAND_T42  1
    P_G11_T42  PMAX_G11_T42  1
    P_G11_T42  PMIN_G11_T42  1
    P_G11_T42  RAMPUP_G11_T42  1
    P_G11_T42  RAMPDN_G11_T42  -1
    P_G11_T42  RAMPUP_G11_T43  -1
    P_G11_T42  RAMPDN_G11_T43  1
    P_G12_T42  TOTAL_COST  53
    P_G12_T42  DEMAND_T42  1
    P_G12_T42  PMAX_G12_T42  1
    P_G12_T42  PMIN_G12_T42  1
    P_G12_T42  RAMPUP_G12_T42  1
    P_G12_T42  RAMPDN_G12_T42  -1
    P_G12_T42  RAMPUP_G12_T43  -1
    P_G12_T42  RAMPDN_G12_T43  1
    P_G13_T42  TOTAL_COST  40.9
    P_G13_T42  DEMAND_T42  1
    P_G13_T42  PMAX_G13_T42  1
    P_G13_T42  PMIN_G13_T42  1
    P_G13_T42  RAMPUP_G13_T42  1
    P_G13_T42  RAMPDN_G13_T42  -1
    P_G13_T42  RAMPUP_G13_T43  -1
    P_G13_T42  RAMPDN_G13_T43  1
    P_G14_T42  TOTAL_COST  49.2
    P_G14_T42  DEMAND_T42  1
    P_G14_T42  PMAX_G14_T42  1
    P_G14_T42  PMIN_G14_T42  1
    P_G14_T42  RAMPUP_G14_T42  1
    P_G14_T42  RAMPDN_G14_T42  -1
    P_G14_T42  RAMPUP_G14_T43  -1
    P_G14_T42  RAMPDN_G14_T43  1
    P_G15_T42  TOTAL_COST  51.8
    P_G15_T42  DEMAND_T42  1
    P_G15_T42  PMAX_G15_T42  1
    P_G15_T42  PMIN_G15_T42  1
    P_G15_T42  RAMPUP_G15_T42  1
    P_G15_T42  RAMPDN_G15_T42  -1
    P_G15_T42  RAMPUP_G15_T43  -1
    P_G15_T42  RAMPDN_G15_T43  1
    P_G16_T42  TOTAL_COST  49.5
    P_G16_T42  DEMAND_T42  1
    P_G16_T42  PMAX_G16_T42  1
    P_G16_T42  PMIN_G16_T42  1
    P_G16_T42  RAMPUP_G16_T42  1
    P_G16_T42  RAMPDN_G16_T42  -1
    P_G16_T42  RAMPUP_G16_T43  -1
    P_G16_T42  RAMPDN_G16_T43  1
    P_G17_T42  TOTAL_COST  43.7
    P_G17_T42  DEMAND_T42  1
    P_G17_T42  PMAX_G17_T42  1
    P_G17_T42  PMIN_G17_T42  1
    P_G17_T42  RAMPUP_G17_T42  1
    P_G17_T42  RAMPDN_G17_T42  -1
    P_G17_T42  RAMPUP_G17_T43  -1
    P_G17_T42  RAMPDN_G17_T43  1
    P_G18_T42  TOTAL_COST  49.4
    P_G18_T42  DEMAND_T42  1
    P_G18_T42  PMAX_G18_T42  1
    P_G18_T42  PMIN_G18_T42  1
    P_G18_T42  RAMPUP_G18_T42  1
    P_G18_T42  RAMPDN_G18_T42  -1
    P_G18_T42  RAMPUP_G18_T43  -1
    P_G18_T42  RAMPDN_G18_T43  1
    P_G19_T42  TOTAL_COST  29.2
    P_G19_T42  DEMAND_T42  1
    P_G19_T42  PMAX_G19_T42  1
    P_G19_T42  PMIN_G19_T42  1
    P_G19_T42  RAMPUP_G19_T42  1
    P_G19_T42  RAMPDN_G19_T42  -1
    P_G19_T42  RAMPUP_G19_T43  -1
    P_G19_T42  RAMPDN_G19_T43  1
    MARK1720  'MARKER'                 'INTORG'
    U_G0_T43  TOTAL_COST  141
    U_G0_T43  RESERVE_T43  235
    U_G0_T43  PMAX_G0_T43  -235
    U_G0_T43  PMIN_G0_T43  -65
    MARK1721  'MARKER'                 'INTEND'
    MARK1722  'MARKER'                 'INTORG'
    U_G1_T43  TOTAL_COST  182
    U_G1_T43  RESERVE_T43  223
    U_G1_T43  PMAX_G1_T43  -223
    U_G1_T43  PMIN_G1_T43  -26
    MARK1723  'MARKER'                 'INTEND'
    MARK1724  'MARKER'                 'INTORG'
    U_G2_T43  TOTAL_COST  291
    U_G2_T43  RESERVE_T43  214
    U_G2_T43  PMAX_G2_T43  -214
    U_G2_T43  PMIN_G2_T43  -21
    MARK1725  'MARKER'                 'INTEND'
    MARK1726  'MARKER'                 'INTORG'
    U_G3_T43  TOTAL_COST  114
    U_G3_T43  RESERVE_T43  256
    U_G3_T43  PMAX_G3_T43  -256
    U_G3_T43  PMIN_G3_T43  -77
    MARK1727  'MARKER'                 'INTEND'
    MARK1728  'MARKER'                 'INTORG'
    U_G4_T43  TOTAL_COST  130
    U_G4_T43  RESERVE_T43  147
    U_G4_T43  PMAX_G4_T43  -147
    U_G4_T43  PMIN_G4_T43  -65
    MARK1729  'MARKER'                 'INTEND'
    MARK1730  'MARKER'                 'INTORG'
    U_G5_T43  TOTAL_COST  332
    U_G5_T43  RESERVE_T43  215
    U_G5_T43  PMAX_G5_T43  -215
    U_G5_T43  PMIN_G5_T43  -26
    MARK1731  'MARKER'                 'INTEND'
    MARK1732  'MARKER'                 'INTORG'
    U_G6_T43  TOTAL_COST  341
    U_G6_T43  RESERVE_T43  178
    U_G6_T43  PMAX_G6_T43  -178
    U_G6_T43  PMIN_G6_T43  -65
    MARK1733  'MARKER'                 'INTEND'
    MARK1734  'MARKER'                 'INTORG'
    U_G7_T43  TOTAL_COST  189
    U_G7_T43  RESERVE_T43  254
    U_G7_T43  PMAX_G7_T43  -254
    U_G7_T43  PMIN_G7_T43  -76
    MARK1735  'MARKER'                 'INTEND'
    MARK1736  'MARKER'                 'INTORG'
    U_G8_T43  TOTAL_COST  247
    U_G8_T43  RESERVE_T43  203
    U_G8_T43  PMAX_G8_T43  -203
    U_G8_T43  PMIN_G8_T43  -62
    MARK1737  'MARKER'                 'INTEND'
    MARK1738  'MARKER'                 'INTORG'
    U_G9_T43  TOTAL_COST  300
    U_G9_T43  RESERVE_T43  209
    U_G9_T43  PMAX_G9_T43  -209
    U_G9_T43  PMIN_G9_T43  -56
    MARK1739  'MARKER'                 'INTEND'
    MARK1740  'MARKER'                 'INTORG'
    U_G10_T43  TOTAL_COST  346
    U_G10_T43  RESERVE_T43  136
    U_G10_T43  PMAX_G10_T43  -136
    U_G10_T43  PMIN_G10_T43  -46
    MARK1741  'MARKER'                 'INTEND'
    MARK1742  'MARKER'                 'INTORG'
    U_G11_T43  TOTAL_COST  286
    U_G11_T43  RESERVE_T43  299
    U_G11_T43  PMAX_G11_T43  -299
    U_G11_T43  PMIN_G11_T43  -47
    MARK1743  'MARKER'                 'INTEND'
    MARK1744  'MARKER'                 'INTORG'
    U_G12_T43  TOTAL_COST  248
    U_G12_T43  RESERVE_T43  206
    U_G12_T43  PMAX_G12_T43  -206
    U_G12_T43  PMIN_G12_T43  -72
    MARK1745  'MARKER'                 'INTEND'
    MARK1746  'MARKER'                 'INTORG'
    U_G13_T43  TOTAL_COST  209
    U_G13_T43  RESERVE_T43  173
    U_G13_T43  PMAX_G13_T43  -173
    U_G13_T43  PMIN_G13_T43  -39
    MARK1747  'MARKER'                 'INTEND'
    MARK1748  'MARKER'                 'INTORG'
    U_G14_T43  TOTAL_COST  295
    U_G14_T43  RESERVE_T43  243
    U_G14_T43  PMAX_G14_T43  -243
    U_G14_T43  PMIN_G14_T43  -38
    MARK1749  'MARKER'                 'INTEND'
    MARK1750  'MARKER'                 'INTORG'
    U_G15_T43  TOTAL_COST  221
    U_G15_T43  RESERVE_T43  237
    U_G15_T43  PMAX_G15_T43  -237
    U_G15_T43  PMIN_G15_T43  -67
    MARK1751  'MARKER'                 'INTEND'
    MARK1752  'MARKER'                 'INTORG'
    U_G16_T43  TOTAL_COST  278
    U_G16_T43  RESERVE_T43  174
    U_G16_T43  PMAX_G16_T43  -174
    U_G16_T43  PMIN_G16_T43  -41
    MARK1753  'MARKER'                 'INTEND'
    MARK1754  'MARKER'                 'INTORG'
    U_G17_T43  TOTAL_COST  256
    U_G17_T43  RESERVE_T43  232
    U_G17_T43  PMAX_G17_T43  -232
    U_G17_T43  PMIN_G17_T43  -28
    MARK1755  'MARKER'                 'INTEND'
    MARK1756  'MARKER'                 'INTORG'
    U_G18_T43  TOTAL_COST  284
    U_G18_T43  RESERVE_T43  186
    U_G18_T43  PMAX_G18_T43  -186
    U_G18_T43  PMIN_G18_T43  -24
    MARK1757  'MARKER'                 'INTEND'
    MARK1758  'MARKER'                 'INTORG'
    U_G19_T43  TOTAL_COST  259
    U_G19_T43  RESERVE_T43  253
    U_G19_T43  PMAX_G19_T43  -253
    U_G19_T43  PMIN_G19_T43  -76
    MARK1759  'MARKER'                 'INTEND'
    P_G0_T43  TOTAL_COST  50.1
    P_G0_T43  DEMAND_T43  1
    P_G0_T43  PMAX_G0_T43  1
    P_G0_T43  PMIN_G0_T43  1
    P_G0_T43  RAMPUP_G0_T43  1
    P_G0_T43  RAMPDN_G0_T43  -1
    P_G0_T43  RAMPUP_G0_T44  -1
    P_G0_T43  RAMPDN_G0_T44  1
    P_G1_T43  TOTAL_COST  34.9
    P_G1_T43  DEMAND_T43  1
    P_G1_T43  PMAX_G1_T43  1
    P_G1_T43  PMIN_G1_T43  1
    P_G1_T43  RAMPUP_G1_T43  1
    P_G1_T43  RAMPDN_G1_T43  -1
    P_G1_T43  RAMPUP_G1_T44  -1
    P_G1_T43  RAMPDN_G1_T44  1
    P_G2_T43  TOTAL_COST  47.4
    P_G2_T43  DEMAND_T43  1
    P_G2_T43  PMAX_G2_T43  1
    P_G2_T43  PMIN_G2_T43  1
    P_G2_T43  RAMPUP_G2_T43  1
    P_G2_T43  RAMPDN_G2_T43  -1
    P_G2_T43  RAMPUP_G2_T44  -1
    P_G2_T43  RAMPDN_G2_T44  1
    P_G3_T43  TOTAL_COST  38
    P_G3_T43  DEMAND_T43  1
    P_G3_T43  PMAX_G3_T43  1
    P_G3_T43  PMIN_G3_T43  1
    P_G3_T43  RAMPUP_G3_T43  1
    P_G3_T43  RAMPDN_G3_T43  -1
    P_G3_T43  RAMPUP_G3_T44  -1
    P_G3_T43  RAMPDN_G3_T44  1
    P_G4_T43  TOTAL_COST  37
    P_G4_T43  DEMAND_T43  1
    P_G4_T43  PMAX_G4_T43  1
    P_G4_T43  PMIN_G4_T43  1
    P_G4_T43  RAMPUP_G4_T43  1
    P_G4_T43  RAMPDN_G4_T43  -1
    P_G4_T43  RAMPUP_G4_T44  -1
    P_G4_T43  RAMPDN_G4_T44  1
    P_G5_T43  TOTAL_COST  37.8
    P_G5_T43  DEMAND_T43  1
    P_G5_T43  PMAX_G5_T43  1
    P_G5_T43  PMIN_G5_T43  1
    P_G5_T43  RAMPUP_G5_T43  1
    P_G5_T43  RAMPDN_G5_T43  -1
    P_G5_T43  RAMPUP_G5_T44  -1
    P_G5_T43  RAMPDN_G5_T44  1
    P_G6_T43  TOTAL_COST  50
    P_G6_T43  DEMAND_T43  1
    P_G6_T43  PMAX_G6_T43  1
    P_G6_T43  PMIN_G6_T43  1
    P_G6_T43  RAMPUP_G6_T43  1
    P_G6_T43  RAMPDN_G6_T43  -1
    P_G6_T43  RAMPUP_G6_T44  -1
    P_G6_T43  RAMPDN_G6_T44  1
    P_G7_T43  TOTAL_COST  36.6
    P_G7_T43  DEMAND_T43  1
    P_G7_T43  PMAX_G7_T43  1
    P_G7_T43  PMIN_G7_T43  1
    P_G7_T43  RAMPUP_G7_T43  1
    P_G7_T43  RAMPDN_G7_T43  -1
    P_G7_T43  RAMPUP_G7_T44  -1
    P_G7_T43  RAMPDN_G7_T44  1
    P_G8_T43  TOTAL_COST  41.5
    P_G8_T43  DEMAND_T43  1
    P_G8_T43  PMAX_G8_T43  1
    P_G8_T43  PMIN_G8_T43  1
    P_G8_T43  RAMPUP_G8_T43  1
    P_G8_T43  RAMPDN_G8_T43  -1
    P_G8_T43  RAMPUP_G8_T44  -1
    P_G8_T43  RAMPDN_G8_T44  1
    P_G9_T43  TOTAL_COST  35.4
    P_G9_T43  DEMAND_T43  1
    P_G9_T43  PMAX_G9_T43  1
    P_G9_T43  PMIN_G9_T43  1
    P_G9_T43  RAMPUP_G9_T43  1
    P_G9_T43  RAMPDN_G9_T43  -1
    P_G9_T43  RAMPUP_G9_T44  -1
    P_G9_T43  RAMPDN_G9_T44  1
    P_G10_T43  TOTAL_COST  23
    P_G10_T43  DEMAND_T43  1
    P_G10_T43  PMAX_G10_T43  1
    P_G10_T43  PMIN_G10_T43  1
    P_G10_T43  RAMPUP_G10_T43  1
    P_G10_T43  RAMPDN_G10_T43  -1
    P_G10_T43  RAMPUP_G10_T44  -1
    P_G10_T43  RAMPDN_G10_T44  1
    P_G11_T43  TOTAL_COST  43.8
    P_G11_T43  DEMAND_T43  1
    P_G11_T43  PMAX_G11_T43  1
    P_G11_T43  PMIN_G11_T43  1
    P_G11_T43  RAMPUP_G11_T43  1
    P_G11_T43  RAMPDN_G11_T43  -1
    P_G11_T43  RAMPUP_G11_T44  -1
    P_G11_T43  RAMPDN_G11_T44  1
    P_G12_T43  TOTAL_COST  53
    P_G12_T43  DEMAND_T43  1
    P_G12_T43  PMAX_G12_T43  1
    P_G12_T43  PMIN_G12_T43  1
    P_G12_T43  RAMPUP_G12_T43  1
    P_G12_T43  RAMPDN_G12_T43  -1
    P_G12_T43  RAMPUP_G12_T44  -1
    P_G12_T43  RAMPDN_G12_T44  1
    P_G13_T43  TOTAL_COST  40.9
    P_G13_T43  DEMAND_T43  1
    P_G13_T43  PMAX_G13_T43  1
    P_G13_T43  PMIN_G13_T43  1
    P_G13_T43  RAMPUP_G13_T43  1
    P_G13_T43  RAMPDN_G13_T43  -1
    P_G13_T43  RAMPUP_G13_T44  -1
    P_G13_T43  RAMPDN_G13_T44  1
    P_G14_T43  TOTAL_COST  49.2
    P_G14_T43  DEMAND_T43  1
    P_G14_T43  PMAX_G14_T43  1
    P_G14_T43  PMIN_G14_T43  1
    P_G14_T43  RAMPUP_G14_T43  1
    P_G14_T43  RAMPDN_G14_T43  -1
    P_G14_T43  RAMPUP_G14_T44  -1
    P_G14_T43  RAMPDN_G14_T44  1
    P_G15_T43  TOTAL_COST  51.8
    P_G15_T43  DEMAND_T43  1
    P_G15_T43  PMAX_G15_T43  1
    P_G15_T43  PMIN_G15_T43  1
    P_G15_T43  RAMPUP_G15_T43  1
    P_G15_T43  RAMPDN_G15_T43  -1
    P_G15_T43  RAMPUP_G15_T44  -1
    P_G15_T43  RAMPDN_G15_T44  1
    P_G16_T43  TOTAL_COST  49.5
    P_G16_T43  DEMAND_T43  1
    P_G16_T43  PMAX_G16_T43  1
    P_G16_T43  PMIN_G16_T43  1
    P_G16_T43  RAMPUP_G16_T43  1
    P_G16_T43  RAMPDN_G16_T43  -1
    P_G16_T43  RAMPUP_G16_T44  -1
    P_G16_T43  RAMPDN_G16_T44  1
    P_G17_T43  TOTAL_COST  43.7
    P_G17_T43  DEMAND_T43  1
    P_G17_T43  PMAX_G17_T43  1
    P_G17_T43  PMIN_G17_T43  1
    P_G17_T43  RAMPUP_G17_T43  1
    P_G17_T43  RAMPDN_G17_T43  -1
    P_G17_T43  RAMPUP_G17_T44  -1
    P_G17_T43  RAMPDN_G17_T44  1
    P_G18_T43  TOTAL_COST  49.4
    P_G18_T43  DEMAND_T43  1
    P_G18_T43  PMAX_G18_T43  1
    P_G18_T43  PMIN_G18_T43  1
    P_G18_T43  RAMPUP_G18_T43  1
    P_G18_T43  RAMPDN_G18_T43  -1
    P_G18_T43  RAMPUP_G18_T44  -1
    P_G18_T43  RAMPDN_G18_T44  1
    P_G19_T43  TOTAL_COST  29.2
    P_G19_T43  DEMAND_T43  1
    P_G19_T43  PMAX_G19_T43  1
    P_G19_T43  PMIN_G19_T43  1
    P_G19_T43  RAMPUP_G19_T43  1
    P_G19_T43  RAMPDN_G19_T43  -1
    P_G19_T43  RAMPUP_G19_T44  -1
    P_G19_T43  RAMPDN_G19_T44  1
    MARK1760  'MARKER'                 'INTORG'
    U_G0_T44  TOTAL_COST  141
    U_G0_T44  RESERVE_T44  235
    U_G0_T44  PMAX_G0_T44  -235
    U_G0_T44  PMIN_G0_T44  -65
    MARK1761  'MARKER'                 'INTEND'
    MARK1762  'MARKER'                 'INTORG'
    U_G1_T44  TOTAL_COST  182
    U_G1_T44  RESERVE_T44  223
    U_G1_T44  PMAX_G1_T44  -223
    U_G1_T44  PMIN_G1_T44  -26
    MARK1763  'MARKER'                 'INTEND'
    MARK1764  'MARKER'                 'INTORG'
    U_G2_T44  TOTAL_COST  291
    U_G2_T44  RESERVE_T44  214
    U_G2_T44  PMAX_G2_T44  -214
    U_G2_T44  PMIN_G2_T44  -21
    MARK1765  'MARKER'                 'INTEND'
    MARK1766  'MARKER'                 'INTORG'
    U_G3_T44  TOTAL_COST  114
    U_G3_T44  RESERVE_T44  256
    U_G3_T44  PMAX_G3_T44  -256
    U_G3_T44  PMIN_G3_T44  -77
    MARK1767  'MARKER'                 'INTEND'
    MARK1768  'MARKER'                 'INTORG'
    U_G4_T44  TOTAL_COST  130
    U_G4_T44  RESERVE_T44  147
    U_G4_T44  PMAX_G4_T44  -147
    U_G4_T44  PMIN_G4_T44  -65
    MARK1769  'MARKER'                 'INTEND'
    MARK1770  'MARKER'                 'INTORG'
    U_G5_T44  TOTAL_COST  332
    U_G5_T44  RESERVE_T44  215
    U_G5_T44  PMAX_G5_T44  -215
    U_G5_T44  PMIN_G5_T44  -26
    MARK1771  'MARKER'                 'INTEND'
    MARK1772  'MARKER'                 'INTORG'
    U_G6_T44  TOTAL_COST  341
    U_G6_T44  RESERVE_T44  178
    U_G6_T44  PMAX_G6_T44  -178
    U_G6_T44  PMIN_G6_T44  -65
    MARK1773  'MARKER'                 'INTEND'
    MARK1774  'MARKER'                 'INTORG'
    U_G7_T44  TOTAL_COST  189
    U_G7_T44  RESERVE_T44  254
    U_G7_T44  PMAX_G7_T44  -254
    U_G7_T44  PMIN_G7_T44  -76
    MARK1775  'MARKER'                 'INTEND'
    MARK1776  'MARKER'                 'INTORG'
    U_G8_T44  TOTAL_COST  247
    U_G8_T44  RESERVE_T44  203
    U_G8_T44  PMAX_G8_T44  -203
    U_G8_T44  PMIN_G8_T44  -62
    MARK1777  'MARKER'                 'INTEND'
    MARK1778  'MARKER'                 'INTORG'
    U_G9_T44  TOTAL_COST  300
    U_G9_T44  RESERVE_T44  209
    U_G9_T44  PMAX_G9_T44  -209
    U_G9_T44  PMIN_G9_T44  -56
    MARK1779  'MARKER'                 'INTEND'
    MARK1780  'MARKER'                 'INTORG'
    U_G10_T44  TOTAL_COST  346
    U_G10_T44  RESERVE_T44  136
    U_G10_T44  PMAX_G10_T44  -136
    U_G10_T44  PMIN_G10_T44  -46
    MARK1781  'MARKER'                 'INTEND'
    MARK1782  'MARKER'                 'INTORG'
    U_G11_T44  TOTAL_COST  286
    U_G11_T44  RESERVE_T44  299
    U_G11_T44  PMAX_G11_T44  -299
    U_G11_T44  PMIN_G11_T44  -47
    MARK1783  'MARKER'                 'INTEND'
    MARK1784  'MARKER'                 'INTORG'
    U_G12_T44  TOTAL_COST  248
    U_G12_T44  RESERVE_T44  206
    U_G12_T44  PMAX_G12_T44  -206
    U_G12_T44  PMIN_G12_T44  -72
    MARK1785  'MARKER'                 'INTEND'
    MARK1786  'MARKER'                 'INTORG'
    U_G13_T44  TOTAL_COST  209
    U_G13_T44  RESERVE_T44  173
    U_G13_T44  PMAX_G13_T44  -173
    U_G13_T44  PMIN_G13_T44  -39
    MARK1787  'MARKER'                 'INTEND'
    MARK1788  'MARKER'                 'INTORG'
    U_G14_T44  TOTAL_COST  295
    U_G14_T44  RESERVE_T44  243
    U_G14_T44  PMAX_G14_T44  -243
    U_G14_T44  PMIN_G14_T44  -38
    MARK1789  'MARKER'                 'INTEND'
    MARK1790  'MARKER'                 'INTORG'
    U_G15_T44  TOTAL_COST  221
    U_G15_T44  RESERVE_T44  237
    U_G15_T44  PMAX_G15_T44  -237
    U_G15_T44  PMIN_G15_T44  -67
    MARK1791  'MARKER'                 'INTEND'
    MARK1792  'MARKER'                 'INTORG'
    U_G16_T44  TOTAL_COST  278
    U_G16_T44  RESERVE_T44  174
    U_G16_T44  PMAX_G16_T44  -174
    U_G16_T44  PMIN_G16_T44  -41
    MARK1793  'MARKER'                 'INTEND'
    MARK1794  'MARKER'                 'INTORG'
    U_G17_T44  TOTAL_COST  256
    U_G17_T44  RESERVE_T44  232
    U_G17_T44  PMAX_G17_T44  -232
    U_G17_T44  PMIN_G17_T44  -28
    MARK1795  'MARKER'                 'INTEND'
    MARK1796  'MARKER'                 'INTORG'
    U_G18_T44  TOTAL_COST  284
    U_G18_T44  RESERVE_T44  186
    U_G18_T44  PMAX_G18_T44  -186
    U_G18_T44  PMIN_G18_T44  -24
    MARK1797  'MARKER'                 'INTEND'
    MARK1798  'MARKER'                 'INTORG'
    U_G19_T44  TOTAL_COST  259
    U_G19_T44  RESERVE_T44  253
    U_G19_T44  PMAX_G19_T44  -253
    U_G19_T44  PMIN_G19_T44  -76
    MARK1799  'MARKER'                 'INTEND'
    P_G0_T44  TOTAL_COST  50.1
    P_G0_T44  DEMAND_T44  1
    P_G0_T44  PMAX_G0_T44  1
    P_G0_T44  PMIN_G0_T44  1
    P_G0_T44  RAMPUP_G0_T44  1
    P_G0_T44  RAMPDN_G0_T44  -1
    P_G0_T44  RAMPUP_G0_T45  -1
    P_G0_T44  RAMPDN_G0_T45  1
    P_G1_T44  TOTAL_COST  34.9
    P_G1_T44  DEMAND_T44  1
    P_G1_T44  PMAX_G1_T44  1
    P_G1_T44  PMIN_G1_T44  1
    P_G1_T44  RAMPUP_G1_T44  1
    P_G1_T44  RAMPDN_G1_T44  -1
    P_G1_T44  RAMPUP_G1_T45  -1
    P_G1_T44  RAMPDN_G1_T45  1
    P_G2_T44  TOTAL_COST  47.4
    P_G2_T44  DEMAND_T44  1
    P_G2_T44  PMAX_G2_T44  1
    P_G2_T44  PMIN_G2_T44  1
    P_G2_T44  RAMPUP_G2_T44  1
    P_G2_T44  RAMPDN_G2_T44  -1
    P_G2_T44  RAMPUP_G2_T45  -1
    P_G2_T44  RAMPDN_G2_T45  1
    P_G3_T44  TOTAL_COST  38
    P_G3_T44  DEMAND_T44  1
    P_G3_T44  PMAX_G3_T44  1
    P_G3_T44  PMIN_G3_T44  1
    P_G3_T44  RAMPUP_G3_T44  1
    P_G3_T44  RAMPDN_G3_T44  -1
    P_G3_T44  RAMPUP_G3_T45  -1
    P_G3_T44  RAMPDN_G3_T45  1
    P_G4_T44  TOTAL_COST  37
    P_G4_T44  DEMAND_T44  1
    P_G4_T44  PMAX_G4_T44  1
    P_G4_T44  PMIN_G4_T44  1
    P_G4_T44  RAMPUP_G4_T44  1
    P_G4_T44  RAMPDN_G4_T44  -1
    P_G4_T44  RAMPUP_G4_T45  -1
    P_G4_T44  RAMPDN_G4_T45  1
    P_G5_T44  TOTAL_COST  37.8
    P_G5_T44  DEMAND_T44  1
    P_G5_T44  PMAX_G5_T44  1
    P_G5_T44  PMIN_G5_T44  1
    P_G5_T44  RAMPUP_G5_T44  1
    P_G5_T44  RAMPDN_G5_T44  -1
    P_G5_T44  RAMPUP_G5_T45  -1
    P_G5_T44  RAMPDN_G5_T45  1
    P_G6_T44  TOTAL_COST  50
    P_G6_T44  DEMAND_T44  1
    P_G6_T44  PMAX_G6_T44  1
    P_G6_T44  PMIN_G6_T44  1
    P_G6_T44  RAMPUP_G6_T44  1
    P_G6_T44  RAMPDN_G6_T44  -1
    P_G6_T44  RAMPUP_G6_T45  -1
    P_G6_T44  RAMPDN_G6_T45  1
    P_G7_T44  TOTAL_COST  36.6
    P_G7_T44  DEMAND_T44  1
    P_G7_T44  PMAX_G7_T44  1
    P_G7_T44  PMIN_G7_T44  1
    P_G7_T44  RAMPUP_G7_T44  1
    P_G7_T44  RAMPDN_G7_T44  -1
    P_G7_T44  RAMPUP_G7_T45  -1
    P_G7_T44  RAMPDN_G7_T45  1
    P_G8_T44  TOTAL_COST  41.5
    P_G8_T44  DEMAND_T44  1
    P_G8_T44  PMAX_G8_T44  1
    P_G8_T44  PMIN_G8_T44  1
    P_G8_T44  RAMPUP_G8_T44  1
    P_G8_T44  RAMPDN_G8_T44  -1
    P_G8_T44  RAMPUP_G8_T45  -1
    P_G8_T44  RAMPDN_G8_T45  1
    P_G9_T44  TOTAL_COST  35.4
    P_G9_T44  DEMAND_T44  1
    P_G9_T44  PMAX_G9_T44  1
    P_G9_T44  PMIN_G9_T44  1
    P_G9_T44  RAMPUP_G9_T44  1
    P_G9_T44  RAMPDN_G9_T44  -1
    P_G9_T44  RAMPUP_G9_T45  -1
    P_G9_T44  RAMPDN_G9_T45  1
    P_G10_T44  TOTAL_COST  23
    P_G10_T44  DEMAND_T44  1
    P_G10_T44  PMAX_G10_T44  1
    P_G10_T44  PMIN_G10_T44  1
    P_G10_T44  RAMPUP_G10_T44  1
    P_G10_T44  RAMPDN_G10_T44  -1
    P_G10_T44  RAMPUP_G10_T45  -1
    P_G10_T44  RAMPDN_G10_T45  1
    P_G11_T44  TOTAL_COST  43.8
    P_G11_T44  DEMAND_T44  1
    P_G11_T44  PMAX_G11_T44  1
    P_G11_T44  PMIN_G11_T44  1
    P_G11_T44  RAMPUP_G11_T44  1
    P_G11_T44  RAMPDN_G11_T44  -1
    P_G11_T44  RAMPUP_G11_T45  -1
    P_G11_T44  RAMPDN_G11_T45  1
    P_G12_T44  TOTAL_COST  53
    P_G12_T44  DEMAND_T44  1
    P_G12_T44  PMAX_G12_T44  1
    P_G12_T44  PMIN_G12_T44  1
    P_G12_T44  RAMPUP_G12_T44  1
    P_G12_T44  RAMPDN_G12_T44  -1
    P_G12_T44  RAMPUP_G12_T45  -1
    P_G12_T44  RAMPDN_G12_T45  1
    P_G13_T44  TOTAL_COST  40.9
    P_G13_T44  DEMAND_T44  1
    P_G13_T44  PMAX_G13_T44  1
    P_G13_T44  PMIN_G13_T44  1
    P_G13_T44  RAMPUP_G13_T44  1
    P_G13_T44  RAMPDN_G13_T44  -1
    P_G13_T44  RAMPUP_G13_T45  -1
    P_G13_T44  RAMPDN_G13_T45  1
    P_G14_T44  TOTAL_COST  49.2
    P_G14_T44  DEMAND_T44  1
    P_G14_T44  PMAX_G14_T44  1
    P_G14_T44  PMIN_G14_T44  1
    P_G14_T44  RAMPUP_G14_T44  1
    P_G14_T44  RAMPDN_G14_T44  -1
    P_G14_T44  RAMPUP_G14_T45  -1
    P_G14_T44  RAMPDN_G14_T45  1
    P_G15_T44  TOTAL_COST  51.8
    P_G15_T44  DEMAND_T44  1
    P_G15_T44  PMAX_G15_T44  1
    P_G15_T44  PMIN_G15_T44  1
    P_G15_T44  RAMPUP_G15_T44  1
    P_G15_T44  RAMPDN_G15_T44  -1
    P_G15_T44  RAMPUP_G15_T45  -1
    P_G15_T44  RAMPDN_G15_T45  1
    P_G16_T44  TOTAL_COST  49.5
    P_G16_T44  DEMAND_T44  1
    P_G16_T44  PMAX_G16_T44  1
    P_G16_T44  PMIN_G16_T44  1
    P_G16_T44  RAMPUP_G16_T44  1
    P_G16_T44  RAMPDN_G16_T44  -1
    P_G16_T44  RAMPUP_G16_T45  -1
    P_G16_T44  RAMPDN_G16_T45  1
    P_G17_T44  TOTAL_COST  43.7
    P_G17_T44  DEMAND_T44  1
    P_G17_T44  PMAX_G17_T44  1
    P_G17_T44  PMIN_G17_T44  1
    P_G17_T44  RAMPUP_G17_T44  1
    P_G17_T44  RAMPDN_G17_T44  -1
    P_G17_T44  RAMPUP_G17_T45  -1
    P_G17_T44  RAMPDN_G17_T45  1
    P_G18_T44  TOTAL_COST  49.4
    P_G18_T44  DEMAND_T44  1
    P_G18_T44  PMAX_G18_T44  1
    P_G18_T44  PMIN_G18_T44  1
    P_G18_T44  RAMPUP_G18_T44  1
    P_G18_T44  RAMPDN_G18_T44  -1
    P_G18_T44  RAMPUP_G18_T45  -1
    P_G18_T44  RAMPDN_G18_T45  1
    P_G19_T44  TOTAL_COST  29.2
    P_G19_T44  DEMAND_T44  1
    P_G19_T44  PMAX_G19_T44  1
    P_G19_T44  PMIN_G19_T44  1
    P_G19_T44  RAMPUP_G19_T44  1
    P_G19_T44  RAMPDN_G19_T44  -1
    P_G19_T44  RAMPUP_G19_T45  -1
    P_G19_T44  RAMPDN_G19_T45  1
    MARK1800  'MARKER'                 'INTORG'
    U_G0_T45  TOTAL_COST  141
    U_G0_T45  RESERVE_T45  235
    U_G0_T45  PMAX_G0_T45  -235
    U_G0_T45  PMIN_G0_T45  -65
    MARK1801  'MARKER'                 'INTEND'
    MARK1802  'MARKER'                 'INTORG'
    U_G1_T45  TOTAL_COST  182
    U_G1_T45  RESERVE_T45  223
    U_G1_T45  PMAX_G1_T45  -223
    U_G1_T45  PMIN_G1_T45  -26
    MARK1803  'MARKER'                 'INTEND'
    MARK1804  'MARKER'                 'INTORG'
    U_G2_T45  TOTAL_COST  291
    U_G2_T45  RESERVE_T45  214
    U_G2_T45  PMAX_G2_T45  -214
    U_G2_T45  PMIN_G2_T45  -21
    MARK1805  'MARKER'                 'INTEND'
    MARK1806  'MARKER'                 'INTORG'
    U_G3_T45  TOTAL_COST  114
    U_G3_T45  RESERVE_T45  256
    U_G3_T45  PMAX_G3_T45  -256
    U_G3_T45  PMIN_G3_T45  -77
    MARK1807  'MARKER'                 'INTEND'
    MARK1808  'MARKER'                 'INTORG'
    U_G4_T45  TOTAL_COST  130
    U_G4_T45  RESERVE_T45  147
    U_G4_T45  PMAX_G4_T45  -147
    U_G4_T45  PMIN_G4_T45  -65
    MARK1809  'MARKER'                 'INTEND'
    MARK1810  'MARKER'                 'INTORG'
    U_G5_T45  TOTAL_COST  332
    U_G5_T45  RESERVE_T45  215
    U_G5_T45  PMAX_G5_T45  -215
    U_G5_T45  PMIN_G5_T45  -26
    MARK1811  'MARKER'                 'INTEND'
    MARK1812  'MARKER'                 'INTORG'
    U_G6_T45  TOTAL_COST  341
    U_G6_T45  RESERVE_T45  178
    U_G6_T45  PMAX_G6_T45  -178
    U_G6_T45  PMIN_G6_T45  -65
    MARK1813  'MARKER'                 'INTEND'
    MARK1814  'MARKER'                 'INTORG'
    U_G7_T45  TOTAL_COST  189
    U_G7_T45  RESERVE_T45  254
    U_G7_T45  PMAX_G7_T45  -254
    U_G7_T45  PMIN_G7_T45  -76
    MARK1815  'MARKER'                 'INTEND'
    MARK1816  'MARKER'                 'INTORG'
    U_G8_T45  TOTAL_COST  247
    U_G8_T45  RESERVE_T45  203
    U_G8_T45  PMAX_G8_T45  -203
    U_G8_T45  PMIN_G8_T45  -62
    MARK1817  'MARKER'                 'INTEND'
    MARK1818  'MARKER'                 'INTORG'
    U_G9_T45  TOTAL_COST  300
    U_G9_T45  RESERVE_T45  209
    U_G9_T45  PMAX_G9_T45  -209
    U_G9_T45  PMIN_G9_T45  -56
    MARK1819  'MARKER'                 'INTEND'
    MARK1820  'MARKER'                 'INTORG'
    U_G10_T45  TOTAL_COST  346
    U_G10_T45  RESERVE_T45  136
    U_G10_T45  PMAX_G10_T45  -136
    U_G10_T45  PMIN_G10_T45  -46
    MARK1821  'MARKER'                 'INTEND'
    MARK1822  'MARKER'                 'INTORG'
    U_G11_T45  TOTAL_COST  286
    U_G11_T45  RESERVE_T45  299
    U_G11_T45  PMAX_G11_T45  -299
    U_G11_T45  PMIN_G11_T45  -47
    MARK1823  'MARKER'                 'INTEND'
    MARK1824  'MARKER'                 'INTORG'
    U_G12_T45  TOTAL_COST  248
    U_G12_T45  RESERVE_T45  206
    U_G12_T45  PMAX_G12_T45  -206
    U_G12_T45  PMIN_G12_T45  -72
    MARK1825  'MARKER'                 'INTEND'
    MARK1826  'MARKER'                 'INTORG'
    U_G13_T45  TOTAL_COST  209
    U_G13_T45  RESERVE_T45  173
    U_G13_T45  PMAX_G13_T45  -173
    U_G13_T45  PMIN_G13_T45  -39
    MARK1827  'MARKER'                 'INTEND'
    MARK1828  'MARKER'                 'INTORG'
    U_G14_T45  TOTAL_COST  295
    U_G14_T45  RESERVE_T45  243
    U_G14_T45  PMAX_G14_T45  -243
    U_G14_T45  PMIN_G14_T45  -38
    MARK1829  'MARKER'                 'INTEND'
    MARK1830  'MARKER'                 'INTORG'
    U_G15_T45  TOTAL_COST  221
    U_G15_T45  RESERVE_T45  237
    U_G15_T45  PMAX_G15_T45  -237
    U_G15_T45  PMIN_G15_T45  -67
    MARK1831  'MARKER'                 'INTEND'
    MARK1832  'MARKER'                 'INTORG'
    U_G16_T45  TOTAL_COST  278
    U_G16_T45  RESERVE_T45  174
    U_G16_T45  PMAX_G16_T45  -174
    U_G16_T45  PMIN_G16_T45  -41
    MARK1833  'MARKER'                 'INTEND'
    MARK1834  'MARKER'                 'INTORG'
    U_G17_T45  TOTAL_COST  256
    U_G17_T45  RESERVE_T45  232
    U_G17_T45  PMAX_G17_T45  -232
    U_G17_T45  PMIN_G17_T45  -28
    MARK1835  'MARKER'                 'INTEND'
    MARK1836  'MARKER'                 'INTORG'
    U_G18_T45  TOTAL_COST  284
    U_G18_T45  RESERVE_T45  186
    U_G18_T45  PMAX_G18_T45  -186
    U_G18_T45  PMIN_G18_T45  -24
    MARK1837  'MARKER'                 'INTEND'
    MARK1838  'MARKER'                 'INTORG'
    U_G19_T45  TOTAL_COST  259
    U_G19_T45  RESERVE_T45  253
    U_G19_T45  PMAX_G19_T45  -253
    U_G19_T45  PMIN_G19_T45  -76
    MARK1839  'MARKER'                 'INTEND'
    P_G0_T45  TOTAL_COST  50.1
    P_G0_T45  DEMAND_T45  1
    P_G0_T45  PMAX_G0_T45  1
    P_G0_T45  PMIN_G0_T45  1
    P_G0_T45  RAMPUP_G0_T45  1
    P_G0_T45  RAMPDN_G0_T45  -1
    P_G0_T45  RAMPUP_G0_T46  -1
    P_G0_T45  RAMPDN_G0_T46  1
    P_G1_T45  TOTAL_COST  34.9
    P_G1_T45  DEMAND_T45  1
    P_G1_T45  PMAX_G1_T45  1
    P_G1_T45  PMIN_G1_T45  1
    P_G1_T45  RAMPUP_G1_T45  1
    P_G1_T45  RAMPDN_G1_T45  -1
    P_G1_T45  RAMPUP_G1_T46  -1
    P_G1_T45  RAMPDN_G1_T46  1
    P_G2_T45  TOTAL_COST  47.4
    P_G2_T45  DEMAND_T45  1
    P_G2_T45  PMAX_G2_T45  1
    P_G2_T45  PMIN_G2_T45  1
    P_G2_T45  RAMPUP_G2_T45  1
    P_G2_T45  RAMPDN_G2_T45  -1
    P_G2_T45  RAMPUP_G2_T46  -1
    P_G2_T45  RAMPDN_G2_T46  1
    P_G3_T45  TOTAL_COST  38
    P_G3_T45  DEMAND_T45  1
    P_G3_T45  PMAX_G3_T45  1
    P_G3_T45  PMIN_G3_T45  1
    P_G3_T45  RAMPUP_G3_T45  1
    P_G3_T45  RAMPDN_G3_T45  -1
    P_G3_T45  RAMPUP_G3_T46  -1
    P_G3_T45  RAMPDN_G3_T46  1
    P_G4_T45  TOTAL_COST  37
    P_G4_T45  DEMAND_T45  1
    P_G4_T45  PMAX_G4_T45  1
    P_G4_T45  PMIN_G4_T45  1
    P_G4_T45  RAMPUP_G4_T45  1
    P_G4_T45  RAMPDN_G4_T45  -1
    P_G4_T45  RAMPUP_G4_T46  -1
    P_G4_T45  RAMPDN_G4_T46  1
    P_G5_T45  TOTAL_COST  37.8
    P_G5_T45  DEMAND_T45  1
    P_G5_T45  PMAX_G5_T45  1
    P_G5_T45  PMIN_G5_T45  1
    P_G5_T45  RAMPUP_G5_T45  1
    P_G5_T45  RAMPDN_G5_T45  -1
    P_G5_T45  RAMPUP_G5_T46  -1
    P_G5_T45  RAMPDN_G5_T46  1
    P_G6_T45  TOTAL_COST  50
    P_G6_T45  DEMAND_T45  1
    P_G6_T45  PMAX_G6_T45  1
    P_G6_T45  PMIN_G6_T45  1
    P_G6_T45  RAMPUP_G6_T45  1
    P_G6_T45  RAMPDN_G6_T45  -1
    P_G6_T45  RAMPUP_G6_T46  -1
    P_G6_T45  RAMPDN_G6_T46  1
    P_G7_T45  TOTAL_COST  36.6
    P_G7_T45  DEMAND_T45  1
    P_G7_T45  PMAX_G7_T45  1
    P_G7_T45  PMIN_G7_T45  1
    P_G7_T45  RAMPUP_G7_T45  1
    P_G7_T45  RAMPDN_G7_T45  -1
    P_G7_T45  RAMPUP_G7_T46  -1
    P_G7_T45  RAMPDN_G7_T46  1
    P_G8_T45  TOTAL_COST  41.5
    P_G8_T45  DEMAND_T45  1
    P_G8_T45  PMAX_G8_T45  1
    P_G8_T45  PMIN_G8_T45  1
    P_G8_T45  RAMPUP_G8_T45  1
    P_G8_T45  RAMPDN_G8_T45  -1
    P_G8_T45  RAMPUP_G8_T46  -1
    P_G8_T45  RAMPDN_G8_T46  1
    P_G9_T45  TOTAL_COST  35.4
    P_G9_T45  DEMAND_T45  1
    P_G9_T45  PMAX_G9_T45  1
    P_G9_T45  PMIN_G9_T45  1
    P_G9_T45  RAMPUP_G9_T45  1
    P_G9_T45  RAMPDN_G9_T45  -1
    P_G9_T45  RAMPUP_G9_T46  -1
    P_G9_T45  RAMPDN_G9_T46  1
    P_G10_T45  TOTAL_COST  23
    P_G10_T45  DEMAND_T45  1
    P_G10_T45  PMAX_G10_T45  1
    P_G10_T45  PMIN_G10_T45  1
    P_G10_T45  RAMPUP_G10_T45  1
    P_G10_T45  RAMPDN_G10_T45  -1
    P_G10_T45  RAMPUP_G10_T46  -1
    P_G10_T45  RAMPDN_G10_T46  1
    P_G11_T45  TOTAL_COST  43.8
    P_G11_T45  DEMAND_T45  1
    P_G11_T45  PMAX_G11_T45  1
    P_G11_T45  PMIN_G11_T45  1
    P_G11_T45  RAMPUP_G11_T45  1
    P_G11_T45  RAMPDN_G11_T45  -1
    P_G11_T45  RAMPUP_G11_T46  -1
    P_G11_T45  RAMPDN_G11_T46  1
    P_G12_T45  TOTAL_COST  53
    P_G12_T45  DEMAND_T45  1
    P_G12_T45  PMAX_G12_T45  1
    P_G12_T45  PMIN_G12_T45  1
    P_G12_T45  RAMPUP_G12_T45  1
    P_G12_T45  RAMPDN_G12_T45  -1
    P_G12_T45  RAMPUP_G12_T46  -1
    P_G12_T45  RAMPDN_G12_T46  1
    P_G13_T45  TOTAL_COST  40.9
    P_G13_T45  DEMAND_T45  1
    P_G13_T45  PMAX_G13_T45  1
    P_G13_T45  PMIN_G13_T45  1
    P_G13_T45  RAMPUP_G13_T45  1
    P_G13_T45  RAMPDN_G13_T45  -1
    P_G13_T45  RAMPUP_G13_T46  -1
    P_G13_T45  RAMPDN_G13_T46  1
    P_G14_T45  TOTAL_COST  49.2
    P_G14_T45  DEMAND_T45  1
    P_G14_T45  PMAX_G14_T45  1
    P_G14_T45  PMIN_G14_T45  1
    P_G14_T45  RAMPUP_G14_T45  1
    P_G14_T45  RAMPDN_G14_T45  -1
    P_G14_T45  RAMPUP_G14_T46  -1
    P_G14_T45  RAMPDN_G14_T46  1
    P_G15_T45  TOTAL_COST  51.8
    P_G15_T45  DEMAND_T45  1
    P_G15_T45  PMAX_G15_T45  1
    P_G15_T45  PMIN_G15_T45  1
    P_G15_T45  RAMPUP_G15_T45  1
    P_G15_T45  RAMPDN_G15_T45  -1
    P_G15_T45  RAMPUP_G15_T46  -1
    P_G15_T45  RAMPDN_G15_T46  1
    P_G16_T45  TOTAL_COST  49.5
    P_G16_T45  DEMAND_T45  1
    P_G16_T45  PMAX_G16_T45  1
    P_G16_T45  PMIN_G16_T45  1
    P_G16_T45  RAMPUP_G16_T45  1
    P_G16_T45  RAMPDN_G16_T45  -1
    P_G16_T45  RAMPUP_G16_T46  -1
    P_G16_T45  RAMPDN_G16_T46  1
    P_G17_T45  TOTAL_COST  43.7
    P_G17_T45  DEMAND_T45  1
    P_G17_T45  PMAX_G17_T45  1
    P_G17_T45  PMIN_G17_T45  1
    P_G17_T45  RAMPUP_G17_T45  1
    P_G17_T45  RAMPDN_G17_T45  -1
    P_G17_T45  RAMPUP_G17_T46  -1
    P_G17_T45  RAMPDN_G17_T46  1
    P_G18_T45  TOTAL_COST  49.4
    P_G18_T45  DEMAND_T45  1
    P_G18_T45  PMAX_G18_T45  1
    P_G18_T45  PMIN_G18_T45  1
    P_G18_T45  RAMPUP_G18_T45  1
    P_G18_T45  RAMPDN_G18_T45  -1
    P_G18_T45  RAMPUP_G18_T46  -1
    P_G18_T45  RAMPDN_G18_T46  1
    P_G19_T45  TOTAL_COST  29.2
    P_G19_T45  DEMAND_T45  1
    P_G19_T45  PMAX_G19_T45  1
    P_G19_T45  PMIN_G19_T45  1
    P_G19_T45  RAMPUP_G19_T45  1
    P_G19_T45  RAMPDN_G19_T45  -1
    P_G19_T45  RAMPUP_G19_T46  -1
    P_G19_T45  RAMPDN_G19_T46  1
    MARK1840  'MARKER'                 'INTORG'
    U_G0_T46  TOTAL_COST  141
    U_G0_T46  RESERVE_T46  235
    U_G0_T46  PMAX_G0_T46  -235
    U_G0_T46  PMIN_G0_T46  -65
    MARK1841  'MARKER'                 'INTEND'
    MARK1842  'MARKER'                 'INTORG'
    U_G1_T46  TOTAL_COST  182
    U_G1_T46  RESERVE_T46  223
    U_G1_T46  PMAX_G1_T46  -223
    U_G1_T46  PMIN_G1_T46  -26
    MARK1843  'MARKER'                 'INTEND'
    MARK1844  'MARKER'                 'INTORG'
    U_G2_T46  TOTAL_COST  291
    U_G2_T46  RESERVE_T46  214
    U_G2_T46  PMAX_G2_T46  -214
    U_G2_T46  PMIN_G2_T46  -21
    MARK1845  'MARKER'                 'INTEND'
    MARK1846  'MARKER'                 'INTORG'
    U_G3_T46  TOTAL_COST  114
    U_G3_T46  RESERVE_T46  256
    U_G3_T46  PMAX_G3_T46  -256
    U_G3_T46  PMIN_G3_T46  -77
    MARK1847  'MARKER'                 'INTEND'
    MARK1848  'MARKER'                 'INTORG'
    U_G4_T46  TOTAL_COST  130
    U_G4_T46  RESERVE_T46  147
    U_G4_T46  PMAX_G4_T46  -147
    U_G4_T46  PMIN_G4_T46  -65
    MARK1849  'MARKER'                 'INTEND'
    MARK1850  'MARKER'                 'INTORG'
    U_G5_T46  TOTAL_COST  332
    U_G5_T46  RESERVE_T46  215
    U_G5_T46  PMAX_G5_T46  -215
    U_G5_T46  PMIN_G5_T46  -26
    MARK1851  'MARKER'                 'INTEND'
    MARK1852  'MARKER'                 'INTORG'
    U_G6_T46  TOTAL_COST  341
    U_G6_T46  RESERVE_T46  178
    U_G6_T46  PMAX_G6_T46  -178
    U_G6_T46  PMIN_G6_T46  -65
    MARK1853  'MARKER'                 'INTEND'
    MARK1854  'MARKER'                 'INTORG'
    U_G7_T46  TOTAL_COST  189
    U_G7_T46  RESERVE_T46  254
    U_G7_T46  PMAX_G7_T46  -254
    U_G7_T46  PMIN_G7_T46  -76
    MARK1855  'MARKER'                 'INTEND'
    MARK1856  'MARKER'                 'INTORG'
    U_G8_T46  TOTAL_COST  247
    U_G8_T46  RESERVE_T46  203
    U_G8_T46  PMAX_G8_T46  -203
    U_G8_T46  PMIN_G8_T46  -62
    MARK1857  'MARKER'                 'INTEND'
    MARK1858  'MARKER'                 'INTORG'
    U_G9_T46  TOTAL_COST  300
    U_G9_T46  RESERVE_T46  209
    U_G9_T46  PMAX_G9_T46  -209
    U_G9_T46  PMIN_G9_T46  -56
    MARK1859  'MARKER'                 'INTEND'
    MARK1860  'MARKER'                 'INTORG'
    U_G10_T46  TOTAL_COST  346
    U_G10_T46  RESERVE_T46  136
    U_G10_T46  PMAX_G10_T46  -136
    U_G10_T46  PMIN_G10_T46  -46
    MARK1861  'MARKER'                 'INTEND'
    MARK1862  'MARKER'                 'INTORG'
    U_G11_T46  TOTAL_COST  286
    U_G11_T46  RESERVE_T46  299
    U_G11_T46  PMAX_G11_T46  -299
    U_G11_T46  PMIN_G11_T46  -47
    MARK1863  'MARKER'                 'INTEND'
    MARK1864  'MARKER'                 'INTORG'
    U_G12_T46  TOTAL_COST  248
    U_G12_T46  RESERVE_T46  206
    U_G12_T46  PMAX_G12_T46  -206
    U_G12_T46  PMIN_G12_T46  -72
    MARK1865  'MARKER'                 'INTEND'
    MARK1866  'MARKER'                 'INTORG'
    U_G13_T46  TOTAL_COST  209
    U_G13_T46  RESERVE_T46  173
    U_G13_T46  PMAX_G13_T46  -173
    U_G13_T46  PMIN_G13_T46  -39
    MARK1867  'MARKER'                 'INTEND'
    MARK1868  'MARKER'                 'INTORG'
    U_G14_T46  TOTAL_COST  295
    U_G14_T46  RESERVE_T46  243
    U_G14_T46  PMAX_G14_T46  -243
    U_G14_T46  PMIN_G14_T46  -38
    MARK1869  'MARKER'                 'INTEND'
    MARK1870  'MARKER'                 'INTORG'
    U_G15_T46  TOTAL_COST  221
    U_G15_T46  RESERVE_T46  237
    U_G15_T46  PMAX_G15_T46  -237
    U_G15_T46  PMIN_G15_T46  -67
    MARK1871  'MARKER'                 'INTEND'
    MARK1872  'MARKER'                 'INTORG'
    U_G16_T46  TOTAL_COST  278
    U_G16_T46  RESERVE_T46  174
    U_G16_T46  PMAX_G16_T46  -174
    U_G16_T46  PMIN_G16_T46  -41
    MARK1873  'MARKER'                 'INTEND'
    MARK1874  'MARKER'                 'INTORG'
    U_G17_T46  TOTAL_COST  256
    U_G17_T46  RESERVE_T46  232
    U_G17_T46  PMAX_G17_T46  -232
    U_G17_T46  PMIN_G17_T46  -28
    MARK1875  'MARKER'                 'INTEND'
    MARK1876  'MARKER'                 'INTORG'
    U_G18_T46  TOTAL_COST  284
    U_G18_T46  RESERVE_T46  186
    U_G18_T46  PMAX_G18_T46  -186
    U_G18_T46  PMIN_G18_T46  -24
    MARK1877  'MARKER'                 'INTEND'
    MARK1878  'MARKER'                 'INTORG'
    U_G19_T46  TOTAL_COST  259
    U_G19_T46  RESERVE_T46  253
    U_G19_T46  PMAX_G19_T46  -253
    U_G19_T46  PMIN_G19_T46  -76
    MARK1879  'MARKER'                 'INTEND'
    P_G0_T46  TOTAL_COST  50.1
    P_G0_T46  DEMAND_T46  1
    P_G0_T46  PMAX_G0_T46  1
    P_G0_T46  PMIN_G0_T46  1
    P_G0_T46  RAMPUP_G0_T46  1
    P_G0_T46  RAMPDN_G0_T46  -1
    P_G0_T46  RAMPUP_G0_T47  -1
    P_G0_T46  RAMPDN_G0_T47  1
    P_G1_T46  TOTAL_COST  34.9
    P_G1_T46  DEMAND_T46  1
    P_G1_T46  PMAX_G1_T46  1
    P_G1_T46  PMIN_G1_T46  1
    P_G1_T46  RAMPUP_G1_T46  1
    P_G1_T46  RAMPDN_G1_T46  -1
    P_G1_T46  RAMPUP_G1_T47  -1
    P_G1_T46  RAMPDN_G1_T47  1
    P_G2_T46  TOTAL_COST  47.4
    P_G2_T46  DEMAND_T46  1
    P_G2_T46  PMAX_G2_T46  1
    P_G2_T46  PMIN_G2_T46  1
    P_G2_T46  RAMPUP_G2_T46  1
    P_G2_T46  RAMPDN_G2_T46  -1
    P_G2_T46  RAMPUP_G2_T47  -1
    P_G2_T46  RAMPDN_G2_T47  1
    P_G3_T46  TOTAL_COST  38
    P_G3_T46  DEMAND_T46  1
    P_G3_T46  PMAX_G3_T46  1
    P_G3_T46  PMIN_G3_T46  1
    P_G3_T46  RAMPUP_G3_T46  1
    P_G3_T46  RAMPDN_G3_T46  -1
    P_G3_T46  RAMPUP_G3_T47  -1
    P_G3_T46  RAMPDN_G3_T47  1
    P_G4_T46  TOTAL_COST  37
    P_G4_T46  DEMAND_T46  1
    P_G4_T46  PMAX_G4_T46  1
    P_G4_T46  PMIN_G4_T46  1
    P_G4_T46  RAMPUP_G4_T46  1
    P_G4_T46  RAMPDN_G4_T46  -1
    P_G4_T46  RAMPUP_G4_T47  -1
    P_G4_T46  RAMPDN_G4_T47  1
    P_G5_T46  TOTAL_COST  37.8
    P_G5_T46  DEMAND_T46  1
    P_G5_T46  PMAX_G5_T46  1
    P_G5_T46  PMIN_G5_T46  1
    P_G5_T46  RAMPUP_G5_T46  1
    P_G5_T46  RAMPDN_G5_T46  -1
    P_G5_T46  RAMPUP_G5_T47  -1
    P_G5_T46  RAMPDN_G5_T47  1
    P_G6_T46  TOTAL_COST  50
    P_G6_T46  DEMAND_T46  1
    P_G6_T46  PMAX_G6_T46  1
    P_G6_T46  PMIN_G6_T46  1
    P_G6_T46  RAMPUP_G6_T46  1
    P_G6_T46  RAMPDN_G6_T46  -1
    P_G6_T46  RAMPUP_G6_T47  -1
    P_G6_T46  RAMPDN_G6_T47  1
    P_G7_T46  TOTAL_COST  36.6
    P_G7_T46  DEMAND_T46  1
    P_G7_T46  PMAX_G7_T46  1
    P_G7_T46  PMIN_G7_T46  1
    P_G7_T46  RAMPUP_G7_T46  1
    P_G7_T46  RAMPDN_G7_T46  -1
    P_G7_T46  RAMPUP_G7_T47  -1
    P_G7_T46  RAMPDN_G7_T47  1
    P_G8_T46  TOTAL_COST  41.5
    P_G8_T46  DEMAND_T46  1
    P_G8_T46  PMAX_G8_T46  1
    P_G8_T46  PMIN_G8_T46  1
    P_G8_T46  RAMPUP_G8_T46  1
    P_G8_T46  RAMPDN_G8_T46  -1
    P_G8_T46  RAMPUP_G8_T47  -1
    P_G8_T46  RAMPDN_G8_T47  1
    P_G9_T46  TOTAL_COST  35.4
    P_G9_T46  DEMAND_T46  1
    P_G9_T46  PMAX_G9_T46  1
    P_G9_T46  PMIN_G9_T46  1
    P_G9_T46  RAMPUP_G9_T46  1
    P_G9_T46  RAMPDN_G9_T46  -1
    P_G9_T46  RAMPUP_G9_T47  -1
    P_G9_T46  RAMPDN_G9_T47  1
    P_G10_T46  TOTAL_COST  23
    P_G10_T46  DEMAND_T46  1
    P_G10_T46  PMAX_G10_T46  1
    P_G10_T46  PMIN_G10_T46  1
    P_G10_T46  RAMPUP_G10_T46  1
    P_G10_T46  RAMPDN_G10_T46  -1
    P_G10_T46  RAMPUP_G10_T47  -1
    P_G10_T46  RAMPDN_G10_T47  1
    P_G11_T46  TOTAL_COST  43.8
    P_G11_T46  DEMAND_T46  1
    P_G11_T46  PMAX_G11_T46  1
    P_G11_T46  PMIN_G11_T46  1
    P_G11_T46  RAMPUP_G11_T46  1
    P_G11_T46  RAMPDN_G11_T46  -1
    P_G11_T46  RAMPUP_G11_T47  -1
    P_G11_T46  RAMPDN_G11_T47  1
    P_G12_T46  TOTAL_COST  53
    P_G12_T46  DEMAND_T46  1
    P_G12_T46  PMAX_G12_T46  1
    P_G12_T46  PMIN_G12_T46  1
    P_G12_T46  RAMPUP_G12_T46  1
    P_G12_T46  RAMPDN_G12_T46  -1
    P_G12_T46  RAMPUP_G12_T47  -1
    P_G12_T46  RAMPDN_G12_T47  1
    P_G13_T46  TOTAL_COST  40.9
    P_G13_T46  DEMAND_T46  1
    P_G13_T46  PMAX_G13_T46  1
    P_G13_T46  PMIN_G13_T46  1
    P_G13_T46  RAMPUP_G13_T46  1
    P_G13_T46  RAMPDN_G13_T46  -1
    P_G13_T46  RAMPUP_G13_T47  -1
    P_G13_T46  RAMPDN_G13_T47  1
    P_G14_T46  TOTAL_COST  49.2
    P_G14_T46  DEMAND_T46  1
    P_G14_T46  PMAX_G14_T46  1
    P_G14_T46  PMIN_G14_T46  1
    P_G14_T46  RAMPUP_G14_T46  1
    P_G14_T46  RAMPDN_G14_T46  -1
    P_G14_T46  RAMPUP_G14_T47  -1
    P_G14_T46  RAMPDN_G14_T47  1
    P_G15_T46  TOTAL_COST  51.8
    P_G15_T46  DEMAND_T46  1
    P_G15_T46  PMAX_G15_T46  1
    P_G15_T46  PMIN_G15_T46  1
    P_G15_T46  RAMPUP_G15_T46  1
    P_G15_T46  RAMPDN_G15_T46  -1
    P_G15_T46  RAMPUP_G15_T47  -1
    P_G15_T46  RAMPDN_G15_T47  1
    P_G16_T46  TOTAL_COST  49.5
    P_G16_T46  DEMAND_T46  1
    P_G16_T46  PMAX_G16_T46  1
    P_G16_T46  PMIN_G16_T46  1
    P_G16_T46  RAMPUP_G16_T46  1
    P_G16_T46  RAMPDN_G16_T46  -1
    P_G16_T46  RAMPUP_G16_T47  -1
    P_G16_T46  RAMPDN_G16_T47  1
    P_G17_T46  TOTAL_COST  43.7
    P_G17_T46  DEMAND_T46  1
    P_G17_T46  PMAX_G17_T46  1
    P_G17_T46  PMIN_G17_T46  1
    P_G17_T46  RAMPUP_G17_T46  1
    P_G17_T46  RAMPDN_G17_T46  -1
    P_G17_T46  RAMPUP_G17_T47  -1
    P_G17_T46  RAMPDN_G17_T47  1
    P_G18_T46  TOTAL_COST  49.4
    P_G18_T46  DEMAND_T46  1
    P_G18_T46  PMAX_G18_T46  1
    P_G18_T46  PMIN_G18_T46  1
    P_G18_T46  RAMPUP_G18_T46  1
    P_G18_T46  RAMPDN_G18_T46  -1
    P_G18_T46  RAMPUP_G18_T47  -1
    P_G18_T46  RAMPDN_G18_T47  1
    P_G19_T46  TOTAL_COST  29.2
    P_G19_T46  DEMAND_T46  1
    P_G19_T46  PMAX_G19_T46  1
    P_G19_T46  PMIN_G19_T46  1
    P_G19_T46  RAMPUP_G19_T46  1
    P_G19_T46  RAMPDN_G19_T46  -1
    P_G19_T46  RAMPUP_G19_T47  -1
    P_G19_T46  RAMPDN_G19_T47  1
    MARK1880  'MARKER'                 'INTORG'
    U_G0_T47  TOTAL_COST  141
    U_G0_T47  RESERVE_T47  235
    U_G0_T47  PMAX_G0_T47  -235
    U_G0_T47  PMIN_G0_T47  -65
    MARK1881  'MARKER'                 'INTEND'
    MARK1882  'MARKER'                 'INTORG'
    U_G1_T47  TOTAL_COST  182
    U_G1_T47  RESERVE_T47  223
    U_G1_T47  PMAX_G1_T47  -223
    U_G1_T47  PMIN_G1_T47  -26
    MARK1883  'MARKER'                 'INTEND'
    MARK1884  'MARKER'                 'INTORG'
    U_G2_T47  TOTAL_COST  291
    U_G2_T47  RESERVE_T47  214
    U_G2_T47  PMAX_G2_T47  -214
    U_G2_T47  PMIN_G2_T47  -21
    MARK1885  'MARKER'                 'INTEND'
    MARK1886  'MARKER'                 'INTORG'
    U_G3_T47  TOTAL_COST  114
    U_G3_T47  RESERVE_T47  256
    U_G3_T47  PMAX_G3_T47  -256
    U_G3_T47  PMIN_G3_T47  -77
    MARK1887  'MARKER'                 'INTEND'
    MARK1888  'MARKER'                 'INTORG'
    U_G4_T47  TOTAL_COST  130
    U_G4_T47  RESERVE_T47  147
    U_G4_T47  PMAX_G4_T47  -147
    U_G4_T47  PMIN_G4_T47  -65
    MARK1889  'MARKER'                 'INTEND'
    MARK1890  'MARKER'                 'INTORG'
    U_G5_T47  TOTAL_COST  332
    U_G5_T47  RESERVE_T47  215
    U_G5_T47  PMAX_G5_T47  -215
    U_G5_T47  PMIN_G5_T47  -26
    MARK1891  'MARKER'                 'INTEND'
    MARK1892  'MARKER'                 'INTORG'
    U_G6_T47  TOTAL_COST  341
    U_G6_T47  RESERVE_T47  178
    U_G6_T47  PMAX_G6_T47  -178
    U_G6_T47  PMIN_G6_T47  -65
    MARK1893  'MARKER'                 'INTEND'
    MARK1894  'MARKER'                 'INTORG'
    U_G7_T47  TOTAL_COST  189
    U_G7_T47  RESERVE_T47  254
    U_G7_T47  PMAX_G7_T47  -254
    U_G7_T47  PMIN_G7_T47  -76
    MARK1895  'MARKER'                 'INTEND'
    MARK1896  'MARKER'                 'INTORG'
    U_G8_T47  TOTAL_COST  247
    U_G8_T47  RESERVE_T47  203
    U_G8_T47  PMAX_G8_T47  -203
    U_G8_T47  PMIN_G8_T47  -62
    MARK1897  'MARKER'                 'INTEND'
    MARK1898  'MARKER'                 'INTORG'
    U_G9_T47  TOTAL_COST  300
    U_G9_T47  RESERVE_T47  209
    U_G9_T47  PMAX_G9_T47  -209
    U_G9_T47  PMIN_G9_T47  -56
    MARK1899  'MARKER'                 'INTEND'
    MARK1900  'MARKER'                 'INTORG'
    U_G10_T47  TOTAL_COST  346
    U_G10_T47  RESERVE_T47  136
    U_G10_T47  PMAX_G10_T47  -136
    U_G10_T47  PMIN_G10_T47  -46
    MARK1901  'MARKER'                 'INTEND'
    MARK1902  'MARKER'                 'INTORG'
    U_G11_T47  TOTAL_COST  286
    U_G11_T47  RESERVE_T47  299
    U_G11_T47  PMAX_G11_T47  -299
    U_G11_T47  PMIN_G11_T47  -47
    MARK1903  'MARKER'                 'INTEND'
    MARK1904  'MARKER'                 'INTORG'
    U_G12_T47  TOTAL_COST  248
    U_G12_T47  RESERVE_T47  206
    U_G12_T47  PMAX_G12_T47  -206
    U_G12_T47  PMIN_G12_T47  -72
    MARK1905  'MARKER'                 'INTEND'
    MARK1906  'MARKER'                 'INTORG'
    U_G13_T47  TOTAL_COST  209
    U_G13_T47  RESERVE_T47  173
    U_G13_T47  PMAX_G13_T47  -173
    U_G13_T47  PMIN_G13_T47  -39
    MARK1907  'MARKER'                 'INTEND'
    MARK1908  'MARKER'                 'INTORG'
    U_G14_T47  TOTAL_COST  295
    U_G14_T47  RESERVE_T47  243
    U_G14_T47  PMAX_G14_T47  -243
    U_G14_T47  PMIN_G14_T47  -38
    MARK1909  'MARKER'                 'INTEND'
    MARK1910  'MARKER'                 'INTORG'
    U_G15_T47  TOTAL_COST  221
    U_G15_T47  RESERVE_T47  237
    U_G15_T47  PMAX_G15_T47  -237
    U_G15_T47  PMIN_G15_T47  -67
    MARK1911  'MARKER'                 'INTEND'
    MARK1912  'MARKER'                 'INTORG'
    U_G16_T47  TOTAL_COST  278
    U_G16_T47  RESERVE_T47  174
    U_G16_T47  PMAX_G16_T47  -174
    U_G16_T47  PMIN_G16_T47  -41
    MARK1913  'MARKER'                 'INTEND'
    MARK1914  'MARKER'                 'INTORG'
    U_G17_T47  TOTAL_COST  256
    U_G17_T47  RESERVE_T47  232
    U_G17_T47  PMAX_G17_T47  -232
    U_G17_T47  PMIN_G17_T47  -28
    MARK1915  'MARKER'                 'INTEND'
    MARK1916  'MARKER'                 'INTORG'
    U_G18_T47  TOTAL_COST  284
    U_G18_T47  RESERVE_T47  186
    U_G18_T47  PMAX_G18_T47  -186
    U_G18_T47  PMIN_G18_T47  -24
    MARK1917  'MARKER'                 'INTEND'
    MARK1918  'MARKER'                 'INTORG'
    U_G19_T47  TOTAL_COST  259
    U_G19_T47  RESERVE_T47  253
    U_G19_T47  PMAX_G19_T47  -253
    U_G19_T47  PMIN_G19_T47  -76
    MARK1919  'MARKER'                 'INTEND'
    P_G0_T47  TOTAL_COST  50.1
    P_G0_T47  DEMAND_T47  1
    P_G0_T47  PMAX_G0_T47  1
    P_G0_T47  PMIN_G0_T47  1
    P_G0_T47  RAMPUP_G0_T47  1
    P_G0_T47  RAMPDN_G0_T47  -1
    P_G1_T47  TOTAL_COST  34.9
    P_G1_T47  DEMAND_T47  1
    P_G1_T47  PMAX_G1_T47  1
    P_G1_T47  PMIN_G1_T47  1
    P_G1_T47  RAMPUP_G1_T47  1
    P_G1_T47  RAMPDN_G1_T47  -1
    P_G2_T47  TOTAL_COST  47.4
    P_G2_T47  DEMAND_T47  1
    P_G2_T47  PMAX_G2_T47  1
    P_G2_T47  PMIN_G2_T47  1
    P_G2_T47  RAMPUP_G2_T47  1
    P_G2_T47  RAMPDN_G2_T47  -1
    P_G3_T47  TOTAL_COST  38
    P_G3_T47  DEMAND_T47  1
    P_G3_T47  PMAX_G3_T47  1
    P_G3_T47  PMIN_G3_T47  1
    P_G3_T47  RAMPUP_G3_T47  1
    P_G3_T47  RAMPDN_G3_T47  -1
    P_G4_T47  TOTAL_COST  37
    P_G4_T47  DEMAND_T47  1
    P_G4_T47  PMAX_G4_T47  1
    P_G4_T47  PMIN_G4_T47  1
    P_G4_T47  RAMPUP_G4_T47  1
    P_G4_T47  RAMPDN_G4_T47  -1
    P_G5_T47  TOTAL_COST  37.8
    P_G5_T47  DEMAND_T47  1
    P_G5_T47  PMAX_G5_T47  1
    P_G5_T47  PMIN_G5_T47  1
    P_G5_T47  RAMPUP_G5_T47  1
    P_G5_T47  RAMPDN_G5_T47  -1
    P_G6_T47  TOTAL_COST  50
    P_G6_T47  DEMAND_T47  1
    P_G6_T47  PMAX_G6_T47  1
    P_G6_T47  PMIN_G6_T47  1
    P_G6_T47  RAMPUP_G6_T47  1
    P_G6_T47  RAMPDN_G6_T47  -1
    P_G7_T47  TOTAL_COST  36.6
    P_G7_T47  DEMAND_T47  1
    P_G7_T47  PMAX_G7_T47  1
    P_G7_T47  PMIN_G7_T47  1
    P_G7_T47  RAMPUP_G7_T47  1
    P_G7_T47  RAMPDN_G7_T47  -1
    P_G8_T47  TOTAL_COST  41.5
    P_G8_T47  DEMAND_T47  1
    P_G8_T47  PMAX_G8_T47  1
    P_G8_T47  PMIN_G8_T47  1
    P_G8_T47  RAMPUP_G8_T47  1
    P_G8_T47  RAMPDN_G8_T47  -1
    P_G9_T47  TOTAL_COST  35.4
    P_G9_T47  DEMAND_T47  1
    P_G9_T47  PMAX_G9_T47  1
    P_G9_T47  PMIN_G9_T47  1
    P_G9_T47  RAMPUP_G9_T47  1
    P_G9_T47  RAMPDN_G9_T47  -1
    P_G10_T47  TOTAL_COST  23
    P_G10_T47  DEMAND_T47  1
    P_G10_T47  PMAX_G10_T47  1
    P_G10_T47  PMIN_G10_T47  1
    P_G10_T47  RAMPUP_G10_T47  1
    P_G10_T47  RAMPDN_G10_T47  -1
    P_G11_T47  TOTAL_COST  43.8
    P_G11_T47  DEMAND_T47  1
    P_G11_T47  PMAX_G11_T47  1
    P_G11_T47  PMIN_G11_T47  1
    P_G11_T47  RAMPUP_G11_T47  1
    P_G11_T47  RAMPDN_G11_T47  -1
    P_G12_T47  TOTAL_COST  53
    P_G12_T47  DEMAND_T47  1
    P_G12_T47  PMAX_G12_T47  1
    P_G12_T47  PMIN_G12_T47  1
    P_G12_T47  RAMPUP_G12_T47  1
    P_G12_T47  RAMPDN_G12_T47  -1
    P_G13_T47  TOTAL_COST  40.9
    P_G13_T47  DEMAND_T47  1
    P_G13_T47  PMAX_G13_T47  1
    P_G13_T47  PMIN_G13_T47  1
    P_G13_T47  RAMPUP_G13_T47  1
    P_G13_T47  RAMPDN_G13_T47  -1
    P_G14_T47  TOTAL_COST  49.2
    P_G14_T47  DEMAND_T47  1
    P_G14_T47  PMAX_G14_T47  1
    P_G14_T47  PMIN_G14_T47  1
    P_G14_T47  RAMPUP_G14_T47  1
    P_G14_T47  RAMPDN_G14_T47  -1
    P_G15_T47  TOTAL_COST  51.8
    P_G15_T47  DEMAND_T47  1
    P_G15_T47  PMAX_G15_T47  1
    P_G15_T47  PMIN_G15_T47  1
    P_G15_T47  RAMPUP_G15_T47  1
    P_G15_T47  RAMPDN_G15_T47  -1
    P_G16_T47  TOTAL_COST  49.5
    P_G16_T47  DEMAND_T47  1
    P_G16_T47  PMAX_G16_T47  1
    P_G16_T47  PMIN_G16_T47  1
    P_G16_T47  RAMPUP_G16_T47  1
    P_G16_T47  RAMPDN_G16_T47  -1
    P_G17_T47  TOTAL_COST  43.7
    P_G17_T47  DEMAND_T47  1
    P_G17_T47  PMAX_G17_T47  1
    P_G17_T47  PMIN_G17_T47  1
    P_G17_T47  RAMPUP_G17_T47  1
    P_G17_T47  RAMPDN_G17_T47  -1
    P_G18_T47  TOTAL_COST  49.4
    P_G18_T47  DEMAND_T47  1
    P_G18_T47  PMAX_G18_T47  1
    P_G18_T47  PMIN_G18_T47  1
    P_G18_T47  RAMPUP_G18_T47  1
    P_G18_T47  RAMPDN_G18_T47  -1
    P_G19_T47  TOTAL_COST  29.2
    P_G19_T47  DEMAND_T47  1
    P_G19_T47  PMAX_G19_T47  1
    P_G19_T47  PMIN_G19_T47  1
    P_G19_T47  RAMPUP_G19_T47  1
    P_G19_T47  RAMPDN_G19_T47  -1
RHS
    RHS1      DEMAND_T0  1500
    RHS1      RESERVE_T0  1725
    RHS1      DEMAND_T1  1636
    RHS1      RESERVE_T1  1881
    RHS1      RAMPUP_G0_T1  94
    RHS1      RAMPDN_G0_T1  94
    RHS1      RAMPUP_G1_T1  63
    RHS1      RAMPDN_G1_T1  63
    RHS1      RAMPUP_G2_T1  90
    RHS1      RAMPDN_G2_T1  90
    RHS1      RAMPUP_G3_T1  44
    RHS1      RAMPDN_G3_T1  44
    RHS1      RAMPUP_G4_T1  49
    RHS1      RAMPDN_G4_T1  49
    RHS1      RAMPUP_G5_T1  47
    RHS1      RAMPDN_G5_T1  47
    RHS1      RAMPUP_G6_T1  43
    RHS1      RAMPDN_G6_T1  43
    RHS1      RAMPUP_G7_T1  41
    RHS1      RAMPDN_G7_T1  41
    RHS1      RAMPUP_G8_T1  53
    RHS1      RAMPDN_G8_T1  53
    RHS1      RAMPUP_G9_T1  65
    RHS1      RAMPDN_G9_T1  65
    RHS1      RAMPUP_G10_T1  69
    RHS1      RAMPDN_G10_T1  69
    RHS1      RAMPUP_G11_T1  75
    RHS1      RAMPDN_G11_T1  75
    RHS1      RAMPUP_G12_T1  67
    RHS1      RAMPDN_G12_T1  67
    RHS1      RAMPUP_G13_T1  86
    RHS1      RAMPDN_G13_T1  86
    RHS1      RAMPUP_G14_T1  89
    RHS1      RAMPDN_G14_T1  89
    RHS1      RAMPUP_G15_T1  96
    RHS1      RAMPDN_G15_T1  96
    RHS1      RAMPUP_G16_T1  61
    RHS1      RAMPDN_G16_T1  61
    RHS1      RAMPUP_G17_T1  77
    RHS1      RAMPDN_G17_T1  77
    RHS1      RAMPUP_G18_T1  64
    RHS1      RAMPDN_G18_T1  64
    RHS1      RAMPUP_G19_T1  47
    RHS1      RAMPDN_G19_T1  47
    RHS1      DEMAND_T2  1763
    RHS1      RESERVE_T2  2027
    RHS1      RAMPUP_G0_T2  94
    RHS1      RAMPDN_G0_T2  94
    RHS1      RAMPUP_G1_T2  63
    RHS1      RAMPDN_G1_T2  63
    RHS1      RAMPUP_G2_T2  90
    RHS1      RAMPDN_G2_T2  90
    RHS1      RAMPUP_G3_T2  44
    RHS1      RAMPDN_G3_T2  44
    RHS1      RAMPUP_G4_T2  49
    RHS1      RAMPDN_G4_T2  49
    RHS1      RAMPUP_G5_T2  47
    RHS1      RAMPDN_G5_T2  47
    RHS1      RAMPUP_G6_T2  43
    RHS1      RAMPDN_G6_T2  43
    RHS1      RAMPUP_G7_T2  41
    RHS1      RAMPDN_G7_T2  41
    RHS1      RAMPUP_G8_T2  53
    RHS1      RAMPDN_G8_T2  53
    RHS1      RAMPUP_G9_T2  65
    RHS1      RAMPDN_G9_T2  65
    RHS1      RAMPUP_G10_T2  69
    RHS1      RAMPDN_G10_T2  69
    RHS1      RAMPUP_G11_T2  75
    RHS1      RAMPDN_G11_T2  75
    RHS1      RAMPUP_G12_T2  67
    RHS1      RAMPDN_G12_T2  67
    RHS1      RAMPUP_G13_T2  86
    RHS1      RAMPDN_G13_T2  86
    RHS1      RAMPUP_G14_T2  89
    RHS1      RAMPDN_G14_T2  89
    RHS1      RAMPUP_G15_T2  96
    RHS1      RAMPDN_G15_T2  96
    RHS1      RAMPUP_G16_T2  61
    RHS1      RAMPDN_G16_T2  61
    RHS1      RAMPUP_G17_T2  77
    RHS1      RAMPDN_G17_T2  77
    RHS1      RAMPUP_G18_T2  64
    RHS1      RAMPDN_G18_T2  64
    RHS1      RAMPUP_G19_T2  47
    RHS1      RAMPDN_G19_T2  47
    RHS1      DEMAND_T3  1871
    RHS1      RESERVE_T3  2152
    RHS1      RAMPUP_G0_T3  94
    RHS1      RAMPDN_G0_T3  94
    RHS1      RAMPUP_G1_T3  63
    RHS1      RAMPDN_G1_T3  63
    RHS1      RAMPUP_G2_T3  90
    RHS1      RAMPDN_G2_T3  90
    RHS1      RAMPUP_G3_T3  44
    RHS1      RAMPDN_G3_T3  44
    RHS1      RAMPUP_G4_T3  49
    RHS1      RAMPDN_G4_T3  49
    RHS1      RAMPUP_G5_T3  47
    RHS1      RAMPDN_G5_T3  47
    RHS1      RAMPUP_G6_T3  43
    RHS1      RAMPDN_G6_T3  43
    RHS1      RAMPUP_G7_T3  41
    RHS1      RAMPDN_G7_T3  41
    RHS1      RAMPUP_G8_T3  53
    RHS1      RAMPDN_G8_T3  53
    RHS1      RAMPUP_G9_T3  65
    RHS1      RAMPDN_G9_T3  65
    RHS1      RAMPUP_G10_T3  69
    RHS1      RAMPDN_G10_T3  69
    RHS1      RAMPUP_G11_T3  75
    RHS1      RAMPDN_G11_T3  75
    RHS1      RAMPUP_G12_T3  67
    RHS1      RAMPDN_G12_T3  67
    RHS1      RAMPUP_G13_T3  86
    RHS1      RAMPDN_G13_T3  86
    RHS1      RAMPUP_G14_T3  89
    RHS1      RAMPDN_G14_T3  89
    RHS1      RAMPUP_G15_T3  96
    RHS1      RAMPDN_G15_T3  96
    RHS1      RAMPUP_G16_T3  61
    RHS1      RAMPDN_G16_T3  61
    RHS1      RAMPUP_G17_T3  77
    RHS1      RAMPDN_G17_T3  77
    RHS1      RAMPUP_G18_T3  64
    RHS1      RAMPDN_G18_T3  64
    RHS1      RAMPUP_G19_T3  47
    RHS1      RAMPDN_G19_T3  47
    RHS1      DEMAND_T4  1955
    RHS1      RESERVE_T4  2248
    RHS1      RAMPUP_G0_T4  94
    RHS1      RAMPDN_G0_T4  94
    RHS1      RAMPUP_G1_T4  63
    RHS1      RAMPDN_G1_T4  63
    RHS1      RAMPUP_G2_T4  90
    RHS1      RAMPDN_G2_T4  90
    RHS1      RAMPUP_G3_T4  44
    RHS1      RAMPDN_G3_T4  44
    RHS1      RAMPUP_G4_T4  49
    RHS1      RAMPDN_G4_T4  49
    RHS1      RAMPUP_G5_T4  47
    RHS1      RAMPDN_G5_T4  47
    RHS1      RAMPUP_G6_T4  43
    RHS1      RAMPDN_G6_T4  43
    RHS1      RAMPUP_G7_T4  41
    RHS1      RAMPDN_G7_T4  41
    RHS1      RAMPUP_G8_T4  53
    RHS1      RAMPDN_G8_T4  53
    RHS1      RAMPUP_G9_T4  65
    RHS1      RAMPDN_G9_T4  65
    RHS1      RAMPUP_G10_T4  69
    RHS1      RAMPDN_G10_T4  69
    RHS1      RAMPUP_G11_T4  75
    RHS1      RAMPDN_G11_T4  75
    RHS1      RAMPUP_G12_T4  67
    RHS1      RAMPDN_G12_T4  67
    RHS1      RAMPUP_G13_T4  86
    RHS1      RAMPDN_G13_T4  86
    RHS1      RAMPUP_G14_T4  89
    RHS1      RAMPDN_G14_T4  89
    RHS1      RAMPUP_G15_T4  96
    RHS1      RAMPDN_G15_T4  96
    RHS1      RAMPUP_G16_T4  61
    RHS1      RAMPDN_G16_T4  61
    RHS1      RAMPUP_G17_T4  77
    RHS1      RAMPDN_G17_T4  77
    RHS1      RAMPUP_G18_T4  64
    RHS1      RAMPDN_G18_T4  64
    RHS1      RAMPUP_G19_T4  47
    RHS1      RAMPDN_G19_T4  47
    RHS1      DEMAND_T5  2007
    RHS1      RESERVE_T5  2308
    RHS1      RAMPUP_G0_T5  94
    RHS1      RAMPDN_G0_T5  94
    RHS1      RAMPUP_G1_T5  63
    RHS1      RAMPDN_G1_T5  63
    RHS1      RAMPUP_G2_T5  90
    RHS1      RAMPDN_G2_T5  90
    RHS1      RAMPUP_G3_T5  44
    RHS1      RAMPDN_G3_T5  44
    RHS1      RAMPUP_G4_T5  49
    RHS1      RAMPDN_G4_T5  49
    RHS1      RAMPUP_G5_T5  47
    RHS1      RAMPDN_G5_T5  47
    RHS1      RAMPUP_G6_T5  43
    RHS1      RAMPDN_G6_T5  43
    RHS1      RAMPUP_G7_T5  41
    RHS1      RAMPDN_G7_T5  41
    RHS1      RAMPUP_G8_T5  53
    RHS1      RAMPDN_G8_T5  53
    RHS1      RAMPUP_G9_T5  65
    RHS1      RAMPDN_G9_T5  65
    RHS1      RAMPUP_G10_T5  69
    RHS1      RAMPDN_G10_T5  69
    RHS1      RAMPUP_G11_T5  75
    RHS1      RAMPDN_G11_T5  75
    RHS1      RAMPUP_G12_T5  67
    RHS1      RAMPDN_G12_T5  67
    RHS1      RAMPUP_G13_T5  86
    RHS1      RAMPDN_G13_T5  86
    RHS1      RAMPUP_G14_T5  89
    RHS1      RAMPDN_G14_T5  89
    RHS1      RAMPUP_G15_T5  96
    RHS1      RAMPDN_G15_T5  96
    RHS1      RAMPUP_G16_T5  61
    RHS1      RAMPDN_G16_T5  61
    RHS1      RAMPUP_G17_T5  77
    RHS1      RAMPDN_G17_T5  77
    RHS1      RAMPUP_G18_T5  64
    RHS1      RAMPDN_G18_T5  64
    RHS1      RAMPUP_G19_T5  47
    RHS1      RAMPDN_G19_T5  47
    RHS1      DEMAND_T6  2025
    RHS1      RESERVE_T6  2329
    RHS1      RAMPUP_G0_T6  94
    RHS1      RAMPDN_G0_T6  94
    RHS1      RAMPUP_G1_T6  63
    RHS1      RAMPDN_G1_T6  63
    RHS1      RAMPUP_G2_T6  90
    RHS1      RAMPDN_G2_T6  90
    RHS1      RAMPUP_G3_T6  44
    RHS1      RAMPDN_G3_T6  44
    RHS1      RAMPUP_G4_T6  49
    RHS1      RAMPDN_G4_T6  49
    RHS1      RAMPUP_G5_T6  47
    RHS1      RAMPDN_G5_T6  47
    RHS1      RAMPUP_G6_T6  43
    RHS1      RAMPDN_G6_T6  43
    RHS1      RAMPUP_G7_T6  41
    RHS1      RAMPDN_G7_T6  41
    RHS1      RAMPUP_G8_T6  53
    RHS1      RAMPDN_G8_T6  53
    RHS1      RAMPUP_G9_T6  65
    RHS1      RAMPDN_G9_T6  65
    RHS1      RAMPUP_G10_T6  69
    RHS1      RAMPDN_G10_T6  69
    RHS1      RAMPUP_G11_T6  75
    RHS1      RAMPDN_G11_T6  75
    RHS1      RAMPUP_G12_T6  67
    RHS1      RAMPDN_G12_T6  67
    RHS1      RAMPUP_G13_T6  86
    RHS1      RAMPDN_G13_T6  86
    RHS1      RAMPUP_G14_T6  89
    RHS1      RAMPDN_G14_T6  89
    RHS1      RAMPUP_G15_T6  96
    RHS1      RAMPDN_G15_T6  96
    RHS1      RAMPUP_G16_T6  61
    RHS1      RAMPDN_G16_T6  61
    RHS1      RAMPUP_G17_T6  77
    RHS1      RAMPDN_G17_T6  77
    RHS1      RAMPUP_G18_T6  64
    RHS1      RAMPDN_G18_T6  64
    RHS1      RAMPUP_G19_T6  47
    RHS1      RAMPDN_G19_T6  47
    RHS1      DEMAND_T7  2007
    RHS1      RESERVE_T7  2308
    RHS1      RAMPUP_G0_T7  94
    RHS1      RAMPDN_G0_T7  94
    RHS1      RAMPUP_G1_T7  63
    RHS1      RAMPDN_G1_T7  63
    RHS1      RAMPUP_G2_T7  90
    RHS1      RAMPDN_G2_T7  90
    RHS1      RAMPUP_G3_T7  44
    RHS1      RAMPDN_G3_T7  44
    RHS1      RAMPUP_G4_T7  49
    RHS1      RAMPDN_G4_T7  49
    RHS1      RAMPUP_G5_T7  47
    RHS1      RAMPDN_G5_T7  47
    RHS1      RAMPUP_G6_T7  43
    RHS1      RAMPDN_G6_T7  43
    RHS1      RAMPUP_G7_T7  41
    RHS1      RAMPDN_G7_T7  41
    RHS1      RAMPUP_G8_T7  53
    RHS1      RAMPDN_G8_T7  53
    RHS1      RAMPUP_G9_T7  65
    RHS1      RAMPDN_G9_T7  65
    RHS1      RAMPUP_G10_T7  69
    RHS1      RAMPDN_G10_T7  69
    RHS1      RAMPUP_G11_T7  75
    RHS1      RAMPDN_G11_T7  75
    RHS1      RAMPUP_G12_T7  67
    RHS1      RAMPDN_G12_T7  67
    RHS1      RAMPUP_G13_T7  86
    RHS1      RAMPDN_G13_T7  86
    RHS1      RAMPUP_G14_T7  89
    RHS1      RAMPDN_G14_T7  89
    RHS1      RAMPUP_G15_T7  96
    RHS1      RAMPDN_G15_T7  96
    RHS1      RAMPUP_G16_T7  61
    RHS1      RAMPDN_G16_T7  61
    RHS1      RAMPUP_G17_T7  77
    RHS1      RAMPDN_G17_T7  77
    RHS1      RAMPUP_G18_T7  64
    RHS1      RAMPDN_G18_T7  64
    RHS1      RAMPUP_G19_T7  47
    RHS1      RAMPDN_G19_T7  47
    RHS1      DEMAND_T8  1955
    RHS1      RESERVE_T8  2248
    RHS1      RAMPUP_G0_T8  94
    RHS1      RAMPDN_G0_T8  94
    RHS1      RAMPUP_G1_T8  63
    RHS1      RAMPDN_G1_T8  63
    RHS1      RAMPUP_G2_T8  90
    RHS1      RAMPDN_G2_T8  90
    RHS1      RAMPUP_G3_T8  44
    RHS1      RAMPDN_G3_T8  44
    RHS1      RAMPUP_G4_T8  49
    RHS1      RAMPDN_G4_T8  49
    RHS1      RAMPUP_G5_T8  47
    RHS1      RAMPDN_G5_T8  47
    RHS1      RAMPUP_G6_T8  43
    RHS1      RAMPDN_G6_T8  43
    RHS1      RAMPUP_G7_T8  41
    RHS1      RAMPDN_G7_T8  41
    RHS1      RAMPUP_G8_T8  53
    RHS1      RAMPDN_G8_T8  53
    RHS1      RAMPUP_G9_T8  65
    RHS1      RAMPDN_G9_T8  65
    RHS1      RAMPUP_G10_T8  69
    RHS1      RAMPDN_G10_T8  69
    RHS1      RAMPUP_G11_T8  75
    RHS1      RAMPDN_G11_T8  75
    RHS1      RAMPUP_G12_T8  67
    RHS1      RAMPDN_G12_T8  67
    RHS1      RAMPUP_G13_T8  86
    RHS1      RAMPDN_G13_T8  86
    RHS1      RAMPUP_G14_T8  89
    RHS1      RAMPDN_G14_T8  89
    RHS1      RAMPUP_G15_T8  96
    RHS1      RAMPDN_G15_T8  96
    RHS1      RAMPUP_G16_T8  61
    RHS1      RAMPDN_G16_T8  61
    RHS1      RAMPUP_G17_T8  77
    RHS1      RAMPDN_G17_T8  77
    RHS1      RAMPUP_G18_T8  64
    RHS1      RAMPDN_G18_T8  64
    RHS1      RAMPUP_G19_T8  47
    RHS1      RAMPDN_G19_T8  47
    RHS1      DEMAND_T9  1871
    RHS1      RESERVE_T9  2152
    RHS1      RAMPUP_G0_T9  94
    RHS1      RAMPDN_G0_T9  94
    RHS1      RAMPUP_G1_T9  63
    RHS1      RAMPDN_G1_T9  63
    RHS1      RAMPUP_G2_T9  90
    RHS1      RAMPDN_G2_T9  90
    RHS1      RAMPUP_G3_T9  44
    RHS1      RAMPDN_G3_T9  44
    RHS1      RAMPUP_G4_T9  49
    RHS1      RAMPDN_G4_T9  49
    RHS1      RAMPUP_G5_T9  47
    RHS1      RAMPDN_G5_T9  47
    RHS1      RAMPUP_G6_T9  43
    RHS1      RAMPDN_G6_T9  43
    RHS1      RAMPUP_G7_T9  41
    RHS1      RAMPDN_G7_T9  41
    RHS1      RAMPUP_G8_T9  53
    RHS1      RAMPDN_G8_T9  53
    RHS1      RAMPUP_G9_T9  65
    RHS1      RAMPDN_G9_T9  65
    RHS1      RAMPUP_G10_T9  69
    RHS1      RAMPDN_G10_T9  69
    RHS1      RAMPUP_G11_T9  75
    RHS1      RAMPDN_G11_T9  75
    RHS1      RAMPUP_G12_T9  67
    RHS1      RAMPDN_G12_T9  67
    RHS1      RAMPUP_G13_T9  86
    RHS1      RAMPDN_G13_T9  86
    RHS1      RAMPUP_G14_T9  89
    RHS1      RAMPDN_G14_T9  89
    RHS1      RAMPUP_G15_T9  96
    RHS1      RAMPDN_G15_T9  96
    RHS1      RAMPUP_G16_T9  61
    RHS1      RAMPDN_G16_T9  61
    RHS1      RAMPUP_G17_T9  77
    RHS1      RAMPDN_G17_T9  77
    RHS1      RAMPUP_G18_T9  64
    RHS1      RAMPDN_G18_T9  64
    RHS1      RAMPUP_G19_T9  47
    RHS1      RAMPDN_G19_T9  47
    RHS1      DEMAND_T10  1763
    RHS1      RESERVE_T10  2027
    RHS1      RAMPUP_G0_T10  94
    RHS1      RAMPDN_G0_T10  94
    RHS1      RAMPUP_G1_T10  63
    RHS1      RAMPDN_G1_T10  63
    RHS1      RAMPUP_G2_T10  90
    RHS1      RAMPDN_G2_T10  90
    RHS1      RAMPUP_G3_T10  44
    RHS1      RAMPDN_G3_T10  44
    RHS1      RAMPUP_G4_T10  49
    RHS1      RAMPDN_G4_T10  49
    RHS1      RAMPUP_G5_T10  47
    RHS1      RAMPDN_G5_T10  47
    RHS1      RAMPUP_G6_T10  43
    RHS1      RAMPDN_G6_T10  43
    RHS1      RAMPUP_G7_T10  41
    RHS1      RAMPDN_G7_T10  41
    RHS1      RAMPUP_G8_T10  53
    RHS1      RAMPDN_G8_T10  53
    RHS1      RAMPUP_G9_T10  65
    RHS1      RAMPDN_G9_T10  65
    RHS1      RAMPUP_G10_T10  69
    RHS1      RAMPDN_G10_T10  69
    RHS1      RAMPUP_G11_T10  75
    RHS1      RAMPDN_G11_T10  75
    RHS1      RAMPUP_G12_T10  67
    RHS1      RAMPDN_G12_T10  67
    RHS1      RAMPUP_G13_T10  86
    RHS1      RAMPDN_G13_T10  86
    RHS1      RAMPUP_G14_T10  89
    RHS1      RAMPDN_G14_T10  89
    RHS1      RAMPUP_G15_T10  96
    RHS1      RAMPDN_G15_T10  96
    RHS1      RAMPUP_G16_T10  61
    RHS1      RAMPDN_G16_T10  61
    RHS1      RAMPUP_G17_T10  77
    RHS1      RAMPDN_G17_T10  77
    RHS1      RAMPUP_G18_T10  64
    RHS1      RAMPDN_G18_T10  64
    RHS1      RAMPUP_G19_T10  47
    RHS1      RAMPDN_G19_T10  47
    RHS1      DEMAND_T11  1636
    RHS1      RESERVE_T11  1881
    RHS1      RAMPUP_G0_T11  94
    RHS1      RAMPDN_G0_T11  94
    RHS1      RAMPUP_G1_T11  63
    RHS1      RAMPDN_G1_T11  63
    RHS1      RAMPUP_G2_T11  90
    RHS1      RAMPDN_G2_T11  90
    RHS1      RAMPUP_G3_T11  44
    RHS1      RAMPDN_G3_T11  44
    RHS1      RAMPUP_G4_T11  49
    RHS1      RAMPDN_G4_T11  49
    RHS1      RAMPUP_G5_T11  47
    RHS1      RAMPDN_G5_T11  47
    RHS1      RAMPUP_G6_T11  43
    RHS1      RAMPDN_G6_T11  43
    RHS1      RAMPUP_G7_T11  41
    RHS1      RAMPDN_G7_T11  41
    RHS1      RAMPUP_G8_T11  53
    RHS1      RAMPDN_G8_T11  53
    RHS1      RAMPUP_G9_T11  65
    RHS1      RAMPDN_G9_T11  65
    RHS1      RAMPUP_G10_T11  69
    RHS1      RAMPDN_G10_T11  69
    RHS1      RAMPUP_G11_T11  75
    RHS1      RAMPDN_G11_T11  75
    RHS1      RAMPUP_G12_T11  67
    RHS1      RAMPDN_G12_T11  67
    RHS1      RAMPUP_G13_T11  86
    RHS1      RAMPDN_G13_T11  86
    RHS1      RAMPUP_G14_T11  89
    RHS1      RAMPDN_G14_T11  89
    RHS1      RAMPUP_G15_T11  96
    RHS1      RAMPDN_G15_T11  96
    RHS1      RAMPUP_G16_T11  61
    RHS1      RAMPDN_G16_T11  61
    RHS1      RAMPUP_G17_T11  77
    RHS1      RAMPDN_G17_T11  77
    RHS1      RAMPUP_G18_T11  64
    RHS1      RAMPDN_G18_T11  64
    RHS1      RAMPUP_G19_T11  47
    RHS1      RAMPDN_G19_T11  47
    RHS1      DEMAND_T12  1500
    RHS1      RESERVE_T12  1725
    RHS1      RAMPUP_G0_T12  94
    RHS1      RAMPDN_G0_T12  94
    RHS1      RAMPUP_G1_T12  63
    RHS1      RAMPDN_G1_T12  63
    RHS1      RAMPUP_G2_T12  90
    RHS1      RAMPDN_G2_T12  90
    RHS1      RAMPUP_G3_T12  44
    RHS1      RAMPDN_G3_T12  44
    RHS1      RAMPUP_G4_T12  49
    RHS1      RAMPDN_G4_T12  49
    RHS1      RAMPUP_G5_T12  47
    RHS1      RAMPDN_G5_T12  47
    RHS1      RAMPUP_G6_T12  43
    RHS1      RAMPDN_G6_T12  43
    RHS1      RAMPUP_G7_T12  41
    RHS1      RAMPDN_G7_T12  41
    RHS1      RAMPUP_G8_T12  53
    RHS1      RAMPDN_G8_T12  53
    RHS1      RAMPUP_G9_T12  65
    RHS1      RAMPDN_G9_T12  65
    RHS1      RAMPUP_G10_T12  69
    RHS1      RAMPDN_G10_T12  69
    RHS1      RAMPUP_G11_T12  75
    RHS1      RAMPDN_G11_T12  75
    RHS1      RAMPUP_G12_T12  67
    RHS1      RAMPDN_G12_T12  67
    RHS1      RAMPUP_G13_T12  86
    RHS1      RAMPDN_G13_T12  86
    RHS1      RAMPUP_G14_T12  89
    RHS1      RAMPDN_G14_T12  89
    RHS1      RAMPUP_G15_T12  96
    RHS1      RAMPDN_G15_T12  96
    RHS1      RAMPUP_G16_T12  61
    RHS1      RAMPDN_G16_T12  61
    RHS1      RAMPUP_G17_T12  77
    RHS1      RAMPDN_G17_T12  77
    RHS1      RAMPUP_G18_T12  64
    RHS1      RAMPDN_G18_T12  64
    RHS1      RAMPUP_G19_T12  47
    RHS1      RAMPDN_G19_T12  47
    RHS1      DEMAND_T13  1364
    RHS1      RESERVE_T13  1569
    RHS1      RAMPUP_G0_T13  94
    RHS1      RAMPDN_G0_T13  94
    RHS1      RAMPUP_G1_T13  63
    RHS1      RAMPDN_G1_T13  63
    RHS1      RAMPUP_G2_T13  90
    RHS1      RAMPDN_G2_T13  90
    RHS1      RAMPUP_G3_T13  44
    RHS1      RAMPDN_G3_T13  44
    RHS1      RAMPUP_G4_T13  49
    RHS1      RAMPDN_G4_T13  49
    RHS1      RAMPUP_G5_T13  47
    RHS1      RAMPDN_G5_T13  47
    RHS1      RAMPUP_G6_T13  43
    RHS1      RAMPDN_G6_T13  43
    RHS1      RAMPUP_G7_T13  41
    RHS1      RAMPDN_G7_T13  41
    RHS1      RAMPUP_G8_T13  53
    RHS1      RAMPDN_G8_T13  53
    RHS1      RAMPUP_G9_T13  65
    RHS1      RAMPDN_G9_T13  65
    RHS1      RAMPUP_G10_T13  69
    RHS1      RAMPDN_G10_T13  69
    RHS1      RAMPUP_G11_T13  75
    RHS1      RAMPDN_G11_T13  75
    RHS1      RAMPUP_G12_T13  67
    RHS1      RAMPDN_G12_T13  67
    RHS1      RAMPUP_G13_T13  86
    RHS1      RAMPDN_G13_T13  86
    RHS1      RAMPUP_G14_T13  89
    RHS1      RAMPDN_G14_T13  89
    RHS1      RAMPUP_G15_T13  96
    RHS1      RAMPDN_G15_T13  96
    RHS1      RAMPUP_G16_T13  61
    RHS1      RAMPDN_G16_T13  61
    RHS1      RAMPUP_G17_T13  77
    RHS1      RAMPDN_G17_T13  77
    RHS1      RAMPUP_G18_T13  64
    RHS1      RAMPDN_G18_T13  64
    RHS1      RAMPUP_G19_T13  47
    RHS1      RAMPDN_G19_T13  47
    RHS1      DEMAND_T14  1238
    RHS1      RESERVE_T14  1424
    RHS1      RAMPUP_G0_T14  94
    RHS1      RAMPDN_G0_T14  94
    RHS1      RAMPUP_G1_T14  63
    RHS1      RAMPDN_G1_T14  63
    RHS1      RAMPUP_G2_T14  90
    RHS1      RAMPDN_G2_T14  90
    RHS1      RAMPUP_G3_T14  44
    RHS1      RAMPDN_G3_T14  44
    RHS1      RAMPUP_G4_T14  49
    RHS1      RAMPDN_G4_T14  49
    RHS1      RAMPUP_G5_T14  47
    RHS1      RAMPDN_G5_T14  47
    RHS1      RAMPUP_G6_T14  43
    RHS1      RAMPDN_G6_T14  43
    RHS1      RAMPUP_G7_T14  41
    RHS1      RAMPDN_G7_T14  41
    RHS1      RAMPUP_G8_T14  53
    RHS1      RAMPDN_G8_T14  53
    RHS1      RAMPUP_G9_T14  65
    RHS1      RAMPDN_G9_T14  65
    RHS1      RAMPUP_G10_T14  69
    RHS1      RAMPDN_G10_T14  69
    RHS1      RAMPUP_G11_T14  75
    RHS1      RAMPDN_G11_T14  75
    RHS1      RAMPUP_G12_T14  67
    RHS1      RAMPDN_G12_T14  67
    RHS1      RAMPUP_G13_T14  86
    RHS1      RAMPDN_G13_T14  86
    RHS1      RAMPUP_G14_T14  89
    RHS1      RAMPDN_G14_T14  89
    RHS1      RAMPUP_G15_T14  96
    RHS1      RAMPDN_G15_T14  96
    RHS1      RAMPUP_G16_T14  61
    RHS1      RAMPDN_G16_T14  61
    RHS1      RAMPUP_G17_T14  77
    RHS1      RAMPDN_G17_T14  77
    RHS1      RAMPUP_G18_T14  64
    RHS1      RAMPDN_G18_T14  64
    RHS1      RAMPUP_G19_T14  47
    RHS1      RAMPDN_G19_T14  47
    RHS1      DEMAND_T15  1129
    RHS1      RESERVE_T15  1298
    RHS1      RAMPUP_G0_T15  94
    RHS1      RAMPDN_G0_T15  94
    RHS1      RAMPUP_G1_T15  63
    RHS1      RAMPDN_G1_T15  63
    RHS1      RAMPUP_G2_T15  90
    RHS1      RAMPDN_G2_T15  90
    RHS1      RAMPUP_G3_T15  44
    RHS1      RAMPDN_G3_T15  44
    RHS1      RAMPUP_G4_T15  49
    RHS1      RAMPDN_G4_T15  49
    RHS1      RAMPUP_G5_T15  47
    RHS1      RAMPDN_G5_T15  47
    RHS1      RAMPUP_G6_T15  43
    RHS1      RAMPDN_G6_T15  43
    RHS1      RAMPUP_G7_T15  41
    RHS1      RAMPDN_G7_T15  41
    RHS1      RAMPUP_G8_T15  53
    RHS1      RAMPDN_G8_T15  53
    RHS1      RAMPUP_G9_T15  65
    RHS1      RAMPDN_G9_T15  65
    RHS1      RAMPUP_G10_T15  69
    RHS1      RAMPDN_G10_T15  69
    RHS1      RAMPUP_G11_T15  75
    RHS1      RAMPDN_G11_T15  75
    RHS1      RAMPUP_G12_T15  67
    RHS1      RAMPDN_G12_T15  67
    RHS1      RAMPUP_G13_T15  86
    RHS1      RAMPDN_G13_T15  86
    RHS1      RAMPUP_G14_T15  89
    RHS1      RAMPDN_G14_T15  89
    RHS1      RAMPUP_G15_T15  96
    RHS1      RAMPDN_G15_T15  96
    RHS1      RAMPUP_G16_T15  61
    RHS1      RAMPDN_G16_T15  61
    RHS1      RAMPUP_G17_T15  77
    RHS1      RAMPDN_G17_T15  77
    RHS1      RAMPUP_G18_T15  64
    RHS1      RAMPDN_G18_T15  64
    RHS1      RAMPUP_G19_T15  47
    RHS1      RAMPDN_G19_T15  47
    RHS1      DEMAND_T16  1045
    RHS1      RESERVE_T16  1202
    RHS1      RAMPUP_G0_T16  94
    RHS1      RAMPDN_G0_T16  94
    RHS1      RAMPUP_G1_T16  63
    RHS1      RAMPDN_G1_T16  63
    RHS1      RAMPUP_G2_T16  90
    RHS1      RAMPDN_G2_T16  90
    RHS1      RAMPUP_G3_T16  44
    RHS1      RAMPDN_G3_T16  44
    RHS1      RAMPUP_G4_T16  49
    RHS1      RAMPDN_G4_T16  49
    RHS1      RAMPUP_G5_T16  47
    RHS1      RAMPDN_G5_T16  47
    RHS1      RAMPUP_G6_T16  43
    RHS1      RAMPDN_G6_T16  43
    RHS1      RAMPUP_G7_T16  41
    RHS1      RAMPDN_G7_T16  41
    RHS1      RAMPUP_G8_T16  53
    RHS1      RAMPDN_G8_T16  53
    RHS1      RAMPUP_G9_T16  65
    RHS1      RAMPDN_G9_T16  65
    RHS1      RAMPUP_G10_T16  69
    RHS1      RAMPDN_G10_T16  69
    RHS1      RAMPUP_G11_T16  75
    RHS1      RAMPDN_G11_T16  75
    RHS1      RAMPUP_G12_T16  67
    RHS1      RAMPDN_G12_T16  67
    RHS1      RAMPUP_G13_T16  86
    RHS1      RAMPDN_G13_T16  86
    RHS1      RAMPUP_G14_T16  89
    RHS1      RAMPDN_G14_T16  89
    RHS1      RAMPUP_G15_T16  96
    RHS1      RAMPDN_G15_T16  96
    RHS1      RAMPUP_G16_T16  61
    RHS1      RAMPDN_G16_T16  61
    RHS1      RAMPUP_G17_T16  77
    RHS1      RAMPDN_G17_T16  77
    RHS1      RAMPUP_G18_T16  64
    RHS1      RAMPDN_G18_T16  64
    RHS1      RAMPUP_G19_T16  47
    RHS1      RAMPDN_G19_T16  47
    RHS1      DEMAND_T17  993
    RHS1      RESERVE_T17  1142
    RHS1      RAMPUP_G0_T17  94
    RHS1      RAMPDN_G0_T17  94
    RHS1      RAMPUP_G1_T17  63
    RHS1      RAMPDN_G1_T17  63
    RHS1      RAMPUP_G2_T17  90
    RHS1      RAMPDN_G2_T17  90
    RHS1      RAMPUP_G3_T17  44
    RHS1      RAMPDN_G3_T17  44
    RHS1      RAMPUP_G4_T17  49
    RHS1      RAMPDN_G4_T17  49
    RHS1      RAMPUP_G5_T17  47
    RHS1      RAMPDN_G5_T17  47
    RHS1      RAMPUP_G6_T17  43
    RHS1      RAMPDN_G6_T17  43
    RHS1      RAMPUP_G7_T17  41
    RHS1      RAMPDN_G7_T17  41
    RHS1      RAMPUP_G8_T17  53
    RHS1      RAMPDN_G8_T17  53
    RHS1      RAMPUP_G9_T17  65
    RHS1      RAMPDN_G9_T17  65
    RHS1      RAMPUP_G10_T17  69
    RHS1      RAMPDN_G10_T17  69
    RHS1      RAMPUP_G11_T17  75
    RHS1      RAMPDN_G11_T17  75
    RHS1      RAMPUP_G12_T17  67
    RHS1      RAMPDN_G12_T17  67
    RHS1      RAMPUP_G13_T17  86
    RHS1      RAMPDN_G13_T17  86
    RHS1      RAMPUP_G14_T17  89
    RHS1      RAMPDN_G14_T17  89
    RHS1      RAMPUP_G15_T17  96
    RHS1      RAMPDN_G15_T17  96
    RHS1      RAMPUP_G16_T17  61
    RHS1      RAMPDN_G16_T17  61
    RHS1      RAMPUP_G17_T17  77
    RHS1      RAMPDN_G17_T17  77
    RHS1      RAMPUP_G18_T17  64
    RHS1      RAMPDN_G18_T17  64
    RHS1      RAMPUP_G19_T17  47
    RHS1      RAMPDN_G19_T17  47
    RHS1      DEMAND_T18  975
    RHS1      RESERVE_T18  1121
    RHS1      RAMPUP_G0_T18  94
    RHS1      RAMPDN_G0_T18  94
    RHS1      RAMPUP_G1_T18  63
    RHS1      RAMPDN_G1_T18  63
    RHS1      RAMPUP_G2_T18  90
    RHS1      RAMPDN_G2_T18  90
    RHS1      RAMPUP_G3_T18  44
    RHS1      RAMPDN_G3_T18  44
    RHS1      RAMPUP_G4_T18  49
    RHS1      RAMPDN_G4_T18  49
    RHS1      RAMPUP_G5_T18  47
    RHS1      RAMPDN_G5_T18  47
    RHS1      RAMPUP_G6_T18  43
    RHS1      RAMPDN_G6_T18  43
    RHS1      RAMPUP_G7_T18  41
    RHS1      RAMPDN_G7_T18  41
    RHS1      RAMPUP_G8_T18  53
    RHS1      RAMPDN_G8_T18  53
    RHS1      RAMPUP_G9_T18  65
    RHS1      RAMPDN_G9_T18  65
    RHS1      RAMPUP_G10_T18  69
    RHS1      RAMPDN_G10_T18  69
    RHS1      RAMPUP_G11_T18  75
    RHS1      RAMPDN_G11_T18  75
    RHS1      RAMPUP_G12_T18  67
    RHS1      RAMPDN_G12_T18  67
    RHS1      RAMPUP_G13_T18  86
    RHS1      RAMPDN_G13_T18  86
    RHS1      RAMPUP_G14_T18  89
    RHS1      RAMPDN_G14_T18  89
    RHS1      RAMPUP_G15_T18  96
    RHS1      RAMPDN_G15_T18  96
    RHS1      RAMPUP_G16_T18  61
    RHS1      RAMPDN_G16_T18  61
    RHS1      RAMPUP_G17_T18  77
    RHS1      RAMPDN_G17_T18  77
    RHS1      RAMPUP_G18_T18  64
    RHS1      RAMPDN_G18_T18  64
    RHS1      RAMPUP_G19_T18  47
    RHS1      RAMPDN_G19_T18  47
    RHS1      DEMAND_T19  993
    RHS1      RESERVE_T19  1142
    RHS1      RAMPUP_G0_T19  94
    RHS1      RAMPDN_G0_T19  94
    RHS1      RAMPUP_G1_T19  63
    RHS1      RAMPDN_G1_T19  63
    RHS1      RAMPUP_G2_T19  90
    RHS1      RAMPDN_G2_T19  90
    RHS1      RAMPUP_G3_T19  44
    RHS1      RAMPDN_G3_T19  44
    RHS1      RAMPUP_G4_T19  49
    RHS1      RAMPDN_G4_T19  49
    RHS1      RAMPUP_G5_T19  47
    RHS1      RAMPDN_G5_T19  47
    RHS1      RAMPUP_G6_T19  43
    RHS1      RAMPDN_G6_T19  43
    RHS1      RAMPUP_G7_T19  41
    RHS1      RAMPDN_G7_T19  41
    RHS1      RAMPUP_G8_T19  53
    RHS1      RAMPDN_G8_T19  53
    RHS1      RAMPUP_G9_T19  65
    RHS1      RAMPDN_G9_T19  65
    RHS1      RAMPUP_G10_T19  69
    RHS1      RAMPDN_G10_T19  69
    RHS1      RAMPUP_G11_T19  75
    RHS1      RAMPDN_G11_T19  75
    RHS1      RAMPUP_G12_T19  67
    RHS1      RAMPDN_G12_T19  67
    RHS1      RAMPUP_G13_T19  86
    RHS1      RAMPDN_G13_T19  86
    RHS1      RAMPUP_G14_T19  89
    RHS1      RAMPDN_G14_T19  89
    RHS1      RAMPUP_G15_T19  96
    RHS1      RAMPDN_G15_T19  96
    RHS1      RAMPUP_G16_T19  61
    RHS1      RAMPDN_G16_T19  61
    RHS1      RAMPUP_G17_T19  77
    RHS1      RAMPDN_G17_T19  77
    RHS1      RAMPUP_G18_T19  64
    RHS1      RAMPDN_G18_T19  64
    RHS1      RAMPUP_G19_T19  47
    RHS1      RAMPDN_G19_T19  47
    RHS1      DEMAND_T20  1045
    RHS1      RESERVE_T20  1202
    RHS1      RAMPUP_G0_T20  94
    RHS1      RAMPDN_G0_T20  94
    RHS1      RAMPUP_G1_T20  63
    RHS1      RAMPDN_G1_T20  63
    RHS1      RAMPUP_G2_T20  90
    RHS1      RAMPDN_G2_T20  90
    RHS1      RAMPUP_G3_T20  44
    RHS1      RAMPDN_G3_T20  44
    RHS1      RAMPUP_G4_T20  49
    RHS1      RAMPDN_G4_T20  49
    RHS1      RAMPUP_G5_T20  47
    RHS1      RAMPDN_G5_T20  47
    RHS1      RAMPUP_G6_T20  43
    RHS1      RAMPDN_G6_T20  43
    RHS1      RAMPUP_G7_T20  41
    RHS1      RAMPDN_G7_T20  41
    RHS1      RAMPUP_G8_T20  53
    RHS1      RAMPDN_G8_T20  53
    RHS1      RAMPUP_G9_T20  65
    RHS1      RAMPDN_G9_T20  65
    RHS1      RAMPUP_G10_T20  69
    RHS1      RAMPDN_G10_T20  69
    RHS1      RAMPUP_G11_T20  75
    RHS1      RAMPDN_G11_T20  75
    RHS1      RAMPUP_G12_T20  67
    RHS1      RAMPDN_G12_T20  67
    RHS1      RAMPUP_G13_T20  86
    RHS1      RAMPDN_G13_T20  86
    RHS1      RAMPUP_G14_T20  89
    RHS1      RAMPDN_G14_T20  89
    RHS1      RAMPUP_G15_T20  96
    RHS1      RAMPDN_G15_T20  96
    RHS1      RAMPUP_G16_T20  61
    RHS1      RAMPDN_G16_T20  61
    RHS1      RAMPUP_G17_T20  77
    RHS1      RAMPDN_G17_T20  77
    RHS1      RAMPUP_G18_T20  64
    RHS1      RAMPDN_G18_T20  64
    RHS1      RAMPUP_G19_T20  47
    RHS1      RAMPDN_G19_T20  47
    RHS1      DEMAND_T21  1129
    RHS1      RESERVE_T21  1298
    RHS1      RAMPUP_G0_T21  94
    RHS1      RAMPDN_G0_T21  94
    RHS1      RAMPUP_G1_T21  63
    RHS1      RAMPDN_G1_T21  63
    RHS1      RAMPUP_G2_T21  90
    RHS1      RAMPDN_G2_T21  90
    RHS1      RAMPUP_G3_T21  44
    RHS1      RAMPDN_G3_T21  44
    RHS1      RAMPUP_G4_T21  49
    RHS1      RAMPDN_G4_T21  49
    RHS1      RAMPUP_G5_T21  47
    RHS1      RAMPDN_G5_T21  47
    RHS1      RAMPUP_G6_T21  43
    RHS1      RAMPDN_G6_T21  43
    RHS1      RAMPUP_G7_T21  41
    RHS1      RAMPDN_G7_T21  41
    RHS1      RAMPUP_G8_T21  53
    RHS1      RAMPDN_G8_T21  53
    RHS1      RAMPUP_G9_T21  65
    RHS1      RAMPDN_G9_T21  65
    RHS1      RAMPUP_G10_T21  69
    RHS1      RAMPDN_G10_T21  69
    RHS1      RAMPUP_G11_T21  75
    RHS1      RAMPDN_G11_T21  75
    RHS1      RAMPUP_G12_T21  67
    RHS1      RAMPDN_G12_T21  67
    RHS1      RAMPUP_G13_T21  86
    RHS1      RAMPDN_G13_T21  86
    RHS1      RAMPUP_G14_T21  89
    RHS1      RAMPDN_G14_T21  89
    RHS1      RAMPUP_G15_T21  96
    RHS1      RAMPDN_G15_T21  96
    RHS1      RAMPUP_G16_T21  61
    RHS1      RAMPDN_G16_T21  61
    RHS1      RAMPUP_G17_T21  77
    RHS1      RAMPDN_G17_T21  77
    RHS1      RAMPUP_G18_T21  64
    RHS1      RAMPDN_G18_T21  64
    RHS1      RAMPUP_G19_T21  47
    RHS1      RAMPDN_G19_T21  47
    RHS1      DEMAND_T22  1237
    RHS1      RESERVE_T22  1423
    RHS1      RAMPUP_G0_T22  94
    RHS1      RAMPDN_G0_T22  94
    RHS1      RAMPUP_G1_T22  63
    RHS1      RAMPDN_G1_T22  63
    RHS1      RAMPUP_G2_T22  90
    RHS1      RAMPDN_G2_T22  90
    RHS1      RAMPUP_G3_T22  44
    RHS1      RAMPDN_G3_T22  44
    RHS1      RAMPUP_G4_T22  49
    RHS1      RAMPDN_G4_T22  49
    RHS1      RAMPUP_G5_T22  47
    RHS1      RAMPDN_G5_T22  47
    RHS1      RAMPUP_G6_T22  43
    RHS1      RAMPDN_G6_T22  43
    RHS1      RAMPUP_G7_T22  41
    RHS1      RAMPDN_G7_T22  41
    RHS1      RAMPUP_G8_T22  53
    RHS1      RAMPDN_G8_T22  53
    RHS1      RAMPUP_G9_T22  65
    RHS1      RAMPDN_G9_T22  65
    RHS1      RAMPUP_G10_T22  69
    RHS1      RAMPDN_G10_T22  69
    RHS1      RAMPUP_G11_T22  75
    RHS1      RAMPDN_G11_T22  75
    RHS1      RAMPUP_G12_T22  67
    RHS1      RAMPDN_G12_T22  67
    RHS1      RAMPUP_G13_T22  86
    RHS1      RAMPDN_G13_T22  86
    RHS1      RAMPUP_G14_T22  89
    RHS1      RAMPDN_G14_T22  89
    RHS1      RAMPUP_G15_T22  96
    RHS1      RAMPDN_G15_T22  96
    RHS1      RAMPUP_G16_T22  61
    RHS1      RAMPDN_G16_T22  61
    RHS1      RAMPUP_G17_T22  77
    RHS1      RAMPDN_G17_T22  77
    RHS1      RAMPUP_G18_T22  64
    RHS1      RAMPDN_G18_T22  64
    RHS1      RAMPUP_G19_T22  47
    RHS1      RAMPDN_G19_T22  47
    RHS1      DEMAND_T23  1364
    RHS1      RESERVE_T23  1569
    RHS1      RAMPUP_G0_T23  94
    RHS1      RAMPDN_G0_T23  94
    RHS1      RAMPUP_G1_T23  63
    RHS1      RAMPDN_G1_T23  63
    RHS1      RAMPUP_G2_T23  90
    RHS1      RAMPDN_G2_T23  90
    RHS1      RAMPUP_G3_T23  44
    RHS1      RAMPDN_G3_T23  44
    RHS1      RAMPUP_G4_T23  49
    RHS1      RAMPDN_G4_T23  49
    RHS1      RAMPUP_G5_T23  47
    RHS1      RAMPDN_G5_T23  47
    RHS1      RAMPUP_G6_T23  43
    RHS1      RAMPDN_G6_T23  43
    RHS1      RAMPUP_G7_T23  41
    RHS1      RAMPDN_G7_T23  41
    RHS1      RAMPUP_G8_T23  53
    RHS1      RAMPDN_G8_T23  53
    RHS1      RAMPUP_G9_T23  65
    RHS1      RAMPDN_G9_T23  65
    RHS1      RAMPUP_G10_T23  69
    RHS1      RAMPDN_G10_T23  69
    RHS1      RAMPUP_G11_T23  75
    RHS1      RAMPDN_G11_T23  75
    RHS1      RAMPUP_G12_T23  67
    RHS1      RAMPDN_G12_T23  67
    RHS1      RAMPUP_G13_T23  86
    RHS1      RAMPDN_G13_T23  86
    RHS1      RAMPUP_G14_T23  89
    RHS1      RAMPDN_G14_T23  89
    RHS1      RAMPUP_G15_T23  96
    RHS1      RAMPDN_G15_T23  96
    RHS1      RAMPUP_G16_T23  61
    RHS1      RAMPDN_G16_T23  61
    RHS1      RAMPUP_G17_T23  77
    RHS1      RAMPDN_G17_T23  77
    RHS1      RAMPUP_G18_T23  64
    RHS1      RAMPDN_G18_T23  64
    RHS1      RAMPUP_G19_T23  47
    RHS1      RAMPDN_G19_T23  47
    RHS1      DEMAND_T24  1500
    RHS1      RESERVE_T24  1725
    RHS1      RAMPUP_G0_T24  94
    RHS1      RAMPDN_G0_T24  94
    RHS1      RAMPUP_G1_T24  63
    RHS1      RAMPDN_G1_T24  63
    RHS1      RAMPUP_G2_T24  90
    RHS1      RAMPDN_G2_T24  90
    RHS1      RAMPUP_G3_T24  44
    RHS1      RAMPDN_G3_T24  44
    RHS1      RAMPUP_G4_T24  49
    RHS1      RAMPDN_G4_T24  49
    RHS1      RAMPUP_G5_T24  47
    RHS1      RAMPDN_G5_T24  47
    RHS1      RAMPUP_G6_T24  43
    RHS1      RAMPDN_G6_T24  43
    RHS1      RAMPUP_G7_T24  41
    RHS1      RAMPDN_G7_T24  41
    RHS1      RAMPUP_G8_T24  53
    RHS1      RAMPDN_G8_T24  53
    RHS1      RAMPUP_G9_T24  65
    RHS1      RAMPDN_G9_T24  65
    RHS1      RAMPUP_G10_T24  69
    RHS1      RAMPDN_G10_T24  69
    RHS1      RAMPUP_G11_T24  75
    RHS1      RAMPDN_G11_T24  75
    RHS1      RAMPUP_G12_T24  67
    RHS1      RAMPDN_G12_T24  67
    RHS1      RAMPUP_G13_T24  86
    RHS1      RAMPDN_G13_T24  86
    RHS1      RAMPUP_G14_T24  89
    RHS1      RAMPDN_G14_T24  89
    RHS1      RAMPUP_G15_T24  96
    RHS1      RAMPDN_G15_T24  96
    RHS1      RAMPUP_G16_T24  61
    RHS1      RAMPDN_G16_T24  61
    RHS1      RAMPUP_G17_T24  77
    RHS1      RAMPDN_G17_T24  77
    RHS1      RAMPUP_G18_T24  64
    RHS1      RAMPDN_G18_T24  64
    RHS1      RAMPUP_G19_T24  47
    RHS1      RAMPDN_G19_T24  47
    RHS1      DEMAND_T25  1636
    RHS1      RESERVE_T25  1881
    RHS1      RAMPUP_G0_T25  94
    RHS1      RAMPDN_G0_T25  94
    RHS1      RAMPUP_G1_T25  63
    RHS1      RAMPDN_G1_T25  63
    RHS1      RAMPUP_G2_T25  90
    RHS1      RAMPDN_G2_T25  90
    RHS1      RAMPUP_G3_T25  44
    RHS1      RAMPDN_G3_T25  44
    RHS1      RAMPUP_G4_T25  49
    RHS1      RAMPDN_G4_T25  49
    RHS1      RAMPUP_G5_T25  47
    RHS1      RAMPDN_G5_T25  47
    RHS1      RAMPUP_G6_T25  43
    RHS1      RAMPDN_G6_T25  43
    RHS1      RAMPUP_G7_T25  41
    RHS1      RAMPDN_G7_T25  41
    RHS1      RAMPUP_G8_T25  53
    RHS1      RAMPDN_G8_T25  53
    RHS1      RAMPUP_G9_T25  65
    RHS1      RAMPDN_G9_T25  65
    RHS1      RAMPUP_G10_T25  69
    RHS1      RAMPDN_G10_T25  69
    RHS1      RAMPUP_G11_T25  75
    RHS1      RAMPDN_G11_T25  75
    RHS1      RAMPUP_G12_T25  67
    RHS1      RAMPDN_G12_T25  67
    RHS1      RAMPUP_G13_T25  86
    RHS1      RAMPDN_G13_T25  86
    RHS1      RAMPUP_G14_T25  89
    RHS1      RAMPDN_G14_T25  89
    RHS1      RAMPUP_G15_T25  96
    RHS1      RAMPDN_G15_T25  96
    RHS1      RAMPUP_G16_T25  61
    RHS1      RAMPDN_G16_T25  61
    RHS1      RAMPUP_G17_T25  77
    RHS1      RAMPDN_G17_T25  77
    RHS1      RAMPUP_G18_T25  64
    RHS1      RAMPDN_G18_T25  64
    RHS1      RAMPUP_G19_T25  47
    RHS1      RAMPDN_G19_T25  47
    RHS1      DEMAND_T26  1763
    RHS1      RESERVE_T26  2027
    RHS1      RAMPUP_G0_T26  94
    RHS1      RAMPDN_G0_T26  94
    RHS1      RAMPUP_G1_T26  63
    RHS1      RAMPDN_G1_T26  63
    RHS1      RAMPUP_G2_T26  90
    RHS1      RAMPDN_G2_T26  90
    RHS1      RAMPUP_G3_T26  44
    RHS1      RAMPDN_G3_T26  44
    RHS1      RAMPUP_G4_T26  49
    RHS1      RAMPDN_G4_T26  49
    RHS1      RAMPUP_G5_T26  47
    RHS1      RAMPDN_G5_T26  47
    RHS1      RAMPUP_G6_T26  43
    RHS1      RAMPDN_G6_T26  43
    RHS1      RAMPUP_G7_T26  41
    RHS1      RAMPDN_G7_T26  41
    RHS1      RAMPUP_G8_T26  53
    RHS1      RAMPDN_G8_T26  53
    RHS1      RAMPUP_G9_T26  65
    RHS1      RAMPDN_G9_T26  65
    RHS1      RAMPUP_G10_T26  69
    RHS1      RAMPDN_G10_T26  69
    RHS1      RAMPUP_G11_T26  75
    RHS1      RAMPDN_G11_T26  75
    RHS1      RAMPUP_G12_T26  67
    RHS1      RAMPDN_G12_T26  67
    RHS1      RAMPUP_G13_T26  86
    RHS1      RAMPDN_G13_T26  86
    RHS1      RAMPUP_G14_T26  89
    RHS1      RAMPDN_G14_T26  89
    RHS1      RAMPUP_G15_T26  96
    RHS1      RAMPDN_G15_T26  96
    RHS1      RAMPUP_G16_T26  61
    RHS1      RAMPDN_G16_T26  61
    RHS1      RAMPUP_G17_T26  77
    RHS1      RAMPDN_G17_T26  77
    RHS1      RAMPUP_G18_T26  64
    RHS1      RAMPDN_G18_T26  64
    RHS1      RAMPUP_G19_T26  47
    RHS1      RAMPDN_G19_T26  47
    RHS1      DEMAND_T27  1871
    RHS1      RESERVE_T27  2152
    RHS1      RAMPUP_G0_T27  94
    RHS1      RAMPDN_G0_T27  94
    RHS1      RAMPUP_G1_T27  63
    RHS1      RAMPDN_G1_T27  63
    RHS1      RAMPUP_G2_T27  90
    RHS1      RAMPDN_G2_T27  90
    RHS1      RAMPUP_G3_T27  44
    RHS1      RAMPDN_G3_T27  44
    RHS1      RAMPUP_G4_T27  49
    RHS1      RAMPDN_G4_T27  49
    RHS1      RAMPUP_G5_T27  47
    RHS1      RAMPDN_G5_T27  47
    RHS1      RAMPUP_G6_T27  43
    RHS1      RAMPDN_G6_T27  43
    RHS1      RAMPUP_G7_T27  41
    RHS1      RAMPDN_G7_T27  41
    RHS1      RAMPUP_G8_T27  53
    RHS1      RAMPDN_G8_T27  53
    RHS1      RAMPUP_G9_T27  65
    RHS1      RAMPDN_G9_T27  65
    RHS1      RAMPUP_G10_T27  69
    RHS1      RAMPDN_G10_T27  69
    RHS1      RAMPUP_G11_T27  75
    RHS1      RAMPDN_G11_T27  75
    RHS1      RAMPUP_G12_T27  67
    RHS1      RAMPDN_G12_T27  67
    RHS1      RAMPUP_G13_T27  86
    RHS1      RAMPDN_G13_T27  86
    RHS1      RAMPUP_G14_T27  89
    RHS1      RAMPDN_G14_T27  89
    RHS1      RAMPUP_G15_T27  96
    RHS1      RAMPDN_G15_T27  96
    RHS1      RAMPUP_G16_T27  61
    RHS1      RAMPDN_G16_T27  61
    RHS1      RAMPUP_G17_T27  77
    RHS1      RAMPDN_G17_T27  77
    RHS1      RAMPUP_G18_T27  64
    RHS1      RAMPDN_G18_T27  64
    RHS1      RAMPUP_G19_T27  47
    RHS1      RAMPDN_G19_T27  47
    RHS1      DEMAND_T28  1955
    RHS1      RESERVE_T28  2248
    RHS1      RAMPUP_G0_T28  94
    RHS1      RAMPDN_G0_T28  94
    RHS1      RAMPUP_G1_T28  63
    RHS1      RAMPDN_G1_T28  63
    RHS1      RAMPUP_G2_T28  90
    RHS1      RAMPDN_G2_T28  90
    RHS1      RAMPUP_G3_T28  44
    RHS1      RAMPDN_G3_T28  44
    RHS1      RAMPUP_G4_T28  49
    RHS1      RAMPDN_G4_T28  49
    RHS1      RAMPUP_G5_T28  47
    RHS1      RAMPDN_G5_T28  47
    RHS1      RAMPUP_G6_T28  43
    RHS1      RAMPDN_G6_T28  43
    RHS1      RAMPUP_G7_T28  41
    RHS1      RAMPDN_G7_T28  41
    RHS1      RAMPUP_G8_T28  53
    RHS1      RAMPDN_G8_T28  53
    RHS1      RAMPUP_G9_T28  65
    RHS1      RAMPDN_G9_T28  65
    RHS1      RAMPUP_G10_T28  69
    RHS1      RAMPDN_G10_T28  69
    RHS1      RAMPUP_G11_T28  75
    RHS1      RAMPDN_G11_T28  75
    RHS1      RAMPUP_G12_T28  67
    RHS1      RAMPDN_G12_T28  67
    RHS1      RAMPUP_G13_T28  86
    RHS1      RAMPDN_G13_T28  86
    RHS1      RAMPUP_G14_T28  89
    RHS1      RAMPDN_G14_T28  89
    RHS1      RAMPUP_G15_T28  96
    RHS1      RAMPDN_G15_T28  96
    RHS1      RAMPUP_G16_T28  61
    RHS1      RAMPDN_G16_T28  61
    RHS1      RAMPUP_G17_T28  77
    RHS1      RAMPDN_G17_T28  77
    RHS1      RAMPUP_G18_T28  64
    RHS1      RAMPDN_G18_T28  64
    RHS1      RAMPUP_G19_T28  47
    RHS1      RAMPDN_G19_T28  47
    RHS1      DEMAND_T29  2007
    RHS1      RESERVE_T29  2308
    RHS1      RAMPUP_G0_T29  94
    RHS1      RAMPDN_G0_T29  94
    RHS1      RAMPUP_G1_T29  63
    RHS1      RAMPDN_G1_T29  63
    RHS1      RAMPUP_G2_T29  90
    RHS1      RAMPDN_G2_T29  90
    RHS1      RAMPUP_G3_T29  44
    RHS1      RAMPDN_G3_T29  44
    RHS1      RAMPUP_G4_T29  49
    RHS1      RAMPDN_G4_T29  49
    RHS1      RAMPUP_G5_T29  47
    RHS1      RAMPDN_G5_T29  47
    RHS1      RAMPUP_G6_T29  43
    RHS1      RAMPDN_G6_T29  43
    RHS1      RAMPUP_G7_T29  41
    RHS1      RAMPDN_G7_T29  41
    RHS1      RAMPUP_G8_T29  53
    RHS1      RAMPDN_G8_T29  53
    RHS1      RAMPUP_G9_T29  65
    RHS1      RAMPDN_G9_T29  65
    RHS1      RAMPUP_G10_T29  69
    RHS1      RAMPDN_G10_T29  69
    RHS1      RAMPUP_G11_T29  75
    RHS1      RAMPDN_G11_T29  75
    RHS1      RAMPUP_G12_T29  67
    RHS1      RAMPDN_G12_T29  67
    RHS1      RAMPUP_G13_T29  86
    RHS1      RAMPDN_G13_T29  86
    RHS1      RAMPUP_G14_T29  89
    RHS1      RAMPDN_G14_T29  89
    RHS1      RAMPUP_G15_T29  96
    RHS1      RAMPDN_G15_T29  96
    RHS1      RAMPUP_G16_T29  61
    RHS1      RAMPDN_G16_T29  61
    RHS1      RAMPUP_G17_T29  77
    RHS1      RAMPDN_G17_T29  77
    RHS1      RAMPUP_G18_T29  64
    RHS1      RAMPDN_G18_T29  64
    RHS1      RAMPUP_G19_T29  47
    RHS1      RAMPDN_G19_T29  47
    RHS1      DEMAND_T30  2025
    RHS1      RESERVE_T30  2329
    RHS1      RAMPUP_G0_T30  94
    RHS1      RAMPDN_G0_T30  94
    RHS1      RAMPUP_G1_T30  63
    RHS1      RAMPDN_G1_T30  63
    RHS1      RAMPUP_G2_T30  90
    RHS1      RAMPDN_G2_T30  90
    RHS1      RAMPUP_G3_T30  44
    RHS1      RAMPDN_G3_T30  44
    RHS1      RAMPUP_G4_T30  49
    RHS1      RAMPDN_G4_T30  49
    RHS1      RAMPUP_G5_T30  47
    RHS1      RAMPDN_G5_T30  47
    RHS1      RAMPUP_G6_T30  43
    RHS1      RAMPDN_G6_T30  43
    RHS1      RAMPUP_G7_T30  41
    RHS1      RAMPDN_G7_T30  41
    RHS1      RAMPUP_G8_T30  53
    RHS1      RAMPDN_G8_T30  53
    RHS1      RAMPUP_G9_T30  65
    RHS1      RAMPDN_G9_T30  65
    RHS1      RAMPUP_G10_T30  69
    RHS1      RAMPDN_G10_T30  69
    RHS1      RAMPUP_G11_T30  75
    RHS1      RAMPDN_G11_T30  75
    RHS1      RAMPUP_G12_T30  67
    RHS1      RAMPDN_G12_T30  67
    RHS1      RAMPUP_G13_T30  86
    RHS1      RAMPDN_G13_T30  86
    RHS1      RAMPUP_G14_T30  89
    RHS1      RAMPDN_G14_T30  89
    RHS1      RAMPUP_G15_T30  96
    RHS1      RAMPDN_G15_T30  96
    RHS1      RAMPUP_G16_T30  61
    RHS1      RAMPDN_G16_T30  61
    RHS1      RAMPUP_G17_T30  77
    RHS1      RAMPDN_G17_T30  77
    RHS1      RAMPUP_G18_T30  64
    RHS1      RAMPDN_G18_T30  64
    RHS1      RAMPUP_G19_T30  47
    RHS1      RAMPDN_G19_T30  47
    RHS1      DEMAND_T31  2007
    RHS1      RESERVE_T31  2308
    RHS1      RAMPUP_G0_T31  94
    RHS1      RAMPDN_G0_T31  94
    RHS1      RAMPUP_G1_T31  63
    RHS1      RAMPDN_G1_T31  63
    RHS1      RAMPUP_G2_T31  90
    RHS1      RAMPDN_G2_T31  90
    RHS1      RAMPUP_G3_T31  44
    RHS1      RAMPDN_G3_T31  44
    RHS1      RAMPUP_G4_T31  49
    RHS1      RAMPDN_G4_T31  49
    RHS1      RAMPUP_G5_T31  47
    RHS1      RAMPDN_G5_T31  47
    RHS1      RAMPUP_G6_T31  43
    RHS1      RAMPDN_G6_T31  43
    RHS1      RAMPUP_G7_T31  41
    RHS1      RAMPDN_G7_T31  41
    RHS1      RAMPUP_G8_T31  53
    RHS1      RAMPDN_G8_T31  53
    RHS1      RAMPUP_G9_T31  65
    RHS1      RAMPDN_G9_T31  65
    RHS1      RAMPUP_G10_T31  69
    RHS1      RAMPDN_G10_T31  69
    RHS1      RAMPUP_G11_T31  75
    RHS1      RAMPDN_G11_T31  75
    RHS1      RAMPUP_G12_T31  67
    RHS1      RAMPDN_G12_T31  67
    RHS1      RAMPUP_G13_T31  86
    RHS1      RAMPDN_G13_T31  86
    RHS1      RAMPUP_G14_T31  89
    RHS1      RAMPDN_G14_T31  89
    RHS1      RAMPUP_G15_T31  96
    RHS1      RAMPDN_G15_T31  96
    RHS1      RAMPUP_G16_T31  61
    RHS1      RAMPDN_G16_T31  61
    RHS1      RAMPUP_G17_T31  77
    RHS1      RAMPDN_G17_T31  77
    RHS1      RAMPUP_G18_T31  64
    RHS1      RAMPDN_G18_T31  64
    RHS1      RAMPUP_G19_T31  47
    RHS1      RAMPDN_G19_T31  47
    RHS1      DEMAND_T32  1955
    RHS1      RESERVE_T32  2248
    RHS1      RAMPUP_G0_T32  94
    RHS1      RAMPDN_G0_T32  94
    RHS1      RAMPUP_G1_T32  63
    RHS1      RAMPDN_G1_T32  63
    RHS1      RAMPUP_G2_T32  90
    RHS1      RAMPDN_G2_T32  90
    RHS1      RAMPUP_G3_T32  44
    RHS1      RAMPDN_G3_T32  44
    RHS1      RAMPUP_G4_T32  49
    RHS1      RAMPDN_G4_T32  49
    RHS1      RAMPUP_G5_T32  47
    RHS1      RAMPDN_G5_T32  47
    RHS1      RAMPUP_G6_T32  43
    RHS1      RAMPDN_G6_T32  43
    RHS1      RAMPUP_G7_T32  41
    RHS1      RAMPDN_G7_T32  41
    RHS1      RAMPUP_G8_T32  53
    RHS1      RAMPDN_G8_T32  53
    RHS1      RAMPUP_G9_T32  65
    RHS1      RAMPDN_G9_T32  65
    RHS1      RAMPUP_G10_T32  69
    RHS1      RAMPDN_G10_T32  69
    RHS1      RAMPUP_G11_T32  75
    RHS1      RAMPDN_G11_T32  75
    RHS1      RAMPUP_G12_T32  67
    RHS1      RAMPDN_G12_T32  67
    RHS1      RAMPUP_G13_T32  86
    RHS1      RAMPDN_G13_T32  86
    RHS1      RAMPUP_G14_T32  89
    RHS1      RAMPDN_G14_T32  89
    RHS1      RAMPUP_G15_T32  96
    RHS1      RAMPDN_G15_T32  96
    RHS1      RAMPUP_G16_T32  61
    RHS1      RAMPDN_G16_T32  61
    RHS1      RAMPUP_G17_T32  77
    RHS1      RAMPDN_G17_T32  77
    RHS1      RAMPUP_G18_T32  64
    RHS1      RAMPDN_G18_T32  64
    RHS1      RAMPUP_G19_T32  47
    RHS1      RAMPDN_G19_T32  47
    RHS1      DEMAND_T33  1871
    RHS1      RESERVE_T33  2152
    RHS1      RAMPUP_G0_T33  94
    RHS1      RAMPDN_G0_T33  94
    RHS1      RAMPUP_G1_T33  63
    RHS1      RAMPDN_G1_T33  63
    RHS1      RAMPUP_G2_T33  90
    RHS1      RAMPDN_G2_T33  90
    RHS1      RAMPUP_G3_T33  44
    RHS1      RAMPDN_G3_T33  44
    RHS1      RAMPUP_G4_T33  49
    RHS1      RAMPDN_G4_T33  49
    RHS1      RAMPUP_G5_T33  47
    RHS1      RAMPDN_G5_T33  47
    RHS1      RAMPUP_G6_T33  43
    RHS1      RAMPDN_G6_T33  43
    RHS1      RAMPUP_G7_T33  41
    RHS1      RAMPDN_G7_T33  41
    RHS1      RAMPUP_G8_T33  53
    RHS1      RAMPDN_G8_T33  53
    RHS1      RAMPUP_G9_T33  65
    RHS1      RAMPDN_G9_T33  65
    RHS1      RAMPUP_G10_T33  69
    RHS1      RAMPDN_G10_T33  69
    RHS1      RAMPUP_G11_T33  75
    RHS1      RAMPDN_G11_T33  75
    RHS1      RAMPUP_G12_T33  67
    RHS1      RAMPDN_G12_T33  67
    RHS1      RAMPUP_G13_T33  86
    RHS1      RAMPDN_G13_T33  86
    RHS1      RAMPUP_G14_T33  89
    RHS1      RAMPDN_G14_T33  89
    RHS1      RAMPUP_G15_T33  96
    RHS1      RAMPDN_G15_T33  96
    RHS1      RAMPUP_G16_T33  61
    RHS1      RAMPDN_G16_T33  61
    RHS1      RAMPUP_G17_T33  77
    RHS1      RAMPDN_G17_T33  77
    RHS1      RAMPUP_G18_T33  64
    RHS1      RAMPDN_G18_T33  64
    RHS1      RAMPUP_G19_T33  47
    RHS1      RAMPDN_G19_T33  47
    RHS1      DEMAND_T34  1763
    RHS1      RESERVE_T34  2027
    RHS1      RAMPUP_G0_T34  94
    RHS1      RAMPDN_G0_T34  94
    RHS1      RAMPUP_G1_T34  63
    RHS1      RAMPDN_G1_T34  63
    RHS1      RAMPUP_G2_T34  90
    RHS1      RAMPDN_G2_T34  90
    RHS1      RAMPUP_G3_T34  44
    RHS1      RAMPDN_G3_T34  44
    RHS1      RAMPUP_G4_T34  49
    RHS1      RAMPDN_G4_T34  49
    RHS1      RAMPUP_G5_T34  47
    RHS1      RAMPDN_G5_T34  47
    RHS1      RAMPUP_G6_T34  43
    RHS1      RAMPDN_G6_T34  43
    RHS1      RAMPUP_G7_T34  41
    RHS1      RAMPDN_G7_T34  41
    RHS1      RAMPUP_G8_T34  53
    RHS1      RAMPDN_G8_T34  53
    RHS1      RAMPUP_G9_T34  65
    RHS1      RAMPDN_G9_T34  65
    RHS1      RAMPUP_G10_T34  69
    RHS1      RAMPDN_G10_T34  69
    RHS1      RAMPUP_G11_T34  75
    RHS1      RAMPDN_G11_T34  75
    RHS1      RAMPUP_G12_T34  67
    RHS1      RAMPDN_G12_T34  67
    RHS1      RAMPUP_G13_T34  86
    RHS1      RAMPDN_G13_T34  86
    RHS1      RAMPUP_G14_T34  89
    RHS1      RAMPDN_G14_T34  89
    RHS1      RAMPUP_G15_T34  96
    RHS1      RAMPDN_G15_T34  96
    RHS1      RAMPUP_G16_T34  61
    RHS1      RAMPDN_G16_T34  61
    RHS1      RAMPUP_G17_T34  77
    RHS1      RAMPDN_G17_T34  77
    RHS1      RAMPUP_G18_T34  64
    RHS1      RAMPDN_G18_T34  64
    RHS1      RAMPUP_G19_T34  47
    RHS1      RAMPDN_G19_T34  47
    RHS1      DEMAND_T35  1636
    RHS1      RESERVE_T35  1881
    RHS1      RAMPUP_G0_T35  94
    RHS1      RAMPDN_G0_T35  94
    RHS1      RAMPUP_G1_T35  63
    RHS1      RAMPDN_G1_T35  63
    RHS1      RAMPUP_G2_T35  90
    RHS1      RAMPDN_G2_T35  90
    RHS1      RAMPUP_G3_T35  44
    RHS1      RAMPDN_G3_T35  44
    RHS1      RAMPUP_G4_T35  49
    RHS1      RAMPDN_G4_T35  49
    RHS1      RAMPUP_G5_T35  47
    RHS1      RAMPDN_G5_T35  47
    RHS1      RAMPUP_G6_T35  43
    RHS1      RAMPDN_G6_T35  43
    RHS1      RAMPUP_G7_T35  41
    RHS1      RAMPDN_G7_T35  41
    RHS1      RAMPUP_G8_T35  53
    RHS1      RAMPDN_G8_T35  53
    RHS1      RAMPUP_G9_T35  65
    RHS1      RAMPDN_G9_T35  65
    RHS1      RAMPUP_G10_T35  69
    RHS1      RAMPDN_G10_T35  69
    RHS1      RAMPUP_G11_T35  75
    RHS1      RAMPDN_G11_T35  75
    RHS1      RAMPUP_G12_T35  67
    RHS1      RAMPDN_G12_T35  67
    RHS1      RAMPUP_G13_T35  86
    RHS1      RAMPDN_G13_T35  86
    RHS1      RAMPUP_G14_T35  89
    RHS1      RAMPDN_G14_T35  89
    RHS1      RAMPUP_G15_T35  96
    RHS1      RAMPDN_G15_T35  96
    RHS1      RAMPUP_G16_T35  61
    RHS1      RAMPDN_G16_T35  61
    RHS1      RAMPUP_G17_T35  77
    RHS1      RAMPDN_G17_T35  77
    RHS1      RAMPUP_G18_T35  64
    RHS1      RAMPDN_G18_T35  64
    RHS1      RAMPUP_G19_T35  47
    RHS1      RAMPDN_G19_T35  47
    RHS1      DEMAND_T36  1500
    RHS1      RESERVE_T36  1725
    RHS1      RAMPUP_G0_T36  94
    RHS1      RAMPDN_G0_T36  94
    RHS1      RAMPUP_G1_T36  63
    RHS1      RAMPDN_G1_T36  63
    RHS1      RAMPUP_G2_T36  90
    RHS1      RAMPDN_G2_T36  90
    RHS1      RAMPUP_G3_T36  44
    RHS1      RAMPDN_G3_T36  44
    RHS1      RAMPUP_G4_T36  49
    RHS1      RAMPDN_G4_T36  49
    RHS1      RAMPUP_G5_T36  47
    RHS1      RAMPDN_G5_T36  47
    RHS1      RAMPUP_G6_T36  43
    RHS1      RAMPDN_G6_T36  43
    RHS1      RAMPUP_G7_T36  41
    RHS1      RAMPDN_G7_T36  41
    RHS1      RAMPUP_G8_T36  53
    RHS1      RAMPDN_G8_T36  53
    RHS1      RAMPUP_G9_T36  65
    RHS1      RAMPDN_G9_T36  65
    RHS1      RAMPUP_G10_T36  69
    RHS1      RAMPDN_G10_T36  69
    RHS1      RAMPUP_G11_T36  75
    RHS1      RAMPDN_G11_T36  75
    RHS1      RAMPUP_G12_T36  67
    RHS1      RAMPDN_G12_T36  67
    RHS1      RAMPUP_G13_T36  86
    RHS1      RAMPDN_G13_T36  86
    RHS1      RAMPUP_G14_T36  89
    RHS1      RAMPDN_G14_T36  89
    RHS1      RAMPUP_G15_T36  96
    RHS1      RAMPDN_G15_T36  96
    RHS1      RAMPUP_G16_T36  61
    RHS1      RAMPDN_G16_T36  61
    RHS1      RAMPUP_G17_T36  77
    RHS1      RAMPDN_G17_T36  77
    RHS1      RAMPUP_G18_T36  64
    RHS1      RAMPDN_G18_T36  64
    RHS1      RAMPUP_G19_T36  47
    RHS1      RAMPDN_G19_T36  47
    RHS1      DEMAND_T37  1364
    RHS1      RESERVE_T37  1569
    RHS1      RAMPUP_G0_T37  94
    RHS1      RAMPDN_G0_T37  94
    RHS1      RAMPUP_G1_T37  63
    RHS1      RAMPDN_G1_T37  63
    RHS1      RAMPUP_G2_T37  90
    RHS1      RAMPDN_G2_T37  90
    RHS1      RAMPUP_G3_T37  44
    RHS1      RAMPDN_G3_T37  44
    RHS1      RAMPUP_G4_T37  49
    RHS1      RAMPDN_G4_T37  49
    RHS1      RAMPUP_G5_T37  47
    RHS1      RAMPDN_G5_T37  47
    RHS1      RAMPUP_G6_T37  43
    RHS1      RAMPDN_G6_T37  43
    RHS1      RAMPUP_G7_T37  41
    RHS1      RAMPDN_G7_T37  41
    RHS1      RAMPUP_G8_T37  53
    RHS1      RAMPDN_G8_T37  53
    RHS1      RAMPUP_G9_T37  65
    RHS1      RAMPDN_G9_T37  65
    RHS1      RAMPUP_G10_T37  69
    RHS1      RAMPDN_G10_T37  69
    RHS1      RAMPUP_G11_T37  75
    RHS1      RAMPDN_G11_T37  75
    RHS1      RAMPUP_G12_T37  67
    RHS1      RAMPDN_G12_T37  67
    RHS1      RAMPUP_G13_T37  86
    RHS1      RAMPDN_G13_T37  86
    RHS1      RAMPUP_G14_T37  89
    RHS1      RAMPDN_G14_T37  89
    RHS1      RAMPUP_G15_T37  96
    RHS1      RAMPDN_G15_T37  96
    RHS1      RAMPUP_G16_T37  61
    RHS1      RAMPDN_G16_T37  61
    RHS1      RAMPUP_G17_T37  77
    RHS1      RAMPDN_G17_T37  77
    RHS1      RAMPUP_G18_T37  64
    RHS1      RAMPDN_G18_T37  64
    RHS1      RAMPUP_G19_T37  47
    RHS1      RAMPDN_G19_T37  47
    RHS1      DEMAND_T38  1238
    RHS1      RESERVE_T38  1424
    RHS1      RAMPUP_G0_T38  94
    RHS1      RAMPDN_G0_T38  94
    RHS1      RAMPUP_G1_T38  63
    RHS1      RAMPDN_G1_T38  63
    RHS1      RAMPUP_G2_T38  90
    RHS1      RAMPDN_G2_T38  90
    RHS1      RAMPUP_G3_T38  44
    RHS1      RAMPDN_G3_T38  44
    RHS1      RAMPUP_G4_T38  49
    RHS1      RAMPDN_G4_T38  49
    RHS1      RAMPUP_G5_T38  47
    RHS1      RAMPDN_G5_T38  47
    RHS1      RAMPUP_G6_T38  43
    RHS1      RAMPDN_G6_T38  43
    RHS1      RAMPUP_G7_T38  41
    RHS1      RAMPDN_G7_T38  41
    RHS1      RAMPUP_G8_T38  53
    RHS1      RAMPDN_G8_T38  53
    RHS1      RAMPUP_G9_T38  65
    RHS1      RAMPDN_G9_T38  65
    RHS1      RAMPUP_G10_T38  69
    RHS1      RAMPDN_G10_T38  69
    RHS1      RAMPUP_G11_T38  75
    RHS1      RAMPDN_G11_T38  75
    RHS1      RAMPUP_G12_T38  67
    RHS1      RAMPDN_G12_T38  67
    RHS1      RAMPUP_G13_T38  86
    RHS1      RAMPDN_G13_T38  86
    RHS1      RAMPUP_G14_T38  89
    RHS1      RAMPDN_G14_T38  89
    RHS1      RAMPUP_G15_T38  96
    RHS1      RAMPDN_G15_T38  96
    RHS1      RAMPUP_G16_T38  61
    RHS1      RAMPDN_G16_T38  61
    RHS1      RAMPUP_G17_T38  77
    RHS1      RAMPDN_G17_T38  77
    RHS1      RAMPUP_G18_T38  64
    RHS1      RAMPDN_G18_T38  64
    RHS1      RAMPUP_G19_T38  47
    RHS1      RAMPDN_G19_T38  47
    RHS1      DEMAND_T39  1129
    RHS1      RESERVE_T39  1298
    RHS1      RAMPUP_G0_T39  94
    RHS1      RAMPDN_G0_T39  94
    RHS1      RAMPUP_G1_T39  63
    RHS1      RAMPDN_G1_T39  63
    RHS1      RAMPUP_G2_T39  90
    RHS1      RAMPDN_G2_T39  90
    RHS1      RAMPUP_G3_T39  44
    RHS1      RAMPDN_G3_T39  44
    RHS1      RAMPUP_G4_T39  49
    RHS1      RAMPDN_G4_T39  49
    RHS1      RAMPUP_G5_T39  47
    RHS1      RAMPDN_G5_T39  47
    RHS1      RAMPUP_G6_T39  43
    RHS1      RAMPDN_G6_T39  43
    RHS1      RAMPUP_G7_T39  41
    RHS1      RAMPDN_G7_T39  41
    RHS1      RAMPUP_G8_T39  53
    RHS1      RAMPDN_G8_T39  53
    RHS1      RAMPUP_G9_T39  65
    RHS1      RAMPDN_G9_T39  65
    RHS1      RAMPUP_G10_T39  69
    RHS1      RAMPDN_G10_T39  69
    RHS1      RAMPUP_G11_T39  75
    RHS1      RAMPDN_G11_T39  75
    RHS1      RAMPUP_G12_T39  67
    RHS1      RAMPDN_G12_T39  67
    RHS1      RAMPUP_G13_T39  86
    RHS1      RAMPDN_G13_T39  86
    RHS1      RAMPUP_G14_T39  89
    RHS1      RAMPDN_G14_T39  89
    RHS1      RAMPUP_G15_T39  96
    RHS1      RAMPDN_G15_T39  96
    RHS1      RAMPUP_G16_T39  61
    RHS1      RAMPDN_G16_T39  61
    RHS1      RAMPUP_G17_T39  77
    RHS1      RAMPDN_G17_T39  77
    RHS1      RAMPUP_G18_T39  64
    RHS1      RAMPDN_G18_T39  64
    RHS1      RAMPUP_G19_T39  47
    RHS1      RAMPDN_G19_T39  47
    RHS1      DEMAND_T40  1045
    RHS1      RESERVE_T40  1202
    RHS1      RAMPUP_G0_T40  94
    RHS1      RAMPDN_G0_T40  94
    RHS1      RAMPUP_G1_T40  63
    RHS1      RAMPDN_G1_T40  63
    RHS1      RAMPUP_G2_T40  90
    RHS1      RAMPDN_G2_T40  90
    RHS1      RAMPUP_G3_T40  44
    RHS1      RAMPDN_G3_T40  44
    RHS1      RAMPUP_G4_T40  49
    RHS1      RAMPDN_G4_T40  49
    RHS1      RAMPUP_G5_T40  47
    RHS1      RAMPDN_G5_T40  47
    RHS1      RAMPUP_G6_T40  43
    RHS1      RAMPDN_G6_T40  43
    RHS1      RAMPUP_G7_T40  41
    RHS1      RAMPDN_G7_T40  41
    RHS1      RAMPUP_G8_T40  53
    RHS1      RAMPDN_G8_T40  53
    RHS1      RAMPUP_G9_T40  65
    RHS1      RAMPDN_G9_T40  65
    RHS1      RAMPUP_G10_T40  69
    RHS1      RAMPDN_G10_T40  69
    RHS1      RAMPUP_G11_T40  75
    RHS1      RAMPDN_G11_T40  75
    RHS1      RAMPUP_G12_T40  67
    RHS1      RAMPDN_G12_T40  67
    RHS1      RAMPUP_G13_T40  86
    RHS1      RAMPDN_G13_T40  86
    RHS1      RAMPUP_G14_T40  89
    RHS1      RAMPDN_G14_T40  89
    RHS1      RAMPUP_G15_T40  96
    RHS1      RAMPDN_G15_T40  96
    RHS1      RAMPUP_G16_T40  61
    RHS1      RAMPDN_G16_T40  61
    RHS1      RAMPUP_G17_T40  77
    RHS1      RAMPDN_G17_T40  77
    RHS1      RAMPUP_G18_T40  64
    RHS1      RAMPDN_G18_T40  64
    RHS1      RAMPUP_G19_T40  47
    RHS1      RAMPDN_G19_T40  47
    RHS1      DEMAND_T41  993
    RHS1      RESERVE_T41  1142
    RHS1      RAMPUP_G0_T41  94
    RHS1      RAMPDN_G0_T41  94
    RHS1      RAMPUP_G1_T41  63
    RHS1      RAMPDN_G1_T41  63
    RHS1      RAMPUP_G2_T41  90
    RHS1      RAMPDN_G2_T41  90
    RHS1      RAMPUP_G3_T41  44
    RHS1      RAMPDN_G3_T41  44
    RHS1      RAMPUP_G4_T41  49
    RHS1      RAMPDN_G4_T41  49
    RHS1      RAMPUP_G5_T41  47
    RHS1      RAMPDN_G5_T41  47
    RHS1      RAMPUP_G6_T41  43
    RHS1      RAMPDN_G6_T41  43
    RHS1      RAMPUP_G7_T41  41
    RHS1      RAMPDN_G7_T41  41
    RHS1      RAMPUP_G8_T41  53
    RHS1      RAMPDN_G8_T41  53
    RHS1      RAMPUP_G9_T41  65
    RHS1      RAMPDN_G9_T41  65
    RHS1      RAMPUP_G10_T41  69
    RHS1      RAMPDN_G10_T41  69
    RHS1      RAMPUP_G11_T41  75
    RHS1      RAMPDN_G11_T41  75
    RHS1      RAMPUP_G12_T41  67
    RHS1      RAMPDN_G12_T41  67
    RHS1      RAMPUP_G13_T41  86
    RHS1      RAMPDN_G13_T41  86
    RHS1      RAMPUP_G14_T41  89
    RHS1      RAMPDN_G14_T41  89
    RHS1      RAMPUP_G15_T41  96
    RHS1      RAMPDN_G15_T41  96
    RHS1      RAMPUP_G16_T41  61
    RHS1      RAMPDN_G16_T41  61
    RHS1      RAMPUP_G17_T41  77
    RHS1      RAMPDN_G17_T41  77
    RHS1      RAMPUP_G18_T41  64
    RHS1      RAMPDN_G18_T41  64
    RHS1      RAMPUP_G19_T41  47
    RHS1      RAMPDN_G19_T41  47
    RHS1      DEMAND_T42  975
    RHS1      RESERVE_T42  1121
    RHS1      RAMPUP_G0_T42  94
    RHS1      RAMPDN_G0_T42  94
    RHS1      RAMPUP_G1_T42  63
    RHS1      RAMPDN_G1_T42  63
    RHS1      RAMPUP_G2_T42  90
    RHS1      RAMPDN_G2_T42  90
    RHS1      RAMPUP_G3_T42  44
    RHS1      RAMPDN_G3_T42  44
    RHS1      RAMPUP_G4_T42  49
    RHS1      RAMPDN_G4_T42  49
    RHS1      RAMPUP_G5_T42  47
    RHS1      RAMPDN_G5_T42  47
    RHS1      RAMPUP_G6_T42  43
    RHS1      RAMPDN_G6_T42  43
    RHS1      RAMPUP_G7_T42  41
    RHS1      RAMPDN_G7_T42  41
    RHS1      RAMPUP_G8_T42  53
    RHS1      RAMPDN_G8_T42  53
    RHS1      RAMPUP_G9_T42  65
    RHS1      RAMPDN_G9_T42  65
    RHS1      RAMPUP_G10_T42  69
    RHS1      RAMPDN_G10_T42  69
    RHS1      RAMPUP_G11_T42  75
    RHS1      RAMPDN_G11_T42  75
    RHS1      RAMPUP_G12_T42  67
    RHS1      RAMPDN_G12_T42  67
    RHS1      RAMPUP_G13_T42  86
    RHS1      RAMPDN_G13_T42  86
    RHS1      RAMPUP_G14_T42  89
    RHS1      RAMPDN_G14_T42  89
    RHS1      RAMPUP_G15_T42  96
    RHS1      RAMPDN_G15_T42  96
    RHS1      RAMPUP_G16_T42  61
    RHS1      RAMPDN_G16_T42  61
    RHS1      RAMPUP_G17_T42  77
    RHS1      RAMPDN_G17_T42  77
    RHS1      RAMPUP_G18_T42  64
    RHS1      RAMPDN_G18_T42  64
    RHS1      RAMPUP_G19_T42  47
    RHS1      RAMPDN_G19_T42  47
    RHS1      DEMAND_T43  993
    RHS1      RESERVE_T43  1142
    RHS1      RAMPUP_G0_T43  94
    RHS1      RAMPDN_G0_T43  94
    RHS1      RAMPUP_G1_T43  63
    RHS1      RAMPDN_G1_T43  63
    RHS1      RAMPUP_G2_T43  90
    RHS1      RAMPDN_G2_T43  90
    RHS1      RAMPUP_G3_T43  44
    RHS1      RAMPDN_G3_T43  44
    RHS1      RAMPUP_G4_T43  49
    RHS1      RAMPDN_G4_T43  49
    RHS1      RAMPUP_G5_T43  47
    RHS1      RAMPDN_G5_T43  47
    RHS1      RAMPUP_G6_T43  43
    RHS1      RAMPDN_G6_T43  43
    RHS1      RAMPUP_G7_T43  41
    RHS1      RAMPDN_G7_T43  41
    RHS1      RAMPUP_G8_T43  53
    RHS1      RAMPDN_G8_T43  53
    RHS1      RAMPUP_G9_T43  65
    RHS1      RAMPDN_G9_T43  65
    RHS1      RAMPUP_G10_T43  69
    RHS1      RAMPDN_G10_T43  69
    RHS1      RAMPUP_G11_T43  75
    RHS1      RAMPDN_G11_T43  75
    RHS1      RAMPUP_G12_T43  67
    RHS1      RAMPDN_G12_T43  67
    RHS1      RAMPUP_G13_T43  86
    RHS1      RAMPDN_G13_T43  86
    RHS1      RAMPUP_G14_T43  89
    RHS1      RAMPDN_G14_T43  89
    RHS1      RAMPUP_G15_T43  96
    RHS1      RAMPDN_G15_T43  96
    RHS1      RAMPUP_G16_T43  61
    RHS1      RAMPDN_G16_T43  61
    RHS1      RAMPUP_G17_T43  77
    RHS1      RAMPDN_G17_T43  77
    RHS1      RAMPUP_G18_T43  64
    RHS1      RAMPDN_G18_T43  64
    RHS1      RAMPUP_G19_T43  47
    RHS1      RAMPDN_G19_T43  47
    RHS1      DEMAND_T44  1045
    RHS1      RESERVE_T44  1202
    RHS1      RAMPUP_G0_T44  94
    RHS1      RAMPDN_G0_T44  94
    RHS1      RAMPUP_G1_T44  63
    RHS1      RAMPDN_G1_T44  63
    RHS1      RAMPUP_G2_T44  90
    RHS1      RAMPDN_G2_T44  90
    RHS1      RAMPUP_G3_T44  44
    RHS1      RAMPDN_G3_T44  44
    RHS1      RAMPUP_G4_T44  49
    RHS1      RAMPDN_G4_T44  49
    RHS1      RAMPUP_G5_T44  47
    RHS1      RAMPDN_G5_T44  47
    RHS1      RAMPUP_G6_T44  43
    RHS1      RAMPDN_G6_T44  43
    RHS1      RAMPUP_G7_T44  41
    RHS1      RAMPDN_G7_T44  41
    RHS1      RAMPUP_G8_T44  53
    RHS1      RAMPDN_G8_T44  53
    RHS1      RAMPUP_G9_T44  65
    RHS1      RAMPDN_G9_T44  65
    RHS1      RAMPUP_G10_T44  69
    RHS1      RAMPDN_G10_T44  69
    RHS1      RAMPUP_G11_T44  75
    RHS1      RAMPDN_G11_T44  75
    RHS1      RAMPUP_G12_T44  67
    RHS1      RAMPDN_G12_T44  67
    RHS1      RAMPUP_G13_T44  86
    RHS1      RAMPDN_G13_T44  86
    RHS1      RAMPUP_G14_T44  89
    RHS1      RAMPDN_G14_T44  89
    RHS1      RAMPUP_G15_T44  96
    RHS1      RAMPDN_G15_T44  96
    RHS1      RAMPUP_G16_T44  61
    RHS1      RAMPDN_G16_T44  61
    RHS1      RAMPUP_G17_T44  77
    RHS1      RAMPDN_G17_T44  77
    RHS1      RAMPUP_G18_T44  64
    RHS1      RAMPDN_G18_T44  64
    RHS1      RAMPUP_G19_T44  47
    RHS1      RAMPDN_G19_T44  47
    RHS1      DEMAND_T45  1129
    RHS1      RESERVE_T45  1298
    RHS1      RAMPUP_G0_T45  94
    RHS1      RAMPDN_G0_T45  94
    RHS1      RAMPUP_G1_T45  63
    RHS1      RAMPDN_G1_T45  63
    RHS1      RAMPUP_G2_T45  90
    RHS1      RAMPDN_G2_T45  90
    RHS1      RAMPUP_G3_T45  44
    RHS1      RAMPDN_G3_T45  44
    RHS1      RAMPUP_G4_T45  49
    RHS1      RAMPDN_G4_T45  49
    RHS1      RAMPUP_G5_T45  47
    RHS1      RAMPDN_G5_T45  47
    RHS1      RAMPUP_G6_T45  43
    RHS1      RAMPDN_G6_T45  43
    RHS1      RAMPUP_G7_T45  41
    RHS1      RAMPDN_G7_T45  41
    RHS1      RAMPUP_G8_T45  53
    RHS1      RAMPDN_G8_T45  53
    RHS1      RAMPUP_G9_T45  65
    RHS1      RAMPDN_G9_T45  65
    RHS1      RAMPUP_G10_T45  69
    RHS1      RAMPDN_G10_T45  69
    RHS1      RAMPUP_G11_T45  75
    RHS1      RAMPDN_G11_T45  75
    RHS1      RAMPUP_G12_T45  67
    RHS1      RAMPDN_G12_T45  67
    RHS1      RAMPUP_G13_T45  86
    RHS1      RAMPDN_G13_T45  86
    RHS1      RAMPUP_G14_T45  89
    RHS1      RAMPDN_G14_T45  89
    RHS1      RAMPUP_G15_T45  96
    RHS1      RAMPDN_G15_T45  96
    RHS1      RAMPUP_G16_T45  61
    RHS1      RAMPDN_G16_T45  61
    RHS1      RAMPUP_G17_T45  77
    RHS1      RAMPDN_G17_T45  77
    RHS1      RAMPUP_G18_T45  64
    RHS1      RAMPDN_G18_T45  64
    RHS1      RAMPUP_G19_T45  47
    RHS1      RAMPDN_G19_T45  47
    RHS1      DEMAND_T46  1237
    RHS1      RESERVE_T46  1423
    RHS1      RAMPUP_G0_T46  94
    RHS1      RAMPDN_G0_T46  94
    RHS1      RAMPUP_G1_T46  63
    RHS1      RAMPDN_G1_T46  63
    RHS1      RAMPUP_G2_T46  90
    RHS1      RAMPDN_G2_T46  90
    RHS1      RAMPUP_G3_T46  44
    RHS1      RAMPDN_G3_T46  44
    RHS1      RAMPUP_G4_T46  49
    RHS1      RAMPDN_G4_T46  49
    RHS1      RAMPUP_G5_T46  47
    RHS1      RAMPDN_G5_T46  47
    RHS1      RAMPUP_G6_T46  43
    RHS1      RAMPDN_G6_T46  43
    RHS1      RAMPUP_G7_T46  41
    RHS1      RAMPDN_G7_T46  41
    RHS1      RAMPUP_G8_T46  53
    RHS1      RAMPDN_G8_T46  53
    RHS1      RAMPUP_G9_T46  65
    RHS1      RAMPDN_G9_T46  65
    RHS1      RAMPUP_G10_T46  69
    RHS1      RAMPDN_G10_T46  69
    RHS1      RAMPUP_G11_T46  75
    RHS1      RAMPDN_G11_T46  75
    RHS1      RAMPUP_G12_T46  67
    RHS1      RAMPDN_G12_T46  67
    RHS1      RAMPUP_G13_T46  86
    RHS1      RAMPDN_G13_T46  86
    RHS1      RAMPUP_G14_T46  89
    RHS1      RAMPDN_G14_T46  89
    RHS1      RAMPUP_G15_T46  96
    RHS1      RAMPDN_G15_T46  96
    RHS1      RAMPUP_G16_T46  61
    RHS1      RAMPDN_G16_T46  61
    RHS1      RAMPUP_G17_T46  77
    RHS1      RAMPDN_G17_T46  77
    RHS1      RAMPUP_G18_T46  64
    RHS1      RAMPDN_G18_T46  64
    RHS1      RAMPUP_G19_T46  47
    RHS1      RAMPDN_G19_T46  47
    RHS1      DEMAND_T47  1364
    RHS1      RESERVE_T47  1569
    RHS1      RAMPUP_G0_T47  94
    RHS1      RAMPDN_G0_T47  94
    RHS1      RAMPUP_G1_T47  63
    RHS1      RAMPDN_G1_T47  63
    RHS1      RAMPUP_G2_T47  90
    RHS1      RAMPDN_G2_T47  90
    RHS1      RAMPUP_G3_T47  44
    RHS1      RAMPDN_G3_T47  44
    RHS1      RAMPUP_G4_T47  49
    RHS1      RAMPDN_G4_T47  49
    RHS1      RAMPUP_G5_T47  47
    RHS1      RAMPDN_G5_T47  47
    RHS1      RAMPUP_G6_T47  43
    RHS1      RAMPDN_G6_T47  43
    RHS1      RAMPUP_G7_T47  41
    RHS1      RAMPDN_G7_T47  41
    RHS1      RAMPUP_G8_T47  53
    RHS1      RAMPDN_G8_T47  53
    RHS1      RAMPUP_G9_T47  65
    RHS1      RAMPDN_G9_T47  65
    RHS1      RAMPUP_G10_T47  69
    RHS1      RAMPDN_G10_T47  69
    RHS1      RAMPUP_G11_T47  75
    RHS1      RAMPDN_G11_T47  75
    RHS1      RAMPUP_G12_T47  67
    RHS1      RAMPDN_G12_T47  67
    RHS1      RAMPUP_G13_T47  86
    RHS1      RAMPDN_G13_T47  86
    RHS1      RAMPUP_G14_T47  89
    RHS1      RAMPDN_G14_T47  89
    RHS1      RAMPUP_G15_T47  96
    RHS1      RAMPDN_G15_T47  96
    RHS1      RAMPUP_G16_T47  61
    RHS1      RAMPDN_G16_T47  61
    RHS1      RAMPUP_G17_T47  77
    RHS1      RAMPDN_G17_T47  77
    RHS1      RAMPUP_G18_T47  64
    RHS1      RAMPDN_G18_T47  64
    RHS1      RAMPUP_G19_T47  47
    RHS1      RAMPDN_G19_T47  47
BOUNDS
 BV BND1      U_G0_T0
 BV BND1      U_G1_T0
 BV BND1      U_G2_T0
 BV BND1      U_G3_T0
 BV BND1      U_G4_T0
 BV BND1      U_G5_T0
 BV BND1      U_G6_T0
 BV BND1      U_G7_T0
 BV BND1      U_G8_T0
 BV BND1      U_G9_T0
 BV BND1      U_G10_T0
 BV BND1      U_G11_T0
 BV BND1      U_G12_T0
 BV BND1      U_G13_T0
 BV BND1      U_G14_T0
 BV BND1      U_G15_T0
 BV BND1      U_G16_T0
 BV BND1      U_G17_T0
 BV BND1      U_G18_T0
 BV BND1      U_G19_T0
 UP BND1      P_G0_T0   235
 UP BND1      P_G1_T0   223
 UP BND1      P_G2_T0   214
 UP BND1      P_G3_T0   256
 UP BND1      P_G4_T0   147
 UP BND1      P_G5_T0   215
 UP BND1      P_G6_T0   178
 UP BND1      P_G7_T0   254
 UP BND1      P_G8_T0   203
 UP BND1      P_G9_T0   209
 UP BND1      P_G10_T0  136
 UP BND1      P_G11_T0  299
 UP BND1      P_G12_T0  206
 UP BND1      P_G13_T0  173
 UP BND1      P_G14_T0  243
 UP BND1      P_G15_T0  237
 UP BND1      P_G16_T0  174
 UP BND1      P_G17_T0  232
 UP BND1      P_G18_T0  186
 UP BND1      P_G19_T0  253
 BV BND1      U_G0_T1
 BV BND1      U_G1_T1
 BV BND1      U_G2_T1
 BV BND1      U_G3_T1
 BV BND1      U_G4_T1
 BV BND1      U_G5_T1
 BV BND1      U_G6_T1
 BV BND1      U_G7_T1
 BV BND1      U_G8_T1
 BV BND1      U_G9_T1
 BV BND1      U_G10_T1
 BV BND1      U_G11_T1
 BV BND1      U_G12_T1
 BV BND1      U_G13_T1
 BV BND1      U_G14_T1
 BV BND1      U_G15_T1
 BV BND1      U_G16_T1
 BV BND1      U_G17_T1
 BV BND1      U_G18_T1
 BV BND1      U_G19_T1
 UP BND1      P_G0_T1   235
 UP BND1      P_G1_T1   223
 UP BND1      P_G2_T1   214
 UP BND1      P_G3_T1   256
 UP BND1      P_G4_T1   147
 UP BND1      P_G5_T1   215
 UP BND1      P_G6_T1   178
 UP BND1      P_G7_T1   254
 UP BND1      P_G8_T1   203
 UP BND1      P_G9_T1   209
 UP BND1      P_G10_T1  136
 UP BND1      P_G11_T1  299
 UP BND1      P_G12_T1  206
 UP BND1      P_G13_T1  173
 UP BND1      P_G14_T1  243
 UP BND1      P_G15_T1  237
 UP BND1      P_G16_T1  174
 UP BND1      P_G17_T1  232
 UP BND1      P_G18_T1  186
 UP BND1      P_G19_T1  253
 BV BND1      U_G0_T2
 BV BND1      U_G1_T2
 BV BND1      U_G2_T2
 BV BND1      U_G3_T2
 BV BND1      U_G4_T2
 BV BND1      U_G5_T2
 BV BND1      U_G6_T2
 BV BND1      U_G7_T2
 BV BND1      U_G8_T2
 BV BND1      U_G9_T2
 BV BND1      U_G10_T2
 BV BND1      U_G11_T2
 BV BND1      U_G12_T2
 BV BND1      U_G13_T2
 BV BND1      U_G14_T2
 BV BND1      U_G15_T2
 BV BND1      U_G16_T2
 BV BND1      U_G17_T2
 BV BND1      U_G18_T2
 BV BND1      U_G19_T2
 UP BND1      P_G0_T2   235
 UP BND1      P_G1_T2   223
 UP BND1      P_G2_T2   214
 UP BND1      P_G3_T2   256
 UP BND1      P_G4_T2   147
 UP BND1      P_G5_T2   215
 UP BND1      P_G6_T2   178
 UP BND1      P_G7_T2   254
 UP BND1      P_G8_T2   203
 UP BND1      P_G9_T2   209
 UP BND1      P_G10_T2  136
 UP BND1      P_G11_T2  299
 UP BND1      P_G12_T2  206
 UP BND1      P_G13_T2  173
 UP BND1      P_G14_T2  243
 UP BND1      P_G15_T2  237
 UP BND1      P_G16_T2  174
 UP BND1      P_G17_T2  232
 UP BND1      P_G18_T2  186
 UP BND1      P_G19_T2  253
 BV BND1      U_G0_T3
 BV BND1      U_G1_T3
 BV BND1      U_G2_T3
 BV BND1      U_G3_T3
 BV BND1      U_G4_T3
 BV BND1      U_G5_T3
 BV BND1      U_G6_T3
 BV BND1      U_G7_T3
 BV BND1      U_G8_T3
 BV BND1      U_G9_T3
 BV BND1      U_G10_T3
 BV BND1      U_G11_T3
 BV BND1      U_G12_T3
 BV BND1      U_G13_T3
 BV BND1      U_G14_T3
 BV BND1      U_G15_T3
 BV BND1      U_G16_T3
 BV BND1      U_G17_T3
 BV BND1      U_G18_T3
 BV BND1      U_G19_T3
 UP BND1      P_G0_T3   235
 UP BND1      P_G1_T3   223
 UP BND1      P_G2_T3   214
 UP BND1      P_G3_T3   256
 UP BND1      P_G4_T3   147
 UP BND1      P_G5_T3   215
 UP BND1      P_G6_T3   178
 UP BND1      P_G7_T3   254
 UP BND1      P_G8_T3   203
 UP BND1      P_G9_T3   209
 UP BND1      P_G10_T3  136
 UP BND1      P_G11_T3  299
 UP BND1      P_G12_T3  206
 UP BND1      P_G13_T3  173
 UP BND1      P_G14_T3  243
 UP BND1      P_G15_T3  237
 UP BND1      P_G16_T3  174
 UP BND1      P_G17_T3  232
 UP BND1      P_G18_T3  186
 UP BND1      P_G19_T3  253
 BV BND1      U_G0_T4
 BV BND1      U_G1_T4
 BV BND1      U_G2_T4
 BV BND1      U_G3_T4
 BV BND1      U_G4_T4
 BV BND1      U_G5_T4
 BV BND1      U_G6_T4
 BV BND1      U_G7_T4
 BV BND1      U_G8_T4
 BV BND1      U_G9_T4
 BV BND1      U_G10_T4
 BV BND1      U_G11_T4
 BV BND1      U_G12_T4
 BV BND1      U_G13_T4
 BV BND1      U_G14_T4
 BV BND1      U_G15_T4
 BV BND1      U_G16_T4
 BV BND1      U_G17_T4
 BV BND1      U_G18_T4
 BV BND1      U_G19_T4
 UP BND1      P_G0_T4   235
 UP BND1      P_G1_T4   223
 UP BND1      P_G2_T4   214
 UP BND1      P_G3_T4   256
 UP BND1      P_G4_T4   147
 UP BND1      P_G5_T4   215
 UP BND1      P_G6_T4   178
 UP BND1      P_G7_T4   254
 UP BND1      P_G8_T4   203
 UP BND1      P_G9_T4   209
 UP BND1      P_G10_T4  136
 UP BND1      P_G11_T4  299
 UP BND1      P_G12_T4  206
 UP BND1      P_G13_T4  173
 UP BND1      P_G14_T4  243
 UP BND1      P_G15_T4  237
 UP BND1      P_G16_T4  174
 UP BND1      P_G17_T4  232
 UP BND1      P_G18_T4  186
 UP BND1      P_G19_T4  253
 BV BND1      U_G0_T5
 BV BND1      U_G1_T5
 BV BND1      U_G2_T5
 BV BND1      U_G3_T5
 BV BND1      U_G4_T5
 BV BND1      U_G5_T5
 BV BND1      U_G6_T5
 BV BND1      U_G7_T5
 BV BND1      U_G8_T5
 BV BND1      U_G9_T5
 BV BND1      U_G10_T5
 BV BND1      U_G11_T5
 BV BND1      U_G12_T5
 BV BND1      U_G13_T5
 BV BND1      U_G14_T5
 BV BND1      U_G15_T5
 BV BND1      U_G16_T5
 BV BND1      U_G17_T5
 BV BND1      U_G18_T5
 BV BND1      U_G19_T5
 UP BND1      P_G0_T5   235
 UP BND1      P_G1_T5   223
 UP BND1      P_G2_T5   214
 UP BND1      P_G3_T5   256
 UP BND1      P_G4_T5   147
 UP BND1      P_G5_T5   215
 UP BND1      P_G6_T5   178
 UP BND1      P_G7_T5   254
 UP BND1      P_G8_T5   203
 UP BND1      P_G9_T5   209
 UP BND1      P_G10_T5  136
 UP BND1      P_G11_T5  299
 UP BND1      P_G12_T5  206
 UP BND1      P_G13_T5  173
 UP BND1      P_G14_T5  243
 UP BND1      P_G15_T5  237
 UP BND1      P_G16_T5  174
 UP BND1      P_G17_T5  232
 UP BND1      P_G18_T5  186
 UP BND1      P_G19_T5  253
 BV BND1      U_G0_T6
 BV BND1      U_G1_T6
 BV BND1      U_G2_T6
 BV BND1      U_G3_T6
 BV BND1      U_G4_T6
 BV BND1      U_G5_T6
 BV BND1      U_G6_T6
 BV BND1      U_G7_T6
 BV BND1      U_G8_T6
 BV BND1      U_G9_T6
 BV BND1      U_G10_T6
 BV BND1      U_G11_T6
 BV BND1      U_G12_T6
 BV BND1      U_G13_T6
 BV BND1      U_G14_T6
 BV BND1      U_G15_T6
 BV BND1      U_G16_T6
 BV BND1      U_G17_T6
 BV BND1      U_G18_T6
 BV BND1      U_G19_T6
 UP BND1      P_G0_T6   235
 UP BND1      P_G1_T6   223
 UP BND1      P_G2_T6   214
 UP BND1      P_G3_T6   256
 UP BND1      P_G4_T6   147
 UP BND1      P_G5_T6   215
 UP BND1      P_G6_T6   178
 UP BND1      P_G7_T6   254
 UP BND1      P_G8_T6   203
 UP BND1      P_G9_T6   209
 UP BND1      P_G10_T6  136
 UP BND1      P_G11_T6  299
 UP BND1      P_G12_T6  206
 UP BND1      P_G13_T6  173
 UP BND1      P_G14_T6  243
 UP BND1      P_G15_T6  237
 UP BND1      P_G16_T6  174
 UP BND1      P_G17_T6  232
 UP BND1      P_G18_T6  186
 UP BND1      P_G19_T6  253
 BV BND1      U_G0_T7
 BV BND1      U_G1_T7
 BV BND1      U_G2_T7
 BV BND1      U_G3_T7
 BV BND1      U_G4_T7
 BV BND1      U_G5_T7
 BV BND1      U_G6_T7
 BV BND1      U_G7_T7
 BV BND1      U_G8_T7
 BV BND1      U_G9_T7
 BV BND1      U_G10_T7
 BV BND1      U_G11_T7
 BV BND1      U_G12_T7
 BV BND1      U_G13_T7
 BV BND1      U_G14_T7
 BV BND1      U_G15_T7
 BV BND1      U_G16_T7
 BV BND1      U_G17_T7
 BV BND1      U_G18_T7
 BV BND1      U_G19_T7
 UP BND1      P_G0_T7   235
 UP BND1      P_G1_T7   223
 UP BND1      P_G2_T7   214
 UP BND1      P_G3_T7   256
 UP BND1      P_G4_T7   147
 UP BND1      P_G5_T7   215
 UP BND1      P_G6_T7   178
 UP BND1      P_G7_T7   254
 UP BND1      P_G8_T7   203
 UP BND1      P_G9_T7   209
 UP BND1      P_G10_T7  136
 UP BND1      P_G11_T7  299
 UP BND1      P_G12_T7  206
 UP BND1      P_G13_T7  173
 UP BND1      P_G14_T7  243
 UP BND1      P_G15_T7  237
 UP BND1      P_G16_T7  174
 UP BND1      P_G17_T7  232
 UP BND1      P_G18_T7  186
 UP BND1      P_G19_T7  253
 BV BND1      U_G0_T8
 BV BND1      U_G1_T8
 BV BND1      U_G2_T8
 BV BND1      U_G3_T8
 BV BND1      U_G4_T8
 BV BND1      U_G5_T8
 BV BND1      U_G6_T8
 BV BND1      U_G7_T8
 BV BND1      U_G8_T8
 BV BND1      U_G9_T8
 BV BND1      U_G10_T8
 BV BND1      U_G11_T8
 BV BND1      U_G12_T8
 BV BND1      U_G13_T8
 BV BND1      U_G14_T8
 BV BND1      U_G15_T8
 BV BND1      U_G16_T8
 BV BND1      U_G17_T8
 BV BND1      U_G18_T8
 BV BND1      U_G19_T8
 UP BND1      P_G0_T8   235
 UP BND1      P_G1_T8   223
 UP BND1      P_G2_T8   214
 UP BND1      P_G3_T8   256
 UP BND1      P_G4_T8   147
 UP BND1      P_G5_T8   215
 UP BND1      P_G6_T8   178
 UP BND1      P_G7_T8   254
 UP BND1      P_G8_T8   203
 UP BND1      P_G9_T8   209
 UP BND1      P_G10_T8  136
 UP BND1      P_G11_T8  299
 UP BND1      P_G12_T8  206
 UP BND1      P_G13_T8  173
 UP BND1      P_G14_T8  243
 UP BND1      P_G15_T8  237
 UP BND1      P_G16_T8  174
 UP BND1      P_G17_T8  232
 UP BND1      P_G18_T8  186
 UP BND1      P_G19_T8  253
 BV BND1      U_G0_T9
 BV BND1      U_G1_T9
 BV BND1      U_G2_T9
 BV BND1      U_G3_T9
 BV BND1      U_G4_T9
 BV BND1      U_G5_T9
 BV BND1      U_G6_T9
 BV BND1      U_G7_T9
 BV BND1      U_G8_T9
 BV BND1      U_G9_T9
 BV BND1      U_G10_T9
 BV BND1      U_G11_T9
 BV BND1      U_G12_T9
 BV BND1      U_G13_T9
 BV BND1      U_G14_T9
 BV BND1      U_G15_T9
 BV BND1      U_G16_T9
 BV BND1      U_G17_T9
 BV BND1      U_G18_T9
 BV BND1      U_G19_T9
 UP BND1      P_G0_T9   235
 UP BND1      P_G1_T9   223
 UP BND1      P_G2_T9   214
 UP BND1      P_G3_T9   256
 UP BND1      P_G4_T9   147
 UP BND1      P_G5_T9   215
 UP BND1      P_G6_T9   178
 UP BND1      P_G7_T9   254
 UP BND1      P_G8_T9   203
 UP BND1      P_G9_T9   209
 UP BND1      P_G10_T9  136
 UP BND1      P_G11_T9  299
 UP BND1      P_G12_T9  206
 UP BND1      P_G13_T9  173
 UP BND1      P_G14_T9  243
 UP BND1      P_G15_T9  237
 UP BND1      P_G16_T9  174
 UP BND1      P_G17_T9  232
 UP BND1      P_G18_T9  186
 UP BND1      P_G19_T9  253
 BV BND1      U_G0_T10
 BV BND1      U_G1_T10
 BV BND1      U_G2_T10
 BV BND1      U_G3_T10
 BV BND1      U_G4_T10
 BV BND1      U_G5_T10
 BV BND1      U_G6_T10
 BV BND1      U_G7_T10
 BV BND1      U_G8_T10
 BV BND1      U_G9_T10
 BV BND1      U_G10_T10
 BV BND1      U_G11_T10
 BV BND1      U_G12_T10
 BV BND1      U_G13_T10
 BV BND1      U_G14_T10
 BV BND1      U_G15_T10
 BV BND1      U_G16_T10
 BV BND1      U_G17_T10
 BV BND1      U_G18_T10
 BV BND1      U_G19_T10
 UP BND1      P_G0_T10  235
 UP BND1      P_G1_T10  223
 UP BND1      P_G2_T10  214
 UP BND1      P_G3_T10  256
 UP BND1      P_G4_T10  147
 UP BND1      P_G5_T10  215
 UP BND1      P_G6_T10  178
 UP BND1      P_G7_T10  254
 UP BND1      P_G8_T10  203
 UP BND1      P_G9_T10  209
 UP BND1      P_G10_T10  136
 UP BND1      P_G11_T10  299
 UP BND1      P_G12_T10  206
 UP BND1      P_G13_T10  173
 UP BND1      P_G14_T10  243
 UP BND1      P_G15_T10  237
 UP BND1      P_G16_T10  174
 UP BND1      P_G17_T10  232
 UP BND1      P_G18_T10  186
 UP BND1      P_G19_T10  253
 BV BND1      U_G0_T11
 BV BND1      U_G1_T11
 BV BND1      U_G2_T11
 BV BND1      U_G3_T11
 BV BND1      U_G4_T11
 BV BND1      U_G5_T11
 BV BND1      U_G6_T11
 BV BND1      U_G7_T11
 BV BND1      U_G8_T11
 BV BND1      U_G9_T11
 BV BND1      U_G10_T11
 BV BND1      U_G11_T11
 BV BND1      U_G12_T11
 BV BND1      U_G13_T11
 BV BND1      U_G14_T11
 BV BND1      U_G15_T11
 BV BND1      U_G16_T11
 BV BND1      U_G17_T11
 BV BND1      U_G18_T11
 BV BND1      U_G19_T11
 UP BND1      P_G0_T11  235
 UP BND1      P_G1_T11  223
 UP BND1      P_G2_T11  214
 UP BND1      P_G3_T11  256
 UP BND1      P_G4_T11  147
 UP BND1      P_G5_T11  215
 UP BND1      P_G6_T11  178
 UP BND1      P_G7_T11  254
 UP BND1      P_G8_T11  203
 UP BND1      P_G9_T11  209
 UP BND1      P_G10_T11  136
 UP BND1      P_G11_T11  299
 UP BND1      P_G12_T11  206
 UP BND1      P_G13_T11  173
 UP BND1      P_G14_T11  243
 UP BND1      P_G15_T11  237
 UP BND1      P_G16_T11  174
 UP BND1      P_G17_T11  232
 UP BND1      P_G18_T11  186
 UP BND1      P_G19_T11  253
 BV BND1      U_G0_T12
 BV BND1      U_G1_T12
 BV BND1      U_G2_T12
 BV BND1      U_G3_T12
 BV BND1      U_G4_T12
 BV BND1      U_G5_T12
 BV BND1      U_G6_T12
 BV BND1      U_G7_T12
 BV BND1      U_G8_T12
 BV BND1      U_G9_T12
 BV BND1      U_G10_T12
 BV BND1      U_G11_T12
 BV BND1      U_G12_T12
 BV BND1      U_G13_T12
 BV BND1      U_G14_T12
 BV BND1      U_G15_T12
 BV BND1      U_G16_T12
 BV BND1      U_G17_T12
 BV BND1      U_G18_T12
 BV BND1      U_G19_T12
 UP BND1      P_G0_T12  235
 UP BND1      P_G1_T12  223
 UP BND1      P_G2_T12  214
 UP BND1      P_G3_T12  256
 UP BND1      P_G4_T12  147
 UP BND1      P_G5_T12  215
 UP BND1      P_G6_T12  178
 UP BND1      P_G7_T12  254
 UP BND1      P_G8_T12  203
 UP BND1      P_G9_T12  209
 UP BND1      P_G10_T12  136
 UP BND1      P_G11_T12  299
 UP BND1      P_G12_T12  206
 UP BND1      P_G13_T12  173
 UP BND1      P_G14_T12  243
 UP BND1      P_G15_T12  237
 UP BND1      P_G16_T12  174
 UP BND1      P_G17_T12  232
 UP BND1      P_G18_T12  186
 UP BND1      P_G19_T12  253
 BV BND1      U_G0_T13
 BV BND1      U_G1_T13
 BV BND1      U_G2_T13
 BV BND1      U_G3_T13
 BV BND1      U_G4_T13
 BV BND1      U_G5_T13
 BV BND1      U_G6_T13
 BV BND1      U_G7_T13
 BV BND1      U_G8_T13
 BV BND1      U_G9_T13
 BV BND1      U_G10_T13
 BV BND1      U_G11_T13
 BV BND1      U_G12_T13
 BV BND1      U_G13_T13
 BV BND1      U_G14_T13
 BV BND1      U_G15_T13
 BV BND1      U_G16_T13
 BV BND1      U_G17_T13
 BV BND1      U_G18_T13
 BV BND1      U_G19_T13
 UP BND1      P_G0_T13  235
 UP BND1      P_G1_T13  223
 UP BND1      P_G2_T13  214
 UP BND1      P_G3_T13  256
 UP BND1      P_G4_T13  147
 UP BND1      P_G5_T13  215
 UP BND1      P_G6_T13  178
 UP BND1      P_G7_T13  254
 UP BND1      P_G8_T13  203
 UP BND1      P_G9_T13  209
 UP BND1      P_G10_T13  136
 UP BND1      P_G11_T13  299
 UP BND1      P_G12_T13  206
 UP BND1      P_G13_T13  173
 UP BND1      P_G14_T13  243
 UP BND1      P_G15_T13  237
 UP BND1      P_G16_T13  174
 UP BND1      P_G17_T13  232
 UP BND1      P_G18_T13  186
 UP BND1      P_G19_T13  253
 BV BND1      U_G0_T14
 BV BND1      U_G1_T14
 BV BND1      U_G2_T14
 BV BND1      U_G3_T14
 BV BND1      U_G4_T14
 BV BND1      U_G5_T14
 BV BND1      U_G6_T14
 BV BND1      U_G7_T14
 BV BND1      U_G8_T14
 BV BND1      U_G9_T14
 BV BND1      U_G10_T14
 BV BND1      U_G11_T14
 BV BND1      U_G12_T14
 BV BND1      U_G13_T14
 BV BND1      U_G14_T14
 BV BND1      U_G15_T14
 BV BND1      U_G16_T14
 BV BND1      U_G17_T14
 BV BND1      U_G18_T14
 BV BND1      U_G19_T14
 UP BND1      P_G0_T14  235
 UP BND1      P_G1_T14  223
 UP BND1      P_G2_T14  214
 UP BND1      P_G3_T14  256
 UP BND1      P_G4_T14  147
 UP BND1      P_G5_T14  215
 UP BND1      P_G6_T14  178
 UP BND1      P_G7_T14  254
 UP BND1      P_G8_T14  203
 UP BND1      P_G9_T14  209
 UP BND1      P_G10_T14  136
 UP BND1      P_G11_T14  299
 UP BND1      P_G12_T14  206
 UP BND1      P_G13_T14  173
 UP BND1      P_G14_T14  243
 UP BND1      P_G15_T14  237
 UP BND1      P_G16_T14  174
 UP BND1      P_G17_T14  232
 UP BND1      P_G18_T14  186
 UP BND1      P_G19_T14  253
 BV BND1      U_G0_T15
 BV BND1      U_G1_T15
 BV BND1      U_G2_T15
 BV BND1      U_G3_T15
 BV BND1      U_G4_T15
 BV BND1      U_G5_T15
 BV BND1      U_G6_T15
 BV BND1      U_G7_T15
 BV BND1      U_G8_T15
 BV BND1      U_G9_T15
 BV BND1      U_G10_T15
 BV BND1      U_G11_T15
 BV BND1      U_G12_T15
 BV BND1      U_G13_T15
 BV BND1      U_G14_T15
 BV BND1      U_G15_T15
 BV BND1      U_G16_T15
 BV BND1      U_G17_T15
 BV BND1      U_G18_T15
 BV BND1      U_G19_T15
 UP BND1      P_G0_T15  235
 UP BND1      P_G1_T15  223
 UP BND1      P_G2_T15  214
 UP BND1      P_G3_T15  256
 UP BND1      P_G4_T15  147
 UP BND1      P_G5_T15  215
 UP BND1      P_G6_T15  178
 UP BND1      P_G7_T15  254
 UP BND1      P_G8_T15  203
 UP BND1      P_G9_T15  209
 UP BND1      P_G10_T15  136
 UP BND1      P_G11_T15  299
 UP BND1      P_G12_T15  206
 UP BND1      P_G13_T15  173
 UP BND1      P_G14_T15  243
 UP BND1      P_G15_T15  237
 UP BND1      P_G16_T15  174
 UP BND1      P_G17_T15  232
 UP BND1      P_G18_T15  186
 UP BND1      P_G19_T15  253
 BV BND1      U_G0_T16
 BV BND1      U_G1_T16
 BV BND1      U_G2_T16
 BV BND1      U_G3_T16
 BV BND1      U_G4_T16
 BV BND1      U_G5_T16
 BV BND1      U_G6_T16
 BV BND1      U_G7_T16
 BV BND1      U_G8_T16
 BV BND1      U_G9_T16
 BV BND1      U_G10_T16
 BV BND1      U_G11_T16
 BV BND1      U_G12_T16
 BV BND1      U_G13_T16
 BV BND1      U_G14_T16
 BV BND1      U_G15_T16
 BV BND1      U_G16_T16
 BV BND1      U_G17_T16
 BV BND1      U_G18_T16
 BV BND1      U_G19_T16
 UP BND1      P_G0_T16  235
 UP BND1      P_G1_T16  223
 UP BND1      P_G2_T16  214
 UP BND1      P_G3_T16  256
 UP BND1      P_G4_T16  147
 UP BND1      P_G5_T16  215
 UP BND1      P_G6_T16  178
 UP BND1      P_G7_T16  254
 UP BND1      P_G8_T16  203
 UP BND1      P_G9_T16  209
 UP BND1      P_G10_T16  136
 UP BND1      P_G11_T16  299
 UP BND1      P_G12_T16  206
 UP BND1      P_G13_T16  173
 UP BND1      P_G14_T16  243
 UP BND1      P_G15_T16  237
 UP BND1      P_G16_T16  174
 UP BND1      P_G17_T16  232
 UP BND1      P_G18_T16  186
 UP BND1      P_G19_T16  253
 BV BND1      U_G0_T17
 BV BND1      U_G1_T17
 BV BND1      U_G2_T17
 BV BND1      U_G3_T17
 BV BND1      U_G4_T17
 BV BND1      U_G5_T17
 BV BND1      U_G6_T17
 BV BND1      U_G7_T17
 BV BND1      U_G8_T17
 BV BND1      U_G9_T17
 BV BND1      U_G10_T17
 BV BND1      U_G11_T17
 BV BND1      U_G12_T17
 BV BND1      U_G13_T17
 BV BND1      U_G14_T17
 BV BND1      U_G15_T17
 BV BND1      U_G16_T17
 BV BND1      U_G17_T17
 BV BND1      U_G18_T17
 BV BND1      U_G19_T17
 UP BND1      P_G0_T17  235
 UP BND1      P_G1_T17  223
 UP BND1      P_G2_T17  214
 UP BND1      P_G3_T17  256
 UP BND1      P_G4_T17  147
 UP BND1      P_G5_T17  215
 UP BND1      P_G6_T17  178
 UP BND1      P_G7_T17  254
 UP BND1      P_G8_T17  203
 UP BND1      P_G9_T17  209
 UP BND1      P_G10_T17  136
 UP BND1      P_G11_T17  299
 UP BND1      P_G12_T17  206
 UP BND1      P_G13_T17  173
 UP BND1      P_G14_T17  243
 UP BND1      P_G15_T17  237
 UP BND1      P_G16_T17  174
 UP BND1      P_G17_T17  232
 UP BND1      P_G18_T17  186
 UP BND1      P_G19_T17  253
 BV BND1      U_G0_T18
 BV BND1      U_G1_T18
 BV BND1      U_G2_T18
 BV BND1      U_G3_T18
 BV BND1      U_G4_T18
 BV BND1      U_G5_T18
 BV BND1      U_G6_T18
 BV BND1      U_G7_T18
 BV BND1      U_G8_T18
 BV BND1      U_G9_T18
 BV BND1      U_G10_T18
 BV BND1      U_G11_T18
 BV BND1      U_G12_T18
 BV BND1      U_G13_T18
 BV BND1      U_G14_T18
 BV BND1      U_G15_T18
 BV BND1      U_G16_T18
 BV BND1      U_G17_T18
 BV BND1      U_G18_T18
 BV BND1      U_G19_T18
 UP BND1      P_G0_T18  235
 UP BND1      P_G1_T18  223
 UP BND1      P_G2_T18  214
 UP BND1      P_G3_T18  256
 UP BND1      P_G4_T18  147
 UP BND1      P_G5_T18  215
 UP BND1      P_G6_T18  178
 UP BND1      P_G7_T18  254
 UP BND1      P_G8_T18  203
 UP BND1      P_G9_T18  209
 UP BND1      P_G10_T18  136
 UP BND1      P_G11_T18  299
 UP BND1      P_G12_T18  206
 UP BND1      P_G13_T18  173
 UP BND1      P_G14_T18  243
 UP BND1      P_G15_T18  237
 UP BND1      P_G16_T18  174
 UP BND1      P_G17_T18  232
 UP BND1      P_G18_T18  186
 UP BND1      P_G19_T18  253
 BV BND1      U_G0_T19
 BV BND1      U_G1_T19
 BV BND1      U_G2_T19
 BV BND1      U_G3_T19
 BV BND1      U_G4_T19
 BV BND1      U_G5_T19
 BV BND1      U_G6_T19
 BV BND1      U_G7_T19
 BV BND1      U_G8_T19
 BV BND1      U_G9_T19
 BV BND1      U_G10_T19
 BV BND1      U_G11_T19
 BV BND1      U_G12_T19
 BV BND1      U_G13_T19
 BV BND1      U_G14_T19
 BV BND1      U_G15_T19
 BV BND1      U_G16_T19
 BV BND1      U_G17_T19
 BV BND1      U_G18_T19
 BV BND1      U_G19_T19
 UP BND1      P_G0_T19  235
 UP BND1      P_G1_T19  223
 UP BND1      P_G2_T19  214
 UP BND1      P_G3_T19  256
 UP BND1      P_G4_T19  147
 UP BND1      P_G5_T19  215
 UP BND1      P_G6_T19  178
 UP BND1      P_G7_T19  254
 UP BND1      P_G8_T19  203
 UP BND1      P_G9_T19  209
 UP BND1      P_G10_T19  136
 UP BND1      P_G11_T19  299
 UP BND1      P_G12_T19  206
 UP BND1      P_G13_T19  173
 UP BND1      P_G14_T19  243
 UP BND1      P_G15_T19  237
 UP BND1      P_G16_T19  174
 UP BND1      P_G17_T19  232
 UP BND1      P_G18_T19  186
 UP BND1      P_G19_T19  253
 BV BND1      U_G0_T20
 BV BND1      U_G1_T20
 BV BND1      U_G2_T20
 BV BND1      U_G3_T20
 BV BND1      U_G4_T20
 BV BND1      U_G5_T20
 BV BND1      U_G6_T20
 BV BND1      U_G7_T20
 BV BND1      U_G8_T20
 BV BND1      U_G9_T20
 BV BND1      U_G10_T20
 BV BND1      U_G11_T20
 BV BND1      U_G12_T20
 BV BND1      U_G13_T20
 BV BND1      U_G14_T20
 BV BND1      U_G15_T20
 BV BND1      U_G16_T20
 BV BND1      U_G17_T20
 BV BND1      U_G18_T20
 BV BND1      U_G19_T20
 UP BND1      P_G0_T20  235
 UP BND1      P_G1_T20  223
 UP BND1      P_G2_T20  214
 UP BND1      P_G3_T20  256
 UP BND1      P_G4_T20  147
 UP BND1      P_G5_T20  215
 UP BND1      P_G6_T20  178
 UP BND1      P_G7_T20  254
 UP BND1      P_G8_T20  203
 UP BND1      P_G9_T20  209
 UP BND1      P_G10_T20  136
 UP BND1      P_G11_T20  299
 UP BND1      P_G12_T20  206
 UP BND1      P_G13_T20  173
 UP BND1      P_G14_T20  243
 UP BND1      P_G15_T20  237
 UP BND1      P_G16_T20  174
 UP BND1      P_G17_T20  232
 UP BND1      P_G18_T20  186
 UP BND1      P_G19_T20  253
 BV BND1      U_G0_T21
 BV BND1      U_G1_T21
 BV BND1      U_G2_T21
 BV BND1      U_G3_T21
 BV BND1      U_G4_T21
 BV BND1      U_G5_T21
 BV BND1      U_G6_T21
 BV BND1      U_G7_T21
 BV BND1      U_G8_T21
 BV BND1      U_G9_T21
 BV BND1      U_G10_T21
 BV BND1      U_G11_T21
 BV BND1      U_G12_T21
 BV BND1      U_G13_T21
 BV BND1      U_G14_T21
 BV BND1      U_G15_T21
 BV BND1      U_G16_T21
 BV BND1      U_G17_T21
 BV BND1      U_G18_T21
 BV BND1      U_G19_T21
 UP BND1      P_G0_T21  235
 UP BND1      P_G1_T21  223
 UP BND1      P_G2_T21  214
 UP BND1      P_G3_T21  256
 UP BND1      P_G4_T21  147
 UP BND1      P_G5_T21  215
 UP BND1      P_G6_T21  178
 UP BND1      P_G7_T21  254
 UP BND1      P_G8_T21  203
 UP BND1      P_G9_T21  209
 UP BND1      P_G10_T21  136
 UP BND1      P_G11_T21  299
 UP BND1      P_G12_T21  206
 UP BND1      P_G13_T21  173
 UP BND1      P_G14_T21  243
 UP BND1      P_G15_T21  237
 UP BND1      P_G16_T21  174
 UP BND1      P_G17_T21  232
 UP BND1      P_G18_T21  186
 UP BND1      P_G19_T21  253
 BV BND1      U_G0_T22
 BV BND1      U_G1_T22
 BV BND1      U_G2_T22
 BV BND1      U_G3_T22
 BV BND1      U_G4_T22
 BV BND1      U_G5_T22
 BV BND1      U_G6_T22
 BV BND1      U_G7_T22
 BV BND1      U_G8_T22
 BV BND1      U_G9_T22
 BV BND1      U_G10_T22
 BV BND1      U_G11_T22
 BV BND1      U_G12_T22
 BV BND1      U_G13_T22
 BV BND1      U_G14_T22
 BV BND1      U_G15_T22
 BV BND1      U_G16_T22
 BV BND1      U_G17_T22
 BV BND1      U_G18_T22
 BV BND1      U_G19_T22
 UP BND1      P_G0_T22  235
 UP BND1      P_G1_T22  223
 UP BND1      P_G2_T22  214
 UP BND1      P_G3_T22  256
 UP BND1      P_G4_T22  147
 UP BND1      P_G5_T22  215
 UP BND1      P_G6_T22  178
 UP BND1      P_G7_T22  254
 UP BND1      P_G8_T22  203
 UP BND1      P_G9_T22  209
 UP BND1      P_G10_T22  136
 UP BND1      P_G11_T22  299
 UP BND1      P_G12_T22  206
 UP BND1      P_G13_T22  173
 UP BND1      P_G14_T22  243
 UP BND1      P_G15_T22  237
 UP BND1      P_G16_T22  174
 UP BND1      P_G17_T22  232
 UP BND1      P_G18_T22  186
 UP BND1      P_G19_T22  253
 BV BND1      U_G0_T23
 BV BND1      U_G1_T23
 BV BND1      U_G2_T23
 BV BND1      U_G3_T23
 BV BND1      U_G4_T23
 BV BND1      U_G5_T23
 BV BND1      U_G6_T23
 BV BND1      U_G7_T23
 BV BND1      U_G8_T23
 BV BND1      U_G9_T23
 BV BND1      U_G10_T23
 BV BND1      U_G11_T23
 BV BND1      U_G12_T23
 BV BND1      U_G13_T23
 BV BND1      U_G14_T23
 BV BND1      U_G15_T23
 BV BND1      U_G16_T23
 BV BND1      U_G17_T23
 BV BND1      U_G18_T23
 BV BND1      U_G19_T23
 UP BND1      P_G0_T23  235
 UP BND1      P_G1_T23  223
 UP BND1      P_G2_T23  214
 UP BND1      P_G3_T23  256
 UP BND1      P_G4_T23  147
 UP BND1      P_G5_T23  215
 UP BND1      P_G6_T23  178
 UP BND1      P_G7_T23  254
 UP BND1      P_G8_T23  203
 UP BND1      P_G9_T23  209
 UP BND1      P_G10_T23  136
 UP BND1      P_G11_T23  299
 UP BND1      P_G12_T23  206
 UP BND1      P_G13_T23  173
 UP BND1      P_G14_T23  243
 UP BND1      P_G15_T23  237
 UP BND1      P_G16_T23  174
 UP BND1      P_G17_T23  232
 UP BND1      P_G18_T23  186
 UP BND1      P_G19_T23  253
 BV BND1      U_G0_T24
 BV BND1      U_G1_T24
 BV BND1      U_G2_T24
 BV BND1      U_G3_T24
 BV BND1      U_G4_T24
 BV BND1      U_G5_T24
 BV BND1      U_G6_T24
 BV BND1      U_G7_T24
 BV BND1      U_G8_T24
 BV BND1      U_G9_T24
 BV BND1      U_G10_T24
 BV BND1      U_G11_T24
 BV BND1      U_G12_T24
 BV BND1      U_G13_T24
 BV BND1      U_G14_T24
 BV BND1      U_G15_T24
 BV BND1      U_G16_T24
 BV BND1      U_G17_T24
 BV BND1      U_G18_T24
 BV BND1      U_G19_T24
 UP BND1      P_G0_T24  235
 UP BND1      P_G1_T24  223
 UP BND1      P_G2_T24  214
 UP BND1      P_G3_T24  256
 UP BND1      P_G4_T24  147
 UP BND1      P_G5_T24  215
 UP BND1      P_G6_T24  178
 UP BND1      P_G7_T24  254
 UP BND1      P_G8_T24  203
 UP BND1      P_G9_T24  209
 UP BND1      P_G10_T24  136
 UP BND1      P_G11_T24  299
 UP BND1      P_G12_T24  206
 UP BND1      P_G13_T24  173
 UP BND1      P_G14_T24  243
 UP BND1      P_G15_T24  237
 UP BND1      P_G16_T24  174
 UP BND1      P_G17_T24  232
 UP BND1      P_G18_T24  186
 UP BND1      P_G19_T24  253
 BV BND1      U_G0_T25
 BV BND1      U_G1_T25
 BV BND1      U_G2_T25
 BV BND1      U_G3_T25
 BV BND1      U_G4_T25
 BV BND1      U_G5_T25
 BV BND1      U_G6_T25
 BV BND1      U_G7_T25
 BV BND1      U_G8_T25
 BV BND1      U_G9_T25
 BV BND1      U_G10_T25
 BV BND1      U_G11_T25
 BV BND1      U_G12_T25
 BV BND1      U_G13_T25
 BV BND1      U_G14_T25
 BV BND1      U_G15_T25
 BV BND1      U_G16_T25
 BV BND1      U_G17_T25
 BV BND1      U_G18_T25
 BV BND1      U_G19_T25
 UP BND1      P_G0_T25  235
 UP BND1      P_G1_T25  223
 UP BND1      P_G2_T25  214
 UP BND1      P_G3_T25  256
 UP BND1      P_G4_T25  147
 UP BND1      P_G5_T25  215
 UP BND1      P_G6_T25  178
 UP BND1      P_G7_T25  254
 UP BND1      P_G8_T25  203
 UP BND1      P_G9_T25  209
 UP BND1      P_G10_T25  136
 UP BND1      P_G11_T25  299
 UP BND1      P_G12_T25  206
 UP BND1      P_G13_T25  173
 UP BND1      P_G14_T25  243
 UP BND1      P_G15_T25  237
 UP BND1      P_G16_T25  174
 UP BND1      P_G17_T25  232
 UP BND1      P_G18_T25  186
 UP BND1      P_G19_T25  253
 BV BND1      U_G0_T26
 BV BND1      U_G1_T26
 BV BND1      U_G2_T26
 BV BND1      U_G3_T26
 BV BND1      U_G4_T26
 BV BND1      U_G5_T26
 BV BND1      U_G6_T26
 BV BND1      U_G7_T26
 BV BND1      U_G8_T26
 BV BND1      U_G9_T26
 BV BND1      U_G10_T26
 BV BND1      U_G11_T26
 BV BND1      U_G12_T26
 BV BND1      U_G13_T26
 BV BND1      U_G14_T26
 BV BND1      U_G15_T26
 BV BND1      U_G16_T26
 BV BND1      U_G17_T26
 BV BND1      U_G18_T26
 BV BND1      U_G19_T26
 UP BND1      P_G0_T26  235
 UP BND1      P_G1_T26  223
 UP BND1      P_G2_T26  214
 UP BND1      P_G3_T26  256
 UP BND1      P_G4_T26  147
 UP BND1      P_G5_T26  215
 UP BND1      P_G6_T26  178
 UP BND1      P_G7_T26  254
 UP BND1      P_G8_T26  203
 UP BND1      P_G9_T26  209
 UP BND1      P_G10_T26  136
 UP BND1      P_G11_T26  299
 UP BND1      P_G12_T26  206
 UP BND1      P_G13_T26  173
 UP BND1      P_G14_T26  243
 UP BND1      P_G15_T26  237
 UP BND1      P_G16_T26  174
 UP BND1      P_G17_T26  232
 UP BND1      P_G18_T26  186
 UP BND1      P_G19_T26  253
 BV BND1      U_G0_T27
 BV BND1      U_G1_T27
 BV BND1      U_G2_T27
 BV BND1      U_G3_T27
 BV BND1      U_G4_T27
 BV BND1      U_G5_T27
 BV BND1      U_G6_T27
 BV BND1      U_G7_T27
 BV BND1      U_G8_T27
 BV BND1      U_G9_T27
 BV BND1      U_G10_T27
 BV BND1      U_G11_T27
 BV BND1      U_G12_T27
 BV BND1      U_G13_T27
 BV BND1      U_G14_T27
 BV BND1      U_G15_T27
 BV BND1      U_G16_T27
 BV BND1      U_G17_T27
 BV BND1      U_G18_T27
 BV BND1      U_G19_T27
 UP BND1      P_G0_T27  235
 UP BND1      P_G1_T27  223
 UP BND1      P_G2_T27  214
 UP BND1      P_G3_T27  256
 UP BND1      P_G4_T27  147
 UP BND1      P_G5_T27  215
 UP BND1      P_G6_T27  178
 UP BND1      P_G7_T27  254
 UP BND1      P_G8_T27  203
 UP BND1      P_G9_T27  209
 UP BND1      P_G10_T27  136
 UP BND1      P_G11_T27  299
 UP BND1      P_G12_T27  206
 UP BND1      P_G13_T27  173
 UP BND1      P_G14_T27  243
 UP BND1      P_G15_T27  237
 UP BND1      P_G16_T27  174
 UP BND1      P_G17_T27  232
 UP BND1      P_G18_T27  186
 UP BND1      P_G19_T27  253
 BV BND1      U_G0_T28
 BV BND1      U_G1_T28
 BV BND1      U_G2_T28
 BV BND1      U_G3_T28
 BV BND1      U_G4_T28
 BV BND1      U_G5_T28
 BV BND1      U_G6_T28
 BV BND1      U_G7_T28
 BV BND1      U_G8_T28
 BV BND1      U_G9_T28
 BV BND1      U_G10_T28
 BV BND1      U_G11_T28
 BV BND1      U_G12_T28
 BV BND1      U_G13_T28
 BV BND1      U_G14_T28
 BV BND1      U_G15_T28
 BV BND1      U_G16_T28
 BV BND1      U_G17_T28
 BV BND1      U_G18_T28
 BV BND1      U_G19_T28
 UP BND1      P_G0_T28  235
 UP BND1      P_G1_T28  223
 UP BND1      P_G2_T28  214
 UP BND1      P_G3_T28  256
 UP BND1      P_G4_T28  147
 UP BND1      P_G5_T28  215
 UP BND1      P_G6_T28  178
 UP BND1      P_G7_T28  254
 UP BND1      P_G8_T28  203
 UP BND1      P_G9_T28  209
 UP BND1      P_G10_T28  136
 UP BND1      P_G11_T28  299
 UP BND1      P_G12_T28  206
 UP BND1      P_G13_T28  173
 UP BND1      P_G14_T28  243
 UP BND1      P_G15_T28  237
 UP BND1      P_G16_T28  174
 UP BND1      P_G17_T28  232
 UP BND1      P_G18_T28  186
 UP BND1      P_G19_T28  253
 BV BND1      U_G0_T29
 BV BND1      U_G1_T29
 BV BND1      U_G2_T29
 BV BND1      U_G3_T29
 BV BND1      U_G4_T29
 BV BND1      U_G5_T29
 BV BND1      U_G6_T29
 BV BND1      U_G7_T29
 BV BND1      U_G8_T29
 BV BND1      U_G9_T29
 BV BND1      U_G10_T29
 BV BND1      U_G11_T29
 BV BND1      U_G12_T29
 BV BND1      U_G13_T29
 BV BND1      U_G14_T29
 BV BND1      U_G15_T29
 BV BND1      U_G16_T29
 BV BND1      U_G17_T29
 BV BND1      U_G18_T29
 BV BND1      U_G19_T29
 UP BND1      P_G0_T29  235
 UP BND1      P_G1_T29  223
 UP BND1      P_G2_T29  214
 UP BND1      P_G3_T29  256
 UP BND1      P_G4_T29  147
 UP BND1      P_G5_T29  215
 UP BND1      P_G6_T29  178
 UP BND1      P_G7_T29  254
 UP BND1      P_G8_T29  203
 UP BND1      P_G9_T29  209
 UP BND1      P_G10_T29  136
 UP BND1      P_G11_T29  299
 UP BND1      P_G12_T29  206
 UP BND1      P_G13_T29  173
 UP BND1      P_G14_T29  243
 UP BND1      P_G15_T29  237
 UP BND1      P_G16_T29  174
 UP BND1      P_G17_T29  232
 UP BND1      P_G18_T29  186
 UP BND1      P_G19_T29  253
 BV BND1      U_G0_T30
 BV BND1      U_G1_T30
 BV BND1      U_G2_T30
 BV BND1      U_G3_T30
 BV BND1      U_G4_T30
 BV BND1      U_G5_T30
 BV BND1      U_G6_T30
 BV BND1      U_G7_T30
 BV BND1      U_G8_T30
 BV BND1      U_G9_T30
 BV BND1      U_G10_T30
 BV BND1      U_G11_T30
 BV BND1      U_G12_T30
 BV BND1      U_G13_T30
 BV BND1      U_G14_T30
 BV BND1      U_G15_T30
 BV BND1      U_G16_T30
 BV BND1      U_G17_T30
 BV BND1      U_G18_T30
 BV BND1      U_G19_T30
 UP BND1      P_G0_T30  235
 UP BND1      P_G1_T30  223
 UP BND1      P_G2_T30  214
 UP BND1      P_G3_T30  256
 UP BND1      P_G4_T30  147
 UP BND1      P_G5_T30  215
 UP BND1      P_G6_T30  178
 UP BND1      P_G7_T30  254
 UP BND1      P_G8_T30  203
 UP BND1      P_G9_T30  209
 UP BND1      P_G10_T30  136
 UP BND1      P_G11_T30  299
 UP BND1      P_G12_T30  206
 UP BND1      P_G13_T30  173
 UP BND1      P_G14_T30  243
 UP BND1      P_G15_T30  237
 UP BND1      P_G16_T30  174
 UP BND1      P_G17_T30  232
 UP BND1      P_G18_T30  186
 UP BND1      P_G19_T30  253
 BV BND1      U_G0_T31
 BV BND1      U_G1_T31
 BV BND1      U_G2_T31
 BV BND1      U_G3_T31
 BV BND1      U_G4_T31
 BV BND1      U_G5_T31
 BV BND1      U_G6_T31
 BV BND1      U_G7_T31
 BV BND1      U_G8_T31
 BV BND1      U_G9_T31
 BV BND1      U_G10_T31
 BV BND1      U_G11_T31
 BV BND1      U_G12_T31
 BV BND1      U_G13_T31
 BV BND1      U_G14_T31
 BV BND1      U_G15_T31
 BV BND1      U_G16_T31
 BV BND1      U_G17_T31
 BV BND1      U_G18_T31
 BV BND1      U_G19_T31
 UP BND1      P_G0_T31  235
 UP BND1      P_G1_T31  223
 UP BND1      P_G2_T31  214
 UP BND1      P_G3_T31  256
 UP BND1      P_G4_T31  147
 UP BND1      P_G5_T31  215
 UP BND1      P_G6_T31  178
 UP BND1      P_G7_T31  254
 UP BND1      P_G8_T31  203
 UP BND1      P_G9_T31  209
 UP BND1      P_G10_T31  136
 UP BND1      P_G11_T31  299
 UP BND1      P_G12_T31  206
 UP BND1      P_G13_T31  173
 UP BND1      P_G14_T31  243
 UP BND1      P_G15_T31  237
 UP BND1      P_G16_T31  174
 UP BND1      P_G17_T31  232
 UP BND1      P_G18_T31  186
 UP BND1      P_G19_T31  253
 BV BND1      U_G0_T32
 BV BND1      U_G1_T32
 BV BND1      U_G2_T32
 BV BND1      U_G3_T32
 BV BND1      U_G4_T32
 BV BND1      U_G5_T32
 BV BND1      U_G6_T32
 BV BND1      U_G7_T32
 BV BND1      U_G8_T32
 BV BND1      U_G9_T32
 BV BND1      U_G10_T32
 BV BND1      U_G11_T32
 BV BND1      U_G12_T32
 BV BND1      U_G13_T32
 BV BND1      U_G14_T32
 BV BND1      U_G15_T32
 BV BND1      U_G16_T32
 BV BND1      U_G17_T32
 BV BND1      U_G18_T32
 BV BND1      U_G19_T32
 UP BND1      P_G0_T32  235
 UP BND1      P_G1_T32  223
 UP BND1      P_G2_T32  214
 UP BND1      P_G3_T32  256
 UP BND1      P_G4_T32  147
 UP BND1      P_G5_T32  215
 UP BND1      P_G6_T32  178
 UP BND1      P_G7_T32  254
 UP BND1      P_G8_T32  203
 UP BND1      P_G9_T32  209
 UP BND1      P_G10_T32  136
 UP BND1      P_G11_T32  299
 UP BND1      P_G12_T32  206
 UP BND1      P_G13_T32  173
 UP BND1      P_G14_T32  243
 UP BND1      P_G15_T32  237
 UP BND1      P_G16_T32  174
 UP BND1      P_G17_T32  232
 UP BND1      P_G18_T32  186
 UP BND1      P_G19_T32  253
 BV BND1      U_G0_T33
 BV BND1      U_G1_T33
 BV BND1      U_G2_T33
 BV BND1      U_G3_T33
 BV BND1      U_G4_T33
 BV BND1      U_G5_T33
 BV BND1      U_G6_T33
 BV BND1      U_G7_T33
 BV BND1      U_G8_T33
 BV BND1      U_G9_T33
 BV BND1      U_G10_T33
 BV BND1      U_G11_T33
 BV BND1      U_G12_T33
 BV BND1      U_G13_T33
 BV BND1      U_G14_T33
 BV BND1      U_G15_T33
 BV BND1      U_G16_T33
 BV BND1      U_G17_T33
 BV BND1      U_G18_T33
 BV BND1      U_G19_T33
 UP BND1      P_G0_T33  235
 UP BND1      P_G1_T33  223
 UP BND1      P_G2_T33  214
 UP BND1      P_G3_T33  256
 UP BND1      P_G4_T33  147
 UP BND1      P_G5_T33  215
 UP BND1      P_G6_T33  178
 UP BND1      P_G7_T33  254
 UP BND1      P_G8_T33  203
 UP BND1      P_G9_T33  209
 UP BND1      P_G10_T33  136
 UP BND1      P_G11_T33  299
 UP BND1      P_G12_T33  206
 UP BND1      P_G13_T33  173
 UP BND1      P_G14_T33  243
 UP BND1      P_G15_T33  237
 UP BND1      P_G16_T33  174
 UP BND1      P_G17_T33  232
 UP BND1      P_G18_T33  186
 UP BND1      P_G19_T33  253
 BV BND1      U_G0_T34
 BV BND1      U_G1_T34
 BV BND1      U_G2_T34
 BV BND1      U_G3_T34
 BV BND1      U_G4_T34
 BV BND1      U_G5_T34
 BV BND1      U_G6_T34
 BV BND1      U_G7_T34
 BV BND1      U_G8_T34
 BV BND1      U_G9_T34
 BV BND1      U_G10_T34
 BV BND1      U_G11_T34
 BV BND1      U_G12_T34
 BV BND1      U_G13_T34
 BV BND1      U_G14_T34
 BV BND1      U_G15_T34
 BV BND1      U_G16_T34
 BV BND1      U_G17_T34
 BV BND1      U_G18_T34
 BV BND1      U_G19_T34
 UP BND1      P_G0_T34  235
 UP BND1      P_G1_T34  223
 UP BND1      P_G2_T34  214
 UP BND1      P_G3_T34  256
 UP BND1      P_G4_T34  147
 UP BND1      P_G5_T34  215
 UP BND1      P_G6_T34  178
 UP BND1      P_G7_T34  254
 UP BND1      P_G8_T34  203
 UP BND1      P_G9_T34  209
 UP BND1      P_G10_T34  136
 UP BND1      P_G11_T34  299
 UP BND1      P_G12_T34  206
 UP BND1      P_G13_T34  173
 UP BND1      P_G14_T34  243
 UP BND1      P_G15_T34  237
 UP BND1      P_G16_T34  174
 UP BND1      P_G17_T34  232
 UP BND1      P_G18_T34  186
 UP BND1      P_G19_T34  253
 BV BND1      U_G0_T35
 BV BND1      U_G1_T35
 BV BND1      U_G2_T35
 BV BND1      U_G3_T35
 BV BND1      U_G4_T35
 BV BND1      U_G5_T35
 BV BND1      U_G6_T35
 BV BND1      U_G7_T35
 BV BND1      U_G8_T35
 BV BND1      U_G9_T35
 BV BND1      U_G10_T35
 BV BND1      U_G11_T35
 BV BND1      U_G12_T35
 BV BND1      U_G13_T35
 BV BND1      U_G14_T35
 BV BND1      U_G15_T35
 BV BND1      U_G16_T35
 BV BND1      U_G17_T35
 BV BND1      U_G18_T35
 BV BND1      U_G19_T35
 UP BND1      P_G0_T35  235
 UP BND1      P_G1_T35  223
 UP BND1      P_G2_T35  214
 UP BND1      P_G3_T35  256
 UP BND1      P_G4_T35  147
 UP BND1      P_G5_T35  215
 UP BND1      P_G6_T35  178
 UP BND1      P_G7_T35  254
 UP BND1      P_G8_T35  203
 UP BND1      P_G9_T35  209
 UP BND1      P_G10_T35  136
 UP BND1      P_G11_T35  299
 UP BND1      P_G12_T35  206
 UP BND1      P_G13_T35  173
 UP BND1      P_G14_T35  243
 UP BND1      P_G15_T35  237
 UP BND1      P_G16_T35  174
 UP BND1      P_G17_T35  232
 UP BND1      P_G18_T35  186
 UP BND1      P_G19_T35  253
 BV BND1      U_G0_T36
 BV BND1      U_G1_T36
 BV BND1      U_G2_T36
 BV BND1      U_G3_T36
 BV BND1      U_G4_T36
 BV BND1      U_G5_T36
 BV BND1      U_G6_T36
 BV BND1      U_G7_T36
 BV BND1      U_G8_T36
 BV BND1      U_G9_T36
 BV BND1      U_G10_T36
 BV BND1      U_G11_T36
 BV BND1      U_G12_T36
 BV BND1      U_G13_T36
 BV BND1      U_G14_T36
 BV BND1      U_G15_T36
 BV BND1      U_G16_T36
 BV BND1      U_G17_T36
 BV BND1      U_G18_T36
 BV BND1      U_G19_T36
 UP BND1      P_G0_T36  235
 UP BND1      P_G1_T36  223
 UP BND1      P_G2_T36  214
 UP BND1      P_G3_T36  256
 UP BND1      P_G4_T36  147
 UP BND1      P_G5_T36  215
 UP BND1      P_G6_T36  178
 UP BND1      P_G7_T36  254
 UP BND1      P_G8_T36  203
 UP BND1      P_G9_T36  209
 UP BND1      P_G10_T36  136
 UP BND1      P_G11_T36  299
 UP BND1      P_G12_T36  206
 UP BND1      P_G13_T36  173
 UP BND1      P_G14_T36  243
 UP BND1      P_G15_T36  237
 UP BND1      P_G16_T36  174
 UP BND1      P_G17_T36  232
 UP BND1      P_G18_T36  186
 UP BND1      P_G19_T36  253
 BV BND1      U_G0_T37
 BV BND1      U_G1_T37
 BV BND1      U_G2_T37
 BV BND1      U_G3_T37
 BV BND1      U_G4_T37
 BV BND1      U_G5_T37
 BV BND1      U_G6_T37
 BV BND1      U_G7_T37
 BV BND1      U_G8_T37
 BV BND1      U_G9_T37
 BV BND1      U_G10_T37
 BV BND1      U_G11_T37
 BV BND1      U_G12_T37
 BV BND1      U_G13_T37
 BV BND1      U_G14_T37
 BV BND1      U_G15_T37
 BV BND1      U_G16_T37
 BV BND1      U_G17_T37
 BV BND1      U_G18_T37
 BV BND1      U_G19_T37
 UP BND1      P_G0_T37  235
 UP BND1      P_G1_T37  223
 UP BND1      P_G2_T37  214
 UP BND1      P_G3_T37  256
 UP BND1      P_G4_T37  147
 UP BND1      P_G5_T37  215
 UP BND1      P_G6_T37  178
 UP BND1      P_G7_T37  254
 UP BND1      P_G8_T37  203
 UP BND1      P_G9_T37  209
 UP BND1      P_G10_T37  136
 UP BND1      P_G11_T37  299
 UP BND1      P_G12_T37  206
 UP BND1      P_G13_T37  173
 UP BND1      P_G14_T37  243
 UP BND1      P_G15_T37  237
 UP BND1      P_G16_T37  174
 UP BND1      P_G17_T37  232
 UP BND1      P_G18_T37  186
 UP BND1      P_G19_T37  253
 BV BND1      U_G0_T38
 BV BND1      U_G1_T38
 BV BND1      U_G2_T38
 BV BND1      U_G3_T38
 BV BND1      U_G4_T38
 BV BND1      U_G5_T38
 BV BND1      U_G6_T38
 BV BND1      U_G7_T38
 BV BND1      U_G8_T38
 BV BND1      U_G9_T38
 BV BND1      U_G10_T38
 BV BND1      U_G11_T38
 BV BND1      U_G12_T38
 BV BND1      U_G13_T38
 BV BND1      U_G14_T38
 BV BND1      U_G15_T38
 BV BND1      U_G16_T38
 BV BND1      U_G17_T38
 BV BND1      U_G18_T38
 BV BND1      U_G19_T38
 UP BND1      P_G0_T38  235
 UP BND1      P_G1_T38  223
 UP BND1      P_G2_T38  214
 UP BND1      P_G3_T38  256
 UP BND1      P_G4_T38  147
 UP BND1      P_G5_T38  215
 UP BND1      P_G6_T38  178
 UP BND1      P_G7_T38  254
 UP BND1      P_G8_T38  203
 UP BND1      P_G9_T38  209
 UP BND1      P_G10_T38  136
 UP BND1      P_G11_T38  299
 UP BND1      P_G12_T38  206
 UP BND1      P_G13_T38  173
 UP BND1      P_G14_T38  243
 UP BND1      P_G15_T38  237
 UP BND1      P_G16_T38  174
 UP BND1      P_G17_T38  232
 UP BND1      P_G18_T38  186
 UP BND1      P_G19_T38  253
 BV BND1      U_G0_T39
 BV BND1      U_G1_T39
 BV BND1      U_G2_T39
 BV BND1      U_G3_T39
 BV BND1      U_G4_T39
 BV BND1      U_G5_T39
 BV BND1      U_G6_T39
 BV BND1      U_G7_T39
 BV BND1      U_G8_T39
 BV BND1      U_G9_T39
 BV BND1      U_G10_T39
 BV BND1      U_G11_T39
 BV BND1      U_G12_T39
 BV BND1      U_G13_T39
 BV BND1      U_G14_T39
 BV BND1      U_G15_T39
 BV BND1      U_G16_T39
 BV BND1      U_G17_T39
 BV BND1      U_G18_T39
 BV BND1      U_G19_T39
 UP BND1      P_G0_T39  235
 UP BND1      P_G1_T39  223
 UP BND1      P_G2_T39  214
 UP BND1      P_G3_T39  256
 UP BND1      P_G4_T39  147
 UP BND1      P_G5_T39  215
 UP BND1      P_G6_T39  178
 UP BND1      P_G7_T39  254
 UP BND1      P_G8_T39  203
 UP BND1      P_G9_T39  209
 UP BND1      P_G10_T39  136
 UP BND1      P_G11_T39  299
 UP BND1      P_G12_T39  206
 UP BND1      P_G13_T39  173
 UP BND1      P_G14_T39  243
 UP BND1      P_G15_T39  237
 UP BND1      P_G16_T39  174
 UP BND1      P_G17_T39  232
 UP BND1      P_G18_T39  186
 UP BND1      P_G19_T39  253
 BV BND1      U_G0_T40
 BV BND1      U_G1_T40
 BV BND1      U_G2_T40
 BV BND1      U_G3_T40
 BV BND1      U_G4_T40
 BV BND1      U_G5_T40
 BV BND1      U_G6_T40
 BV BND1      U_G7_T40
 BV BND1      U_G8_T40
 BV BND1      U_G9_T40
 BV BND1      U_G10_T40
 BV BND1      U_G11_T40
 BV BND1      U_G12_T40
 BV BND1      U_G13_T40
 BV BND1      U_G14_T40
 BV BND1      U_G15_T40
 BV BND1      U_G16_T40
 BV BND1      U_G17_T40
 BV BND1      U_G18_T40
 BV BND1      U_G19_T40
 UP BND1      P_G0_T40  235
 UP BND1      P_G1_T40  223
 UP BND1      P_G2_T40  214
 UP BND1      P_G3_T40  256
 UP BND1      P_G4_T40  147
 UP BND1      P_G5_T40  215
 UP BND1      P_G6_T40  178
 UP BND1      P_G7_T40  254
 UP BND1      P_G8_T40  203
 UP BND1      P_G9_T40  209
 UP BND1      P_G10_T40  136
 UP BND1      P_G11_T40  299
 UP BND1      P_G12_T40  206
 UP BND1      P_G13_T40  173
 UP BND1      P_G14_T40  243
 UP BND1      P_G15_T40  237
 UP BND1      P_G16_T40  174
 UP BND1      P_G17_T40  232
 UP BND1      P_G18_T40  186
 UP BND1      P_G19_T40  253
 BV BND1      U_G0_T41
 BV BND1      U_G1_T41
 BV BND1      U_G2_T41
 BV BND1      U_G3_T41
 BV BND1      U_G4_T41
 BV BND1      U_G5_T41
 BV BND1      U_G6_T41
 BV BND1      U_G7_T41
 BV BND1      U_G8_T41
 BV BND1      U_G9_T41
 BV BND1      U_G10_T41
 BV BND1      U_G11_T41
 BV BND1      U_G12_T41
 BV BND1      U_G13_T41
 BV BND1      U_G14_T41
 BV BND1      U_G15_T41
 BV BND1      U_G16_T41
 BV BND1      U_G17_T41
 BV BND1      U_G18_T41
 BV BND1      U_G19_T41
 UP BND1      P_G0_T41  235
 UP BND1      P_G1_T41  223
 UP BND1      P_G2_T41  214
 UP BND1      P_G3_T41  256
 UP BND1      P_G4_T41  147
 UP BND1      P_G5_T41  215
 UP BND1      P_G6_T41  178
 UP BND1      P_G7_T41  254
 UP BND1      P_G8_T41  203
 UP BND1      P_G9_T41  209
 UP BND1      P_G10_T41  136
 UP BND1      P_G11_T41  299
 UP BND1      P_G12_T41  206
 UP BND1      P_G13_T41  173
 UP BND1      P_G14_T41  243
 UP BND1      P_G15_T41  237
 UP BND1      P_G16_T41  174
 UP BND1      P_G17_T41  232
 UP BND1      P_G18_T41  186
 UP BND1      P_G19_T41  253
 BV BND1      U_G0_T42
 BV BND1      U_G1_T42
 BV BND1      U_G2_T42
 BV BND1      U_G3_T42
 BV BND1      U_G4_T42
 BV BND1      U_G5_T42
 BV BND1      U_G6_T42
 BV BND1      U_G7_T42
 BV BND1      U_G8_T42
 BV BND1      U_G9_T42
 BV BND1      U_G10_T42
 BV BND1      U_G11_T42
 BV BND1      U_G12_T42
 BV BND1      U_G13_T42
 BV BND1      U_G14_T42
 BV BND1      U_G15_T42
 BV BND1      U_G16_T42
 BV BND1      U_G17_T42
 BV BND1      U_G18_T42
 BV BND1      U_G19_T42
 UP BND1      P_G0_T42  235
 UP BND1      P_G1_T42  223
 UP BND1      P_G2_T42  214
 UP BND1      P_G3_T42  256
 UP BND1      P_G4_T42  147
 UP BND1      P_G5_T42  215
 UP BND1      P_G6_T42  178
 UP BND1      P_G7_T42  254
 UP BND1      P_G8_T42  203
 UP BND1      P_G9_T42  209
 UP BND1      P_G10_T42  136
 UP BND1      P_G11_T42  299
 UP BND1      P_G12_T42  206
 UP BND1      P_G13_T42  173
 UP BND1      P_G14_T42  243
 UP BND1      P_G15_T42  237
 UP BND1      P_G16_T42  174
 UP BND1      P_G17_T42  232
 UP BND1      P_G18_T42  186
 UP BND1      P_G19_T42  253
 BV BND1      U_G0_T43
 BV BND1      U_G1_T43
 BV BND1      U_G2_T43
 BV BND1      U_G3_T43
 BV BND1      U_G4_T43
 BV BND1      U_G5_T43
 BV BND1      U_G6_T43
 BV BND1      U_G7_T43
 BV BND1      U_G8_T43
 BV BND1      U_G9_T43
 BV BND1      U_G10_T43
 BV BND1      U_G11_T43
 BV BND1      U_G12_T43
 BV BND1      U_G13_T43
 BV BND1      U_G14_T43
 BV BND1      U_G15_T43
 BV BND1      U_G16_T43
 BV BND1      U_G17_T43
 BV BND1      U_G18_T43
 BV BND1      U_G19_T43
 UP BND1      P_G0_T43  235
 UP BND1      P_G1_T43  223
 UP BND1      P_G2_T43  214
 UP BND1      P_G3_T43  256
 UP BND1      P_G4_T43  147
 UP BND1      P_G5_T43  215
 UP BND1      P_G6_T43  178
 UP BND1      P_G7_T43  254
 UP BND1      P_G8_T43  203
 UP BND1      P_G9_T43  209
 UP BND1      P_G10_T43  136
 UP BND1      P_G11_T43  299
 UP BND1      P_G12_T43  206
 UP BND1      P_G13_T43  173
 UP BND1      P_G14_T43  243
 UP BND1      P_G15_T43  237
 UP BND1      P_G16_T43  174
 UP BND1      P_G17_T43  232
 UP BND1      P_G18_T43  186
 UP BND1      P_G19_T43  253
 BV BND1      U_G0_T44
 BV BND1      U_G1_T44
 BV BND1      U_G2_T44
 BV BND1      U_G3_T44
 BV BND1      U_G4_T44
 BV BND1      U_G5_T44
 BV BND1      U_G6_T44
 BV BND1      U_G7_T44
 BV BND1      U_G8_T44
 BV BND1      U_G9_T44
 BV BND1      U_G10_T44
 BV BND1      U_G11_T44
 BV BND1      U_G12_T44
 BV BND1      U_G13_T44
 BV BND1      U_G14_T44
 BV BND1      U_G15_T44
 BV BND1      U_G16_T44
 BV BND1      U_G17_T44
 BV BND1      U_G18_T44
 BV BND1      U_G19_T44
 UP BND1      P_G0_T44  235
 UP BND1      P_G1_T44  223
 UP BND1      P_G2_T44  214
 UP BND1      P_G3_T44  256
 UP BND1      P_G4_T44  147
 UP BND1      P_G5_T44  215
 UP BND1      P_G6_T44  178
 UP BND1      P_G7_T44  254
 UP BND1      P_G8_T44  203
 UP BND1      P_G9_T44  209
 UP BND1      P_G10_T44  136
 UP BND1      P_G11_T44  299
 UP BND1      P_G12_T44  206
 UP BND1      P_G13_T44  173
 UP BND1      P_G14_T44  243
 UP BND1      P_G15_T44  237
 UP BND1      P_G16_T44  174
 UP BND1      P_G17_T44  232
 UP BND1      P_G18_T44  186
 UP BND1      P_G19_T44  253
 BV BND1      U_G0_T45
 BV BND1      U_G1_T45
 BV BND1      U_G2_T45
 BV BND1      U_G3_T45
 BV BND1      U_G4_T45
 BV BND1      U_G5_T45
 BV BND1      U_G6_T45
 BV BND1      U_G7_T45
 BV BND1      U_G8_T45
 BV BND1      U_G9_T45
 BV BND1      U_G10_T45
 BV BND1      U_G11_T45
 BV BND1      U_G12_T45
 BV BND1      U_G13_T45
 BV BND1      U_G14_T45
 BV BND1      U_G15_T45
 BV BND1      U_G16_T45
 BV BND1      U_G17_T45
 BV BND1      U_G18_T45
 BV BND1      U_G19_T45
 UP BND1      P_G0_T45  235
 UP BND1      P_G1_T45  223
 UP BND1      P_G2_T45  214
 UP BND1      P_G3_T45  256
 UP BND1      P_G4_T45  147
 UP BND1      P_G5_T45  215
 UP BND1      P_G6_T45  178
 UP BND1      P_G7_T45  254
 UP BND1      P_G8_T45  203
 UP BND1      P_G9_T45  209
 UP BND1      P_G10_T45  136
 UP BND1      P_G11_T45  299
 UP BND1      P_G12_T45  206
 UP BND1      P_G13_T45  173
 UP BND1      P_G14_T45  243
 UP BND1      P_G15_T45  237
 UP BND1      P_G16_T45  174
 UP BND1      P_G17_T45  232
 UP BND1      P_G18_T45  186
 UP BND1      P_G19_T45  253
 BV BND1      U_G0_T46
 BV BND1      U_G1_T46
 BV BND1      U_G2_T46
 BV BND1      U_G3_T46
 BV BND1      U_G4_T46
 BV BND1      U_G5_T46
 BV BND1      U_G6_T46
 BV BND1      U_G7_T46
 BV BND1      U_G8_T46
 BV BND1      U_G9_T46
 BV BND1      U_G10_T46
 BV BND1      U_G11_T46
 BV BND1      U_G12_T46
 BV BND1      U_G13_T46
 BV BND1      U_G14_T46
 BV BND1      U_G15_T46
 BV BND1      U_G16_T46
 BV BND1      U_G17_T46
 BV BND1      U_G18_T46
 BV BND1      U_G19_T46
 UP BND1      P_G0_T46  235
 UP BND1      P_G1_T46  223
 UP BND1      P_G2_T46  214
 UP BND1      P_G3_T46  256
 UP BND1      P_G4_T46  147
 UP BND1      P_G5_T46  215
 UP BND1      P_G6_T46  178
 UP BND1      P_G7_T46  254
 UP BND1      P_G8_T46  203
 UP BND1      P_G9_T46  209
 UP BND1      P_G10_T46  136
 UP BND1      P_G11_T46  299
 UP BND1      P_G12_T46  206
 UP BND1      P_G13_T46  173
 UP BND1      P_G14_T46  243
 UP BND1      P_G15_T46  237
 UP BND1      P_G16_T46  174
 UP BND1      P_G17_T46  232
 UP BND1      P_G18_T46  186
 UP BND1      P_G19_T46  253
 BV BND1      U_G0_T47
 BV BND1      U_G1_T47
 BV BND1      U_G2_T47
 BV BND1      U_G3_T47
 BV BND1      U_G4_T47
 BV BND1      U_G5_T47
 BV BND1      U_G6_T47
 BV BND1      U_G7_T47
 BV BND1      U_G8_T47
 BV BND1      U_G9_T47
 BV BND1      U_G10_T47
 BV BND1      U_G11_T47
 BV BND1      U_G12_T47
 BV BND1      U_G13_T47
 BV BND1      U_G14_T47
 BV BND1      U_G15_T47
 BV BND1      U_G16_T47
 BV BND1      U_G17_T47
 BV BND1      U_G18_T47
 BV BND1      U_G19_T47
 UP BND1      P_G0_T47  235
 UP BND1      P_G1_T47  223
 UP BND1      P_G2_T47  214
 UP BND1      P_G3_T47  256
 UP BND1      P_G4_T47  147
 UP BND1      P_G5_T47  215
 UP BND1      P_G6_T47  178
 UP BND1      P_G7_T47  254
 UP BND1      P_G8_T47  203
 UP BND1      P_G9_T47  209
 UP BND1      P_G10_T47  136
 UP BND1      P_G11_T47  299
 UP BND1      P_G12_T47  206
 UP BND1      P_G13_T47  173
 UP BND1      P_G14_T47  243
 UP BND1      P_G15_T47  237
 UP BND1      P_G16_T47  174
 UP BND1      P_G17_T47  232
 UP BND1      P_G18_T47  186
 UP BND1      P_G19_T47  253
ENDATA
