NAME          UNIT_COMMIT_Medium
OBJSENSE
  MIN
ROWS
 N  TOTAL_COST
 E  DEMAND_T0
 G  RESERVE_T0
 L  PMAX_G0_T0
 G  PMIN_G0_T0
 L  PMAX_G1_T0
 G  PMIN_G1_T0
 L  PMAX_G2_T0
 G  PMIN_G2_T0
 L  PMAX_G3_T0
 G  PMIN_G3_T0
 L  PMAX_G4_T0
 G  PMIN_G4_T0
 L  PMAX_G5_T0
 G  PMIN_G5_T0
 L  PMAX_G6_T0
 G  PMIN_G6_T0
 L  PMAX_G7_T0
 G  PMIN_G7_T0
 L  PMAX_G8_T0
 G  PMIN_G8_T0
 L  PMAX_G9_T0
 G  PMIN_G9_T0
 E  DEMAND_T1
 G  RESERVE_T1
 L  PMAX_G0_T1
 G  PMIN_G0_T1
 L  PMAX_G1_T1
 G  PMIN_G1_T1
 L  PMAX_G2_T1
 G  PMIN_G2_T1
 L  PMAX_G3_T1
 G  PMIN_G3_T1
 L  PMAX_G4_T1
 G  PMIN_G4_T1
 L  PMAX_G5_T1
 G  PMIN_G5_T1
 L  PMAX_G6_T1
 G  PMIN_G6_T1
 L  PMAX_G7_T1
 G  PMIN_G7_T1
 L  PMAX_G8_T1
 G  PMIN_G8_T1
 L  PMAX_G9_T1
 G  PMIN_G9_T1
 L  RAMPUP_G0_T1
 L  RAMPDN_G0_T1
 L  RAMPUP_G1_T1
 L  RAMPDN_G1_T1
 L  RAMPUP_G2_T1
 L  RAMPDN_G2_T1
 L  RAMPUP_G3_T1
 L  RAMPDN_G3_T1
 L  RAMPUP_G4_T1
 L  RAMPDN_G4_T1
 L  RAMPUP_G5_T1
 L  RAMPDN_G5_T1
 L  RAMPUP_G6_T1
 L  RAMPDN_G6_T1
 L  RAMPUP_G7_T1
 L  RAMPDN_G7_T1
 L  RAMPUP_G8_T1
 L  RAMPDN_G8_T1
 L  RAMPUP_G9_T1
 L  RAMPDN_G9_T1
 E  DEMAND_T2
 G  RESERVE_T2
 L  PMAX_G0_T2
 G  PMIN_G0_T2
 L  PMAX_G1_T2
 G  PMIN_G1_T2
 L  PMAX_G2_T2
 G  PMIN_G2_T2
 L  PMAX_G3_T2
 G  PMIN_G3_T2
 L  PMAX_G4_T2
 G  PMIN_G4_T2
 L  PMAX_G5_T2
 G  PMIN_G5_T2
 L  PMAX_G6_T2
 G  PMIN_G6_T2
 L  PMAX_G7_T2
 G  PMIN_G7_T2
 L  PMAX_G8_T2
 G  PMIN_G8_T2
 L  PMAX_G9_T2
 G  PMIN_G9_T2
 L  RAMPUP_G0_T2
 L  RAMPDN_G0_T2
 L  RAMPUP_G1_T2
 L  RAMPDN_G1_T2
 L  RAMPUP_G2_T2
 L  RAMPDN_G2_T2
 L  RAMPUP_G3_T2
 L  RAMPDN_G3_T2
 L  RAMPUP_G4_T2
 L  RAMPDN_G4_T2
 L  RAMPUP_G5_T2
 L  RAMPDN_G5_T2
 L  RAMPUP_G6_T2
 L  RAMPDN_G6_T2
 L  RAMPUP_G7_T2
 L  RAMPDN_G7_T2
 L  RAMPUP_G8_T2
 L  RAMPDN_G8_T2
 L  RAMPUP_G9_T2
 L  RAMPDN_G9_T2
 E  DEMAND_T3
 G  RESERVE_T3
 L  PMAX_G0_T3
 G  PMIN_G0_T3
 L  PMAX_G1_T3
 G  PMIN_G1_T3
 L  PMAX_G2_T3
 G  PMIN_G2_T3
 L  PMAX_G3_T3
 G  PMIN_G3_T3
 L  PMAX_G4_T3
 G  PMIN_G4_T3
 L  PMAX_G5_T3
 G  PMIN_G5_T3
 L  PMAX_G6_T3
 G  PMIN_G6_T3
 L  PMAX_G7_T3
 G  PMIN_G7_T3
 L  PMAX_G8_T3
 G  PMIN_G8_T3
 L  PMAX_G9_T3
 G  PMIN_G9_T3
 L  RAMPUP_G0_T3
 L  RAMPDN_G0_T3
 L  RAMPUP_G1_T3
 L  RAMPDN_G1_T3
 L  RAMPUP_G2_T3
 L  RAMPDN_G2_T3
 L  RAMPUP_G3_T3
 L  RAMPDN_G3_T3
 L  RAMPUP_G4_T3
 L  RAMPDN_G4_T3
 L  RAMPUP_G5_T3
 L  RAMPDN_G5_T3
 L  RAMPUP_G6_T3
 L  RAMPDN_G6_T3
 L  RAMPUP_G7_T3
 L  RAMPDN_G7_T3
 L  RAMPUP_G8_T3
 L  RAMPDN_G8_T3
 L  RAMPUP_G9_T3
 L  RAMPDN_G9_T3
 E  DEMAND_T4
 G  RESERVE_T4
 L  PMAX_G0_T4
 G  PMIN_G0_T4
 L  PMAX_G1_T4
 G  PMIN_G1_T4
 L  PMAX_G2_T4
 G  PMIN_G2_T4
 L  PMAX_G3_T4
 G  PMIN_G3_T4
 L  PMAX_G4_T4
 G  PMIN_G4_T4
 L  PMAX_G5_T4
 G  PMIN_G5_T4
 L  PMAX_G6_T4
 G  PMIN_G6_T4
 L  PMAX_G7_T4
 G  PMIN_G7_T4
 L  PMAX_G8_T4
 G  PMIN_G8_T4
 L  PMAX_G9_T4
 G  PMIN_G9_T4
 L  RAMPUP_G0_T4
 L  RAMPDN_G0_T4
 L  RAMPUP_G1_T4
 L  RAMPDN_G1_T4
 L  RAMPUP_G2_T4
 L  RAMPDN_G2_T4
 L  RAMPUP_G3_T4
 L  RAMPDN_G3_T4
 L  RAMPUP_G4_T4
 L  RAMPDN_G4_T4
 L  RAMPUP_G5_T4
 L  RAMPDN_G5_T4
 L  RAMPUP_G6_T4
 L  RAMPDN_G6_T4
 L  RAMPUP_G7_T4
 L  RAMPDN_G7_T4
 L  RAMPUP_G8_T4
 L  RAMPDN_G8_T4
 L  RAMPUP_G9_T4
 L  RAMPDN_G9_T4
 E  DEMAND_T5
 G  RESERVE_T5
 L  PMAX_G0_T5
 G  PMIN_G0_T5
 L  PMAX_G1_T5
 G  PMIN_G1_T5
 L  PMAX_G2_T5
 G  PMIN_G2_T5
 L  PMAX_G3_T5
 G  PMIN_G3_T5
 L  PMAX_G4_T5
 G  PMIN_G4_T5
 L  PMAX_G5_T5
 G  PMIN_G5_T5
 L  PMAX_G6_T5
 G  PMIN_G6_T5
 L  PMAX_G7_T5
 G  PMIN_G7_T5
 L  PMAX_G8_T5
 G  PMIN_G8_T5
 L  PMAX_G9_T5
 G  PMIN_G9_T5
 L  RAMPUP_G0_T5
 L  RAMPDN_G0_T5
 L  RAMPUP_G1_T5
 L  RAMPDN_G1_T5
 L  RAMPUP_G2_T5
 L  RAMPDN_G2_T5
 L  RAMPUP_G3_T5
 L  RAMPDN_G3_T5
 L  RAMPUP_G4_T5
 L  RAMPDN_G4_T5
 L  RAMPUP_G5_T5
 L  RAMPDN_G5_T5
 L  RAMPUP_G6_T5
 L  RAMPDN_G6_T5
 L  RAMPUP_G7_T5
 L  RAMPDN_G7_T5
 L  RAMPUP_G8_T5
 L  RAMPDN_G8_T5
 L  RAMPUP_G9_T5
 L  RAMPDN_G9_T5
 E  DEMAND_T6
 G  RESERVE_T6
 L  PMAX_G0_T6
 G  PMIN_G0_T6
 L  PMAX_G1_T6
 G  PMIN_G1_T6
 L  PMAX_G2_T6
 G  PMIN_G2_T6
 L  PMAX_G3_T6
 G  PMIN_G3_T6
 L  PMAX_G4_T6
 G  PMIN_G4_T6
 L  PMAX_G5_T6
 G  PMIN_G5_T6
 L  PMAX_G6_T6
 G  PMIN_G6_T6
 L  PMAX_G7_T6
 G  PMIN_G7_T6
 L  PMAX_G8_T6
 G  PMIN_G8_T6
 L  PMAX_G9_T6
 G  PMIN_G9_T6
 L  RAMPUP_G0_T6
 L  RAMPDN_G0_T6
 L  RAMPUP_G1_T6
 L  RAMPDN_G1_T6
 L  RAMPUP_G2_T6
 L  RAMPDN_G2_T6
 L  RAMPUP_G3_T6
 L  RAMPDN_G3_T6
 L  RAMPUP_G4_T6
 L  RAMPDN_G4_T6
 L  RAMPUP_G5_T6
 L  RAMPDN_G5_T6
 L  RAMPUP_G6_T6
 L  RAMPDN_G6_T6
 L  RAMPUP_G7_T6
 L  RAMPDN_G7_T6
 L  RAMPUP_G8_T6
 L  RAMPDN_G8_T6
 L  RAMPUP_G9_T6
 L  RAMPDN_G9_T6
 E  DEMAND_T7
 G  RESERVE_T7
 L  PMAX_G0_T7
 G  PMIN_G0_T7
 L  PMAX_G1_T7
 G  PMIN_G1_T7
 L  PMAX_G2_T7
 G  PMIN_G2_T7
 L  PMAX_G3_T7
 G  PMIN_G3_T7
 L  PMAX_G4_T7
 G  PMIN_G4_T7
 L  PMAX_G5_T7
 G  PMIN_G5_T7
 L  PMAX_G6_T7
 G  PMIN_G6_T7
 L  PMAX_G7_T7
 G  PMIN_G7_T7
 L  PMAX_G8_T7
 G  PMIN_G8_T7
 L  PMAX_G9_T7
 G  PMIN_G9_T7
 L  RAMPUP_G0_T7
 L  RAMPDN_G0_T7
 L  RAMPUP_G1_T7
 L  RAMPDN_G1_T7
 L  RAMPUP_G2_T7
 L  RAMPDN_G2_T7
 L  RAMPUP_G3_T7
 L  RAMPDN_G3_T7
 L  RAMPUP_G4_T7
 L  RAMPDN_G4_T7
 L  RAMPUP_G5_T7
 L  RAMPDN_G5_T7
 L  RAMPUP_G6_T7
 L  RAMPDN_G6_T7
 L  RAMPUP_G7_T7
 L  RAMPDN_G7_T7
 L  RAMPUP_G8_T7
 L  RAMPDN_G8_T7
 L  RAMPUP_G9_T7
 L  RAMPDN_G9_T7
 E  DEMAND_T8
 G  RESERVE_T8
 L  PMAX_G0_T8
 G  PMIN_G0_T8
 L  PMAX_G1_T8
 G  PMIN_G1_T8
 L  PMAX_G2_T8
 G  PMIN_G2_T8
 L  PMAX_G3_T8
 G  PMIN_G3_T8
 L  PMAX_G4_T8
 G  PMIN_G4_T8
 L  PMAX_G5_T8
 G  PMIN_G5_T8
 L  PMAX_G6_T8
 G  PMIN_G6_T8
 L  PMAX_G7_T8
 G  PMIN_G7_T8
 L  PMAX_G8_T8
 G  PMIN_G8_T8
 L  PMAX_G9_T8
 G  PMIN_G9_T8
 L  RAMPUP_G0_T8
 L  RAMPDN_G0_T8
 L  RAMPUP_G1_T8
 L  RAMPDN_G1_T8
 L  RAMPUP_G2_T8
 L  RAMPDN_G2_T8
 L  RAMPUP_G3_T8
 L  RAMPDN_G3_T8
 L  RAMPUP_G4_T8
 L  RAMPDN_G4_T8
 L  RAMPUP_G5_T8
 L  RAMPDN_G5_T8
 L  RAMPUP_G6_T8
 L  RAMPDN_G6_T8
 L  RAMPUP_G7_T8
 L  RAMPDN_G7_T8
 L  RAMPUP_G8_T8
 L  RAMPDN_G8_T8
 L  RAMPUP_G9_T8
 L  RAMPDN_G9_T8
 E  DEMAND_T9
 G  RESERVE_T9
 L  PMAX_G0_T9
 G  PMIN_G0_T9
 L  PMAX_G1_T9
 G  PMIN_G1_T9
 L  PMAX_G2_T9
 G  PMIN_G2_T9
 L  PMAX_G3_T9
 G  PMIN_G3_T9
 L  PMAX_G4_T9
 G  PMIN_G4_T9
 L  PMAX_G5_T9
 G  PMIN_G5_T9
 L  PMAX_G6_T9
 G  PMIN_G6_T9
 L  PMAX_G7_T9
 G  PMIN_G7_T9
 L  PMAX_G8_T9
 G  PMIN_G8_T9
 L  PMAX_G9_T9
 G  PMIN_G9_T9
 L  RAMPUP_G0_T9
 L  RAMPDN_G0_T9
 L  RAMPUP_G1_T9
 L  RAMPDN_G1_T9
 L  RAMPUP_G2_T9
 L  RAMPDN_G2_T9
 L  RAMPUP_G3_T9
 L  RAMPDN_G3_T9
 L  RAMPUP_G4_T9
 L  RAMPDN_G4_T9
 L  RAMPUP_G5_T9
 L  RAMPDN_G5_T9
 L  RAMPUP_G6_T9
 L  RAMPDN_G6_T9
 L  RAMPUP_G7_T9
 L  RAMPDN_G7_T9
 L  RAMPUP_G8_T9
 L  RAMPDN_G8_T9
 L  RAMPUP_G9_T9
 L  RAMPDN_G9_T9
 E  DEMAND_T10
 G  RESERVE_T10
 L  PMAX_G0_T10
 G  PMIN_G0_T10
 L  PMAX_G1_T10
 G  PMIN_G1_T10
 L  PMAX_G2_T10
 G  PMIN_G2_T10
 L  PMAX_G3_T10
 G  PMIN_G3_T10
 L  PMAX_G4_T10
 G  PMIN_G4_T10
 L  PMAX_G5_T10
 G  PMIN_G5_T10
 L  PMAX_G6_T10
 G  PMIN_G6_T10
 L  PMAX_G7_T10
 G  PMIN_G7_T10
 L  PMAX_G8_T10
 G  PMIN_G8_T10
 L  PMAX_G9_T10
 G  PMIN_G9_T10
 L  RAMPUP_G0_T10
 L  RAMPDN_G0_T10
 L  RAMPUP_G1_T10
 L  RAMPDN_G1_T10
 L  RAMPUP_G2_T10
 L  RAMPDN_G2_T10
 L  RAMPUP_G3_T10
 L  RAMPDN_G3_T10
 L  RAMPUP_G4_T10
 L  RAMPDN_G4_T10
 L  RAMPUP_G5_T10
 L  RAMPDN_G5_T10
 L  RAMPUP_G6_T10
 L  RAMPDN_G6_T10
 L  RAMPUP_G7_T10
 L  RAMPDN_G7_T10
 L  RAMPUP_G8_T10
 L  RAMPDN_G8_T10
 L  RAMPUP_G9_T10
 L  RAMPDN_G9_T10
 E  DEMAND_T11
 G  RESERVE_T11
 L  PMAX_G0_T11
 G  PMIN_G0_T11
 L  PMAX_G1_T11
 G  PMIN_G1_T11
 L  PMAX_G2_T11
 G  PMIN_G2_T11
 L  PMAX_G3_T11
 G  PMIN_G3_T11
 L  PMAX_G4_T11
 G  PMIN_G4_T11
 L  PMAX_G5_T11
 G  PMIN_G5_T11
 L  PMAX_G6_T11
 G  PMIN_G6_T11
 L  PMAX_G7_T11
 G  PMIN_G7_T11
 L  PMAX_G8_T11
 G  PMIN_G8_T11
 L  PMAX_G9_T11
 G  PMIN_G9_T11
 L  RAMPUP_G0_T11
 L  RAMPDN_G0_T11
 L  RAMPUP_G1_T11
 L  RAMPDN_G1_T11
 L  RAMPUP_G2_T11
 L  RAMPDN_G2_T11
 L  RAMPUP_G3_T11
 L  RAMPDN_G3_T11
 L  RAMPUP_G4_T11
 L  RAMPDN_G4_T11
 L  RAMPUP_G5_T11
 L  RAMPDN_G5_T11
 L  RAMPUP_G6_T11
 L  RAMPDN_G6_T11
 L  RAMPUP_G7_T11
 L  RAMPDN_G7_T11
 L  RAMPUP_G8_T11
 L  RAMPDN_G8_T11
 L  RAMPUP_G9_T11
 L  RAMPDN_G9_T11
 E  DEMAND_T12
 G  RESERVE_T12
 L  PMAX_G0_T12
 G  PMIN_G0_T12
 L  PMAX_G1_T12
 G  PMIN_G1_T12
 L  PMAX_G2_T12
 G  PMIN_G2_T12
 L  PMAX_G3_T12
 G  PMIN_G3_T12
 L  PMAX_G4_T12
 G  PMIN_G4_T12
 L  PMAX_G5_T12
 G  PMIN_G5_T12
 L  PMAX_G6_T12
 G  PMIN_G6_T12
 L  PMAX_G7_T12
 G  PMIN_G7_T12
 L  PMAX_G8_T12
 G  PMIN_G8_T12
 L  PMAX_G9_T12
 G  PMIN_G9_T12
 L  RAMPUP_G0_T12
 L  RAMPDN_G0_T12
 L  RAMPUP_G1_T12
 L  RAMPDN_G1_T12
 L  RAMPUP_G2_T12
 L  RAMPDN_G2_T12
 L  RAMPUP_G3_T12
 L  RAMPDN_G3_T12
 L  RAMPUP_G4_T12
 L  RAMPDN_G4_T12
 L  RAMPUP_G5_T12
 L  RAMPDN_G5_T12
 L  RAMPUP_G6_T12
 L  RAMPDN_G6_T12
 L  RAMPUP_G7_T12
 L  RAMPDN_G7_T12
 L  RAMPUP_G8_T12
 L  RAMPDN_G8_T12
 L  RAMPUP_G9_T12
 L  RAMPDN_G9_T12
 E  DEMAND_T13
 G  RESERVE_T13
 L  PMAX_G0_T13
 G  PMIN_G0_T13
 L  PMAX_G1_T13
 G  PMIN_G1_T13
 L  PMAX_G2_T13
 G  PMIN_G2_T13
 L  PMAX_G3_T13
 G  PMIN_G3_T13
 L  PMAX_G4_T13
 G  PMIN_G4_T13
 L  PMAX_G5_T13
 G  PMIN_G5_T13
 L  PMAX_G6_T13
 G  PMIN_G6_T13
 L  PMAX_G7_T13
 G  PMIN_G7_T13
 L  PMAX_G8_T13
 G  PMIN_G8_T13
 L  PMAX_G9_T13
 G  PMIN_G9_T13
 L  RAMPUP_G0_T13
 L  RAMPDN_G0_T13
 L  RAMPUP_G1_T13
 L  RAMPDN_G1_T13
 L  RAMPUP_G2_T13
 L  RAMPDN_G2_T13
 L  RAMPUP_G3_T13
 L  RAMPDN_G3_T13
 L  RAMPUP_G4_T13
 L  RAMPDN_G4_T13
 L  RAMPUP_G5_T13
 L  RAMPDN_G5_T13
 L  RAMPUP_G6_T13
 L  RAMPDN_G6_T13
 L  RAMPUP_G7_T13
 L  RAMPDN_G7_T13
 L  RAMPUP_G8_T13
 L  RAMPDN_G8_T13
 L  RAMPUP_G9_T13
 L  RAMPDN_G9_T13
 E  DEMAND_T14
 G  RESERVE_T14
 L  PMAX_G0_T14
 G  PMIN_G0_T14
 L  PMAX_G1_T14
 G  PMIN_G1_T14
 L  PMAX_G2_T14
 G  PMIN_G2_T14
 L  PMAX_G3_T14
 G  PMIN_G3_T14
 L  PMAX_G4_T14
 G  PMIN_G4_T14
 L  PMAX_G5_T14
 G  PMIN_G5_T14
 L  PMAX_G6_T14
 G  PMIN_G6_T14
 L  PMAX_G7_T14
 G  PMIN_G7_T14
 L  PMAX_G8_T14
 G  PMIN_G8_T14
 L  PMAX_G9_T14
 G  PMIN_G9_T14
 L  RAMPUP_G0_T14
 L  RAMPDN_G0_T14
 L  RAMPUP_G1_T14
 L  RAMPDN_G1_T14
 L  RAMPUP_G2_T14
 L  RAMPDN_G2_T14
 L  RAMPUP_G3_T14
 L  RAMPDN_G3_T14
 L  RAMPUP_G4_T14
 L  RAMPDN_G4_T14
 L  RAMPUP_G5_T14
 L  RAMPDN_G5_T14
 L  RAMPUP_G6_T14
 L  RAMPDN_G6_T14
 L  RAMPUP_G7_T14
 L  RAMPDN_G7_T14
 L  RAMPUP_G8_T14
 L  RAMPDN_G8_T14
 L  RAMPUP_G9_T14
 L  RAMPDN_G9_T14
 E  DEMAND_T15
 G  RESERVE_T15
 L  PMAX_G0_T15
 G  PMIN_G0_T15
 L  PMAX_G1_T15
 G  PMIN_G1_T15
 L  PMAX_G2_T15
 G  PMIN_G2_T15
 L  PMAX_G3_T15
 G  PMIN_G3_T15
 L  PMAX_G4_T15
 G  PMIN_G4_T15
 L  PMAX_G5_T15
 G  PMIN_G5_T15
 L  PMAX_G6_T15
 G  PMIN_G6_T15
 L  PMAX_G7_T15
 G  PMIN_G7_T15
 L  PMAX_G8_T15
 G  PMIN_G8_T15
 L  PMAX_G9_T15
 G  PMIN_G9_T15
 L  RAMPUP_G0_T15
 L  RAMPDN_G0_T15
 L  RAMPUP_G1_T15
 L  RAMPDN_G1_T15
 L  RAMPUP_G2_T15
 L  RAMPDN_G2_T15
 L  RAMPUP_G3_T15
 L  RAMPDN_G3_T15
 L  RAMPUP_G4_T15
 L  RAMPDN_G4_T15
 L  RAMPUP_G5_T15
 L  RAMPDN_G5_T15
 L  RAMPUP_G6_T15
 L  RAMPDN_G6_T15
 L  RAMPUP_G7_T15
 L  RAMPDN_G7_T15
 L  RAMPUP_G8_T15
 L  RAMPDN_G8_T15
 L  RAMPUP_G9_T15
 L  RAMPDN_G9_T15
 E  DEMAND_T16
 G  RESERVE_T16
 L  PMAX_G0_T16
 G  PMIN_G0_T16
 L  PMAX_G1_T16
 G  PMIN_G1_T16
 L  PMAX_G2_T16
 G  PMIN_G2_T16
 L  PMAX_G3_T16
 G  PMIN_G3_T16
 L  PMAX_G4_T16
 G  PMIN_G4_T16
 L  PMAX_G5_T16
 G  PMIN_G5_T16
 L  PMAX_G6_T16
 G  PMIN_G6_T16
 L  PMAX_G7_T16
 G  PMIN_G7_T16
 L  PMAX_G8_T16
 G  PMIN_G8_T16
 L  PMAX_G9_T16
 G  PMIN_G9_T16
 L  RAMPUP_G0_T16
 L  RAMPDN_G0_T16
 L  RAMPUP_G1_T16
 L  RAMPDN_G1_T16
 L  RAMPUP_G2_T16
 L  RAMPDN_G2_T16
 L  RAMPUP_G3_T16
 L  RAMPDN_G3_T16
 L  RAMPUP_G4_T16
 L  RAMPDN_G4_T16
 L  RAMPUP_G5_T16
 L  RAMPDN_G5_T16
 L  RAMPUP_G6_T16
 L  RAMPDN_G6_T16
 L  RAMPUP_G7_T16
 L  RAMPDN_G7_T16
 L  RAMPUP_G8_T16
 L  RAMPDN_G8_T16
 L  RAMPUP_G9_T16
 L  RAMPDN_G9_T16
 E  DEMAND_T17
 G  RESERVE_T17
 L  PMAX_G0_T17
 G  PMIN_G0_T17
 L  PMAX_G1_T17
 G  PMIN_G1_T17
 L  PMAX_G2_T17
 G  PMIN_G2_T17
 L  PMAX_G3_T17
 G  PMIN_G3_T17
 L  PMAX_G4_T17
 G  PMIN_G4_T17
 L  PMAX_G5_T17
 G  PMIN_G5_T17
 L  PMAX_G6_T17
 G  PMIN_G6_T17
 L  PMAX_G7_T17
 G  PMIN_G7_T17
 L  PMAX_G8_T17
 G  PMIN_G8_T17
 L  PMAX_G9_T17
 G  PMIN_G9_T17
 L  RAMPUP_G0_T17
 L  RAMPDN_G0_T17
 L  RAMPUP_G1_T17
 L  RAMPDN_G1_T17
 L  RAMPUP_G2_T17
 L  RAMPDN_G2_T17
 L  RAMPUP_G3_T17
 L  RAMPDN_G3_T17
 L  RAMPUP_G4_T17
 L  RAMPDN_G4_T17
 L  RAMPUP_G5_T17
 L  RAMPDN_G5_T17
 L  RAMPUP_G6_T17
 L  RAMPDN_G6_T17
 L  RAMPUP_G7_T17
 L  RAMPDN_G7_T17
 L  RAMPUP_G8_T17
 L  RAMPDN_G8_T17
 L  RAMPUP_G9_T17
 L  RAMPDN_G9_T17
 E  DEMAND_T18
 G  RESERVE_T18
 L  PMAX_G0_T18
 G  PMIN_G0_T18
 L  PMAX_G1_T18
 G  PMIN_G1_T18
 L  PMAX_G2_T18
 G  PMIN_G2_T18
 L  PMAX_G3_T18
 G  PMIN_G3_T18
 L  PMAX_G4_T18
 G  PMIN_G4_T18
 L  PMAX_G5_T18
 G  PMIN_G5_T18
 L  PMAX_G6_T18
 G  PMIN_G6_T18
 L  PMAX_G7_T18
 G  PMIN_G7_T18
 L  PMAX_G8_T18
 G  PMIN_G8_T18
 L  PMAX_G9_T18
 G  PMIN_G9_T18
 L  RAMPUP_G0_T18
 L  RAMPDN_G0_T18
 L  RAMPUP_G1_T18
 L  RAMPDN_G1_T18
 L  RAMPUP_G2_T18
 L  RAMPDN_G2_T18
 L  RAMPUP_G3_T18
 L  RAMPDN_G3_T18
 L  RAMPUP_G4_T18
 L  RAMPDN_G4_T18
 L  RAMPUP_G5_T18
 L  RAMPDN_G5_T18
 L  RAMPUP_G6_T18
 L  RAMPDN_G6_T18
 L  RAMPUP_G7_T18
 L  RAMPDN_G7_T18
 L  RAMPUP_G8_T18
 L  RAMPDN_G8_T18
 L  RAMPUP_G9_T18
 L  RAMPDN_G9_T18
 E  DEMAND_T19
 G  RESERVE_T19
 L  PMAX_G0_T19
 G  PMIN_G0_T19
 L  PMAX_G1_T19
 G  PMIN_G1_T19
 L  PMAX_G2_T19
 G  PMIN_G2_T19
 L  PMAX_G3_T19
 G  PMIN_G3_T19
 L  PMAX_G4_T19
 G  PMIN_G4_T19
 L  PMAX_G5_T19
 G  PMIN_G5_T19
 L  PMAX_G6_T19
 G  PMIN_G6_T19
 L  PMAX_G7_T19
 G  PMIN_G7_T19
 L  PMAX_G8_T19
 G  PMIN_G8_T19
 L  PMAX_G9_T19
 G  PMIN_G9_T19
 L  RAMPUP_G0_T19
 L  RAMPDN_G0_T19
 L  RAMPUP_G1_T19
 L  RAMPDN_G1_T19
 L  RAMPUP_G2_T19
 L  RAMPDN_G2_T19
 L  RAMPUP_G3_T19
 L  RAMPDN_G3_T19
 L  RAMPUP_G4_T19
 L  RAMPDN_G4_T19
 L  RAMPUP_G5_T19
 L  RAMPDN_G5_T19
 L  RAMPUP_G6_T19
 L  RAMPDN_G6_T19
 L  RAMPUP_G7_T19
 L  RAMPDN_G7_T19
 L  RAMPUP_G8_T19
 L  RAMPDN_G8_T19
 L  RAMPUP_G9_T19
 L  RAMPDN_G9_T19
 E  DEMAND_T20
 G  RESERVE_T20
 L  PMAX_G0_T20
 G  PMIN_G0_T20
 L  PMAX_G1_T20
 G  PMIN_G1_T20
 L  PMAX_G2_T20
 G  PMIN_G2_T20
 L  PMAX_G3_T20
 G  PMIN_G3_T20
 L  PMAX_G4_T20
 G  PMIN_G4_T20
 L  PMAX_G5_T20
 G  PMIN_G5_T20
 L  PMAX_G6_T20
 G  PMIN_G6_T20
 L  PMAX_G7_T20
 G  PMIN_G7_T20
 L  PMAX_G8_T20
 G  PMIN_G8_T20
 L  PMAX_G9_T20
 G  PMIN_G9_T20
 L  RAMPUP_G0_T20
 L  RAMPDN_G0_T20
 L  RAMPUP_G1_T20
 L  RAMPDN_G1_T20
 L  RAMPUP_G2_T20
 L  RAMPDN_G2_T20
 L  RAMPUP_G3_T20
 L  RAMPDN_G3_T20
 L  RAMPUP_G4_T20
 L  RAMPDN_G4_T20
 L  RAMPUP_G5_T20
 L  RAMPDN_G5_T20
 L  RAMPUP_G6_T20
 L  RAMPDN_G6_T20
 L  RAMPUP_G7_T20
 L  RAMPDN_G7_T20
 L  RAMPUP_G8_T20
 L  RAMPDN_G8_T20
 L  RAMPUP_G9_T20
 L  RAMPDN_G9_T20
 E  DEMAND_T21
 G  RESERVE_T21
 L  PMAX_G0_T21
 G  PMIN_G0_T21
 L  PMAX_G1_T21
 G  PMIN_G1_T21
 L  PMAX_G2_T21
 G  PMIN_G2_T21
 L  PMAX_G3_T21
 G  PMIN_G3_T21
 L  PMAX_G4_T21
 G  PMIN_G4_T21
 L  PMAX_G5_T21
 G  PMIN_G5_T21
 L  PMAX_G6_T21
 G  PMIN_G6_T21
 L  PMAX_G7_T21
 G  PMIN_G7_T21
 L  PMAX_G8_T21
 G  PMIN_G8_T21
 L  PMAX_G9_T21
 G  PMIN_G9_T21
 L  RAMPUP_G0_T21
 L  RAMPDN_G0_T21
 L  RAMPUP_G1_T21
 L  RAMPDN_G1_T21
 L  RAMPUP_G2_T21
 L  RAMPDN_G2_T21
 L  RAMPUP_G3_T21
 L  RAMPDN_G3_T21
 L  RAMPUP_G4_T21
 L  RAMPDN_G4_T21
 L  RAMPUP_G5_T21
 L  RAMPDN_G5_T21
 L  RAMPUP_G6_T21
 L  RAMPDN_G6_T21
 L  RAMPUP_G7_T21
 L  RAMPDN_G7_T21
 L  RAMPUP_G8_T21
 L  RAMPDN_G8_T21
 L  RAMPUP_G9_T21
 L  RAMPDN_G9_T21
 E  DEMAND_T22
 G  RESERVE_T22
 L  PMAX_G0_T22
 G  PMIN_G0_T22
 L  PMAX_G1_T22
 G  PMIN_G1_T22
 L  PMAX_G2_T22
 G  PMIN_G2_T22
 L  PMAX_G3_T22
 G  PMIN_G3_T22
 L  PMAX_G4_T22
 G  PMIN_G4_T22
 L  PMAX_G5_T22
 G  PMIN_G5_T22
 L  PMAX_G6_T22
 G  PMIN_G6_T22
 L  PMAX_G7_T22
 G  PMIN_G7_T22
 L  PMAX_G8_T22
 G  PMIN_G8_T22
 L  PMAX_G9_T22
 G  PMIN_G9_T22
 L  RAMPUP_G0_T22
 L  RAMPDN_G0_T22
 L  RAMPUP_G1_T22
 L  RAMPDN_G1_T22
 L  RAMPUP_G2_T22
 L  RAMPDN_G2_T22
 L  RAMPUP_G3_T22
 L  RAMPDN_G3_T22
 L  RAMPUP_G4_T22
 L  RAMPDN_G4_T22
 L  RAMPUP_G5_T22
 L  RAMPDN_G5_T22
 L  RAMPUP_G6_T22
 L  RAMPDN_G6_T22
 L  RAMPUP_G7_T22
 L  RAMPDN_G7_T22
 L  RAMPUP_G8_T22
 L  RAMPDN_G8_T22
 L  RAMPUP_G9_T22
 L  RAMPDN_G9_T22
 E  DEMAND_T23
 G  RESERVE_T23
 L  PMAX_G0_T23
 G  PMIN_G0_T23
 L  PMAX_G1_T23
 G  PMIN_G1_T23
 L  PMAX_G2_T23
 G  PMIN_G2_T23
 L  PMAX_G3_T23
 G  PMIN_G3_T23
 L  PMAX_G4_T23
 G  PMIN_G4_T23
 L  PMAX_G5_T23
 G  PMIN_G5_T23
 L  PMAX_G6_T23
 G  PMIN_G6_T23
 L  PMAX_G7_T23
 G  PMIN_G7_T23
 L  PMAX_G8_T23
 G  PMIN_G8_T23
 L  PMAX_G9_T23
 G  PMIN_G9_T23
 L  RAMPUP_G0_T23
 L  RAMPDN_G0_T23
 L  RAMPUP_G1_T23
 L  RAMPDN_G1_T23
 L  RAMPUP_G2_T23
 L  RAMPDN_G2_T23
 L  RAMPUP_G3_T23
 L  RAMPDN_G3_T23
 L  RAMPUP_G4_T23
 L  RAMPDN_G4_T23
 L  RAMPUP_G5_T23
 L  RAMPDN_G5_T23
 L  RAMPUP_G6_T23
 L  RAMPDN_G6_T23
 L  RAMPUP_G7_T23
 L  RAMPDN_G7_T23
 L  RAMPUP_G8_T23
 L  RAMPDN_G8_T23
 L  RAMPUP_G9_T23
 L  RAMPDN_G9_T23
COLUMNS
    MARK0000  'MARKER'                 'INTORG'
    U_G0_T0   TOTAL_COST  141
    U_G0_T0   RESERVE_T0  235
    U_G0_T0   PMAX_G0_T0  -235
    U_G0_T0   PMIN_G0_T0  -65
    MARK1000  'MARKER'                 'INTEND'
    MARK2000  'MARKER'                 'INTORG'
    U_G1_T0   TOTAL_COST  182
    U_G1_T0   RESERVE_T0  223
    U_G1_T0   PMAX_G1_T0  -223
    U_G1_T0   PMIN_G1_T0  -26
    MARK3000  'MARKER'                 'INTEND'
    MARK4000  'MARKER'                 'INTORG'
    U_G2_T0   TOTAL_COST  291
    U_G2_T0   RESERVE_T0  214
    U_G2_T0   PMAX_G2_T0  -214
    U_G2_T0   PMIN_G2_T0  -21
    MARK5000  'MARKER'                 'INTEND'
    MARK6000  'MARKER'                 'INTORG'
    U_G3_T0   TOTAL_COST  114
    U_G3_T0   RESERVE_T0  256
    U_G3_T0   PMAX_G3_T0  -256
    U_G3_T0   PMIN_G3_T0  -77
    MARK7000  'MARKER'                 'INTEND'
    MARK8000  'MARKER'                 'INTORG'
    U_G4_T0   TOTAL_COST  130
    U_G4_T0   RESERVE_T0  147
    U_G4_T0   PMAX_G4_T0  -147
    U_G4_T0   PMIN_G4_T0  -65
    MARK9000  'MARKER'                 'INTEND'
    MARK1000  'MARKER'                 'INTORG'
    U_G5_T0   TOTAL_COST  332
    U_G5_T0   RESERVE_T0  215
    U_G5_T0   PMAX_G5_T0  -215
    U_G5_T0   PMIN_G5_T0  -26
    MARK1100  'MARKER'                 'INTEND'
    MARK1200  'MARKER'                 'INTORG'
    U_G6_T0   TOTAL_COST  341
    U_G6_T0   RESERVE_T0  178
    U_G6_T0   PMAX_G6_T0  -178
    U_G6_T0   PMIN_G6_T0  -65
    MARK1300  'MARKER'                 'INTEND'
    MARK1400  'MARKER'                 'INTORG'
    U_G7_T0   TOTAL_COST  189
    U_G7_T0   RESERVE_T0  254
    U_G7_T0   PMAX_G7_T0  -254
    U_G7_T0   PMIN_G7_T0  -76
    MARK1500  'MARKER'                 'INTEND'
    MARK1600  'MARKER'                 'INTORG'
    U_G8_T0   TOTAL_COST  247
    U_G8_T0   RESERVE_T0  203
    U_G8_T0   PMAX_G8_T0  -203
    U_G8_T0   PMIN_G8_T0  -62
    MARK1700  'MARKER'                 'INTEND'
    MARK1800  'MARKER'                 'INTORG'
    U_G9_T0   TOTAL_COST  300
    U_G9_T0   RESERVE_T0  209
    U_G9_T0   PMAX_G9_T0  -209
    U_G9_T0   PMIN_G9_T0  -56
    MARK1900  'MARKER'                 'INTEND'
    P_G0_T0   TOTAL_COST  50.1
    P_G0_T0   DEMAND_T0  1
    P_G0_T0   PMAX_G0_T0  1
    P_G0_T0   PMIN_G0_T0  1
    P_G0_T0   RAMPUP_G0_T1  -1
    P_G0_T0   RAMPDN_G0_T1  1
    P_G1_T0   TOTAL_COST  34.9
    P_G1_T0   DEMAND_T0  1
    P_G1_T0   PMAX_G1_T0  1
    P_G1_T0   PMIN_G1_T0  1
    P_G1_T0   RAMPUP_G1_T1  -1
    P_G1_T0   RAMPDN_G1_T1  1
    P_G2_T0   TOTAL_COST  47.4
    P_G2_T0   DEMAND_T0  1
    P_G2_T0   PMAX_G2_T0  1
    P_G2_T0   PMIN_G2_T0  1
    P_G2_T0   RAMPUP_G2_T1  -1
    P_G2_T0   RAMPDN_G2_T1  1
    P_G3_T0   TOTAL_COST  38
    P_G3_T0   DEMAND_T0  1
    P_G3_T0   PMAX_G3_T0  1
    P_G3_T0   PMIN_G3_T0  1
    P_G3_T0   RAMPUP_G3_T1  -1
    P_G3_T0   RAMPDN_G3_T1  1
    P_G4_T0   TOTAL_COST  37
    P_G4_T0   DEMAND_T0  1
    P_G4_T0   PMAX_G4_T0  1
    P_G4_T0   PMIN_G4_T0  1
    P_G4_T0   RAMPUP_G4_T1  -1
    P_G4_T0   RAMPDN_G4_T1  1
    P_G5_T0   TOTAL_COST  37.8
    P_G5_T0   DEMAND_T0  1
    P_G5_T0   PMAX_G5_T0  1
    P_G5_T0   PMIN_G5_T0  1
    P_G5_T0   RAMPUP_G5_T1  -1
    P_G5_T0   RAMPDN_G5_T1  1
    P_G6_T0   TOTAL_COST  50
    P_G6_T0   DEMAND_T0  1
    P_G6_T0   PMAX_G6_T0  1
    P_G6_T0   PMIN_G6_T0  1
    P_G6_T0   RAMPUP_G6_T1  -1
    P_G6_T0   RAMPDN_G6_T1  1
    P_G7_T0   TOTAL_COST  36.6
    P_G7_T0   DEMAND_T0  1
    P_G7_T0   PMAX_G7_T0  1
    P_G7_T0   PMIN_G7_T0  1
    P_G7_T0   RAMPUP_G7_T1  -1
    P_G7_T0   RAMPDN_G7_T1  1
    P_G8_T0   TOTAL_COST  41.5
    P_G8_T0   DEMAND_T0  1
    P_G8_T0   PMAX_G8_T0  1
    P_G8_T0   PMIN_G8_T0  1
    P_G8_T0   RAMPUP_G8_T1  -1
    P_G8_T0   RAMPDN_G8_T1  1
    P_G9_T0   TOTAL_COST  35.4
    P_G9_T0   DEMAND_T0  1
    P_G9_T0   PMAX_G9_T0  1
    P_G9_T0   PMIN_G9_T0  1
    P_G9_T0   RAMPUP_G9_T1  -1
    P_G9_T0   RAMPDN_G9_T1  1
    MARK2000  'MARKER'                 'INTORG'
    U_G0_T1   TOTAL_COST  141
    U_G0_T1   RESERVE_T1  235
    U_G0_T1   PMAX_G0_T1  -235
    U_G0_T1   PMIN_G0_T1  -65
    MARK2100  'MARKER'                 'INTEND'
    MARK2200  'MARKER'                 'INTORG'
    U_G1_T1   TOTAL_COST  182
    U_G1_T1   RESERVE_T1  223
    U_G1_T1   PMAX_G1_T1  -223
    U_G1_T1   PMIN_G1_T1  -26
    MARK2300  'MARKER'                 'INTEND'
    MARK2400  'MARKER'                 'INTORG'
    U_G2_T1   TOTAL_COST  291
    U_G2_T1   RESERVE_T1  214
    U_G2_T1   PMAX_G2_T1  -214
    U_G2_T1   PMIN_G2_T1  -21
    MARK2500  'MARKER'                 'INTEND'
    MARK2600  'MARKER'                 'INTORG'
    U_G3_T1   TOTAL_COST  114
    U_G3_T1   RESERVE_T1  256
    U_G3_T1   PMAX_G3_T1  -256
    U_G3_T1   PMIN_G3_T1  -77
    MARK2700  'MARKER'                 'INTEND'
    MARK2800  'MARKER'                 'INTORG'
    U_G4_T1   TOTAL_COST  130
    U_G4_T1   RESERVE_T1  147
    U_G4_T1   PMAX_G4_T1  -147
    U_G4_T1   PMIN_G4_T1  -65
    MARK2900  'MARKER'                 'INTEND'
    MARK3000  'MARKER'                 'INTORG'
    U_G5_T1   TOTAL_COST  332
    U_G5_T1   RESERVE_T1  215
    U_G5_T1   PMAX_G5_T1  -215
    U_G5_T1   PMIN_G5_T1  -26
    MARK3100  'MARKER'                 'INTEND'
    MARK3200  'MARKER'                 'INTORG'
    U_G6_T1   TOTAL_COST  341
    U_G6_T1   RESERVE_T1  178
    U_G6_T1   PMAX_G6_T1  -178
    U_G6_T1   PMIN_G6_T1  -65
    MARK3300  'MARKER'                 'INTEND'
    MARK3400  'MARKER'                 'INTORG'
    U_G7_T1   TOTAL_COST  189
    U_G7_T1   RESERVE_T1  254
    U_G7_T1   PMAX_G7_T1  -254
    U_G7_T1   PMIN_G7_T1  -76
    MARK3500  'MARKER'                 'INTEND'
    MARK3600  'MARKER'                 'INTORG'
    U_G8_T1   TOTAL_COST  247
    U_G8_T1   RESERVE_T1  203
    U_G8_T1   PMAX_G8_T1  -203
    U_G8_T1   PMIN_G8_T1  -62
    MARK3700  'MARKER'                 'INTEND'
    MARK3800  'MARKER'                 'INTORG'
    U_G9_T1   TOTAL_COST  300
    U_G9_T1   RESERVE_T1  209
    U_G9_T1   PMAX_G9_T1  -209
    U_G9_T1   PMIN_G9_T1  -56
    MARK3900  'MARKER'                 'INTEND'
    P_G0_T1   TOTAL_COST  50.1
    P_G0_T1   DEMAND_T1  1
    P_G0_T1   PMAX_G0_T1  1
    P_G0_T1   PMIN_G0_T1  1
    P_G0_T1   RAMPUP_G0_T1  1
    P_G0_T1   RAMPDN_G0_T1  -1
    P_G0_T1   RAMPUP_G0_T2  -1
    P_G0_T1   RAMPDN_G0_T2  1
    P_G1_T1   TOTAL_COST  34.9
    P_G1_T1   DEMAND_T1  1
    P_G1_T1   PMAX_G1_T1  1
    P_G1_T1   PMIN_G1_T1  1
    P_G1_T1   RAMPUP_G1_T1  1
    P_G1_T1   RAMPDN_G1_T1  -1
    P_G1_T1   RAMPUP_G1_T2  -1
    P_G1_T1   RAMPDN_G1_T2  1
    P_G2_T1   TOTAL_COST  47.4
    P_G2_T1   DEMAND_T1  1
    P_G2_T1   PMAX_G2_T1  1
    P_G2_T1   PMIN_G2_T1  1
    P_G2_T1   RAMPUP_G2_T1  1
    P_G2_T1   RAMPDN_G2_T1  -1
    P_G2_T1   RAMPUP_G2_T2  -1
    P_G2_T1   RAMPDN_G2_T2  1
    P_G3_T1   TOTAL_COST  38
    P_G3_T1   DEMAND_T1  1
    P_G3_T1   PMAX_G3_T1  1
    P_G3_T1   PMIN_G3_T1  1
    P_G3_T1   RAMPUP_G3_T1  1
    P_G3_T1   RAMPDN_G3_T1  -1
    P_G3_T1   RAMPUP_G3_T2  -1
    P_G3_T1   RAMPDN_G3_T2  1
    P_G4_T1   TOTAL_COST  37
    P_G4_T1   DEMAND_T1  1
    P_G4_T1   PMAX_G4_T1  1
    P_G4_T1   PMIN_G4_T1  1
    P_G4_T1   RAMPUP_G4_T1  1
    P_G4_T1   RAMPDN_G4_T1  -1
    P_G4_T1   RAMPUP_G4_T2  -1
    P_G4_T1   RAMPDN_G4_T2  1
    P_G5_T1   TOTAL_COST  37.8
    P_G5_T1   DEMAND_T1  1
    P_G5_T1   PMAX_G5_T1  1
    P_G5_T1   PMIN_G5_T1  1
    P_G5_T1   RAMPUP_G5_T1  1
    P_G5_T1   RAMPDN_G5_T1  -1
    P_G5_T1   RAMPUP_G5_T2  -1
    P_G5_T1   RAMPDN_G5_T2  1
    P_G6_T1   TOTAL_COST  50
    P_G6_T1   DEMAND_T1  1
    P_G6_T1   PMAX_G6_T1  1
    P_G6_T1   PMIN_G6_T1  1
    P_G6_T1   RAMPUP_G6_T1  1
    P_G6_T1   RAMPDN_G6_T1  -1
    P_G6_T1   RAMPUP_G6_T2  -1
    P_G6_T1   RAMPDN_G6_T2  1
    P_G7_T1   TOTAL_COST  36.6
    P_G7_T1   DEMAND_T1  1
    P_G7_T1   PMAX_G7_T1  1
    P_G7_T1   PMIN_G7_T1  1
    P_G7_T1   RAMPUP_G7_T1  1
    P_G7_T1   RAMPDN_G7_T1  -1
    P_G7_T1   RAMPUP_G7_T2  -1
    P_G7_T1   RAMPDN_G7_T2  1
    P_G8_T1   TOTAL_COST  41.5
    P_G8_T1   DEMAND_T1  1
    P_G8_T1   PMAX_G8_T1  1
    P_G8_T1   PMIN_G8_T1  1
    P_G8_T1   RAMPUP_G8_T1  1
    P_G8_T1   RAMPDN_G8_T1  -1
    P_G8_T1   RAMPUP_G8_T2  -1
    P_G8_T1   RAMPDN_G8_T2  1
    P_G9_T1   TOTAL_COST  35.4
    P_G9_T1   DEMAND_T1  1
    P_G9_T1   PMAX_G9_T1  1
    P_G9_T1   PMIN_G9_T1  1
    P_G9_T1   RAMPUP_G9_T1  1
    P_G9_T1   RAMPDN_G9_T1  -1
    P_G9_T1   RAMPUP_G9_T2  -1
    P_G9_T1   RAMPDN_G9_T2  1
    MARK4000  'MARKER'                 'INTORG'
    U_G0_T2   TOTAL_COST  141
    U_G0_T2   RESERVE_T2  235
    U_G0_T2   PMAX_G0_T2  -235
    U_G0_T2   PMIN_G0_T2  -65
    MARK4100  'MARKER'                 'INTEND'
    MARK4200  'MARKER'                 'INTORG'
    U_G1_T2   TOTAL_COST  182
    U_G1_T2   RESERVE_T2  223
    U_G1_T2   PMAX_G1_T2  -223
    U_G1_T2   PMIN_G1_T2  -26
    MARK4300  'MARKER'                 'INTEND'
    MARK4400  'MARKER'                 'INTORG'
    U_G2_T2   TOTAL_COST  291
    U_G2_T2   RESERVE_T2  214
    U_G2_T2   PMAX_G2_T2  -214
    U_G2_T2   PMIN_G2_T2  -21
    MARK4500  'MARKER'                 'INTEND'
    MARK4600  'MARKER'                 'INTORG'
    U_G3_T2   TOTAL_COST  114
    U_G3_T2   RESERVE_T2  256
    U_G3_T2   PMAX_G3_T2  -256
    U_G3_T2   PMIN_G3_T2  -77
    MARK4700  'MARKER'                 'INTEND'
    MARK4800  'MARKER'                 'INTORG'
    U_G4_T2   TOTAL_COST  130
    U_G4_T2   RESERVE_T2  147
    U_G4_T2   PMAX_G4_T2  -147
    U_G4_T2   PMIN_G4_T2  -65
    MARK4900  'MARKER'                 'INTEND'
    MARK5000  'MARKER'                 'INTORG'
    U_G5_T2   TOTAL_COST  332
    U_G5_T2   RESERVE_T2  215
    U_G5_T2   PMAX_G5_T2  -215
    U_G5_T2   PMIN_G5_T2  -26
    MARK5100  'MARKER'                 'INTEND'
    MARK5200  'MARKER'                 'INTORG'
    U_G6_T2   TOTAL_COST  341
    U_G6_T2   RESERVE_T2  178
    U_G6_T2   PMAX_G6_T2  -178
    U_G6_T2   PMIN_G6_T2  -65
    MARK5300  'MARKER'                 'INTEND'
    MARK5400  'MARKER'                 'INTORG'
    U_G7_T2   TOTAL_COST  189
    U_G7_T2   RESERVE_T2  254
    U_G7_T2   PMAX_G7_T2  -254
    U_G7_T2   PMIN_G7_T2  -76
    MARK5500  'MARKER'                 'INTEND'
    MARK5600  'MARKER'                 'INTORG'
    U_G8_T2   TOTAL_COST  247
    U_G8_T2   RESERVE_T2  203
    U_G8_T2   PMAX_G8_T2  -203
    U_G8_T2   PMIN_G8_T2  -62
    MARK5700  'MARKER'                 'INTEND'
    MARK5800  'MARKER'                 'INTORG'
    U_G9_T2   TOTAL_COST  300
    U_G9_T2   RESERVE_T2  209
    U_G9_T2   PMAX_G9_T2  -209
    U_G9_T2   PMIN_G9_T2  -56
    MARK5900  'MARKER'                 'INTEND'
    P_G0_T2   TOTAL_COST  50.1
    P_G0_T2   DEMAND_T2  1
    P_G0_T2   PMAX_G0_T2  1
    P_G0_T2   PMIN_G0_T2  1
    P_G0_T2   RAMPUP_G0_T2  1
    P_G0_T2   RAMPDN_G0_T2  -1
    P_G0_T2   RAMPUP_G0_T3  -1
    P_G0_T2   RAMPDN_G0_T3  1
    P_G1_T2   TOTAL_COST  34.9
    P_G1_T2   DEMAND_T2  1
    P_G1_T2   PMAX_G1_T2  1
    P_G1_T2   PMIN_G1_T2  1
    P_G1_T2   RAMPUP_G1_T2  1
    P_G1_T2   RAMPDN_G1_T2  -1
    P_G1_T2   RAMPUP_G1_T3  -1
    P_G1_T2   RAMPDN_G1_T3  1
    P_G2_T2   TOTAL_COST  47.4
    P_G2_T2   DEMAND_T2  1
    P_G2_T2   PMAX_G2_T2  1
    P_G2_T2   PMIN_G2_T2  1
    P_G2_T2   RAMPUP_G2_T2  1
    P_G2_T2   RAMPDN_G2_T2  -1
    P_G2_T2   RAMPUP_G2_T3  -1
    P_G2_T2   RAMPDN_G2_T3  1
    P_G3_T2   TOTAL_COST  38
    P_G3_T2   DEMAND_T2  1
    P_G3_T2   PMAX_G3_T2  1
    P_G3_T2   PMIN_G3_T2  1
    P_G3_T2   RAMPUP_G3_T2  1
    P_G3_T2   RAMPDN_G3_T2  -1
    P_G3_T2   RAMPUP_G3_T3  -1
    P_G3_T2   RAMPDN_G3_T3  1
    P_G4_T2   TOTAL_COST  37
    P_G4_T2   DEMAND_T2  1
    P_G4_T2   PMAX_G4_T2  1
    P_G4_T2   PMIN_G4_T2  1
    P_G4_T2   RAMPUP_G4_T2  1
    P_G4_T2   RAMPDN_G4_T2  -1
    P_G4_T2   RAMPUP_G4_T3  -1
    P_G4_T2   RAMPDN_G4_T3  1
    P_G5_T2   TOTAL_COST  37.8
    P_G5_T2   DEMAND_T2  1
    P_G5_T2   PMAX_G5_T2  1
    P_G5_T2   PMIN_G5_T2  1
    P_G5_T2   RAMPUP_G5_T2  1
    P_G5_T2   RAMPDN_G5_T2  -1
    P_G5_T2   RAMPUP_G5_T3  -1
    P_G5_T2   RAMPDN_G5_T3  1
    P_G6_T2   TOTAL_COST  50
    P_G6_T2   DEMAND_T2  1
    P_G6_T2   PMAX_G6_T2  1
    P_G6_T2   PMIN_G6_T2  1
    P_G6_T2   RAMPUP_G6_T2  1
    P_G6_T2   RAMPDN_G6_T2  -1
    P_G6_T2   RAMPUP_G6_T3  -1
    P_G6_T2   RAMPDN_G6_T3  1
    P_G7_T2   TOTAL_COST  36.6
    P_G7_T2   DEMAND_T2  1
    P_G7_T2   PMAX_G7_T2  1
    P_G7_T2   PMIN_G7_T2  1
    P_G7_T2   RAMPUP_G7_T2  1
    P_G7_T2   RAMPDN_G7_T2  -1
    P_G7_T2   RAMPUP_G7_T3  -1
    P_G7_T2   RAMPDN_G7_T3  1
    P_G8_T2   TOTAL_COST  41.5
    P_G8_T2   DEMAND_T2  1
    P_G8_T2   PMAX_G8_T2  1
    P_G8_T2   PMIN_G8_T2  1
    P_G8_T2   RAMPUP_G8_T2  1
    P_G8_T2   RAMPDN_G8_T2  -1
    P_G8_T2   RAMPUP_G8_T3  -1
    P_G8_T2   RAMPDN_G8_T3  1
    P_G9_T2   TOTAL_COST  35.4
    P_G9_T2   DEMAND_T2  1
    P_G9_T2   PMAX_G9_T2  1
    P_G9_T2   PMIN_G9_T2  1
    P_G9_T2   RAMPUP_G9_T2  1
    P_G9_T2   RAMPDN_G9_T2  -1
    P_G9_T2   RAMPUP_G9_T3  -1
    P_G9_T2   RAMPDN_G9_T3  1
    MARK6000  'MARKER'                 'INTORG'
    U_G0_T3   TOTAL_COST  141
    U_G0_T3   RESERVE_T3  235
    U_G0_T3   PMAX_G0_T3  -235
    U_G0_T3   PMIN_G0_T3  -65
    MARK6100  'MARKER'                 'INTEND'
    MARK6200  'MARKER'                 'INTORG'
    U_G1_T3   TOTAL_COST  182
    U_G1_T3   RESERVE_T3  223
    U_G1_T3   PMAX_G1_T3  -223
    U_G1_T3   PMIN_G1_T3  -26
    MARK6300  'MARKER'                 'INTEND'
    MARK6400  'MARKER'                 'INTORG'
    U_G2_T3   TOTAL_COST  291
    U_G2_T3   RESERVE_T3  214
    U_G2_T3   PMAX_G2_T3  -214
    U_G2_T3   PMIN_G2_T3  -21
    MARK6500  'MARKER'                 'INTEND'
    MARK6600  'MARKER'                 'INTORG'
    U_G3_T3   TOTAL_COST  114
    U_G3_T3   RESERVE_T3  256
    U_G3_T3   PMAX_G3_T3  -256
    U_G3_T3   PMIN_G3_T3  -77
    MARK6700  'MARKER'                 'INTEND'
    MARK6800  'MARKER'                 'INTORG'
    U_G4_T3   TOTAL_COST  130
    U_G4_T3   RESERVE_T3  147
    U_G4_T3   PMAX_G4_T3  -147
    U_G4_T3   PMIN_G4_T3  -65
    MARK6900  'MARKER'                 'INTEND'
    MARK7000  'MARKER'                 'INTORG'
    U_G5_T3   TOTAL_COST  332
    U_G5_T3   RESERVE_T3  215
    U_G5_T3   PMAX_G5_T3  -215
    U_G5_T3   PMIN_G5_T3  -26
    MARK7100  'MARKER'                 'INTEND'
    MARK7200  'MARKER'                 'INTORG'
    U_G6_T3   TOTAL_COST  341
    U_G6_T3   RESERVE_T3  178
    U_G6_T3   PMAX_G6_T3  -178
    U_G6_T3   PMIN_G6_T3  -65
    MARK7300  'MARKER'                 'INTEND'
    MARK7400  'MARKER'                 'INTORG'
    U_G7_T3   TOTAL_COST  189
    U_G7_T3   RESERVE_T3  254
    U_G7_T3   PMAX_G7_T3  -254
    U_G7_T3   PMIN_G7_T3  -76
    MARK7500  'MARKER'                 'INTEND'
    MARK7600  'MARKER'                 'INTORG'
    U_G8_T3   TOTAL_COST  247
    U_G8_T3   RESERVE_T3  203
    U_G8_T3   PMAX_G8_T3  -203
    U_G8_T3   PMIN_G8_T3  -62
    MARK7700  'MARKER'                 'INTEND'
    MARK7800  'MARKER'                 'INTORG'
    U_G9_T3   TOTAL_COST  300
    U_G9_T3   RESERVE_T3  209
    U_G9_T3   PMAX_G9_T3  -209
    U_G9_T3   PMIN_G9_T3  -56
    MARK7900  'MARKER'                 'INTEND'
    P_G0_T3   TOTAL_COST  50.1
    P_G0_T3   DEMAND_T3  1
    P_G0_T3   PMAX_G0_T3  1
    P_G0_T3   PMIN_G0_T3  1
    P_G0_T3   RAMPUP_G0_T3  1
    P_G0_T3   RAMPDN_G0_T3  -1
    P_G0_T3   RAMPUP_G0_T4  -1
    P_G0_T3   RAMPDN_G0_T4  1
    P_G1_T3   TOTAL_COST  34.9
    P_G1_T3   DEMAND_T3  1
    P_G1_T3   PMAX_G1_T3  1
    P_G1_T3   PMIN_G1_T3  1
    P_G1_T3   RAMPUP_G1_T3  1
    P_G1_T3   RAMPDN_G1_T3  -1
    P_G1_T3   RAMPUP_G1_T4  -1
    P_G1_T3   RAMPDN_G1_T4  1
    P_G2_T3   TOTAL_COST  47.4
    P_G2_T3   DEMAND_T3  1
    P_G2_T3   PMAX_G2_T3  1
    P_G2_T3   PMIN_G2_T3  1
    P_G2_T3   RAMPUP_G2_T3  1
    P_G2_T3   RAMPDN_G2_T3  -1
    P_G2_T3   RAMPUP_G2_T4  -1
    P_G2_T3   RAMPDN_G2_T4  1
    P_G3_T3   TOTAL_COST  38
    P_G3_T3   DEMAND_T3  1
    P_G3_T3   PMAX_G3_T3  1
    P_G3_T3   PMIN_G3_T3  1
    P_G3_T3   RAMPUP_G3_T3  1
    P_G3_T3   RAMPDN_G3_T3  -1
    P_G3_T3   RAMPUP_G3_T4  -1
    P_G3_T3   RAMPDN_G3_T4  1
    P_G4_T3   TOTAL_COST  37
    P_G4_T3   DEMAND_T3  1
    P_G4_T3   PMAX_G4_T3  1
    P_G4_T3   PMIN_G4_T3  1
    P_G4_T3   RAMPUP_G4_T3  1
    P_G4_T3   RAMPDN_G4_T3  -1
    P_G4_T3   RAMPUP_G4_T4  -1
    P_G4_T3   RAMPDN_G4_T4  1
    P_G5_T3   TOTAL_COST  37.8
    P_G5_T3   DEMAND_T3  1
    P_G5_T3   PMAX_G5_T3  1
    P_G5_T3   PMIN_G5_T3  1
    P_G5_T3   RAMPUP_G5_T3  1
    P_G5_T3   RAMPDN_G5_T3  -1
    P_G5_T3   RAMPUP_G5_T4  -1
    P_G5_T3   RAMPDN_G5_T4  1
    P_G6_T3   TOTAL_COST  50
    P_G6_T3   DEMAND_T3  1
    P_G6_T3   PMAX_G6_T3  1
    P_G6_T3   PMIN_G6_T3  1
    P_G6_T3   RAMPUP_G6_T3  1
    P_G6_T3   RAMPDN_G6_T3  -1
    P_G6_T3   RAMPUP_G6_T4  -1
    P_G6_T3   RAMPDN_G6_T4  1
    P_G7_T3   TOTAL_COST  36.6
    P_G7_T3   DEMAND_T3  1
    P_G7_T3   PMAX_G7_T3  1
    P_G7_T3   PMIN_G7_T3  1
    P_G7_T3   RAMPUP_G7_T3  1
    P_G7_T3   RAMPDN_G7_T3  -1
    P_G7_T3   RAMPUP_G7_T4  -1
    P_G7_T3   RAMPDN_G7_T4  1
    P_G8_T3   TOTAL_COST  41.5
    P_G8_T3   DEMAND_T3  1
    P_G8_T3   PMAX_G8_T3  1
    P_G8_T3   PMIN_G8_T3  1
    P_G8_T3   RAMPUP_G8_T3  1
    P_G8_T3   RAMPDN_G8_T3  -1
    P_G8_T3   RAMPUP_G8_T4  -1
    P_G8_T3   RAMPDN_G8_T4  1
    P_G9_T3   TOTAL_COST  35.4
    P_G9_T3   DEMAND_T3  1
    P_G9_T3   PMAX_G9_T3  1
    P_G9_T3   PMIN_G9_T3  1
    P_G9_T3   RAMPUP_G9_T3  1
    P_G9_T3   RAMPDN_G9_T3  -1
    P_G9_T3   RAMPUP_G9_T4  -1
    P_G9_T3   RAMPDN_G9_T4  1
    MARK8000  'MARKER'                 'INTORG'
    U_G0_T4   TOTAL_COST  141
    U_G0_T4   RESERVE_T4  235
    U_G0_T4   PMAX_G0_T4  -235
    U_G0_T4   PMIN_G0_T4  -65
    MARK8100  'MARKER'                 'INTEND'
    MARK8200  'MARKER'                 'INTORG'
    U_G1_T4   TOTAL_COST  182
    U_G1_T4   RESERVE_T4  223
    U_G1_T4   PMAX_G1_T4  -223
    U_G1_T4   PMIN_G1_T4  -26
    MARK8300  'MARKER'                 'INTEND'
    MARK8400  'MARKER'                 'INTORG'
    U_G2_T4   TOTAL_COST  291
    U_G2_T4   RESERVE_T4  214
    U_G2_T4   PMAX_G2_T4  -214
    U_G2_T4   PMIN_G2_T4  -21
    MARK8500  'MARKER'                 'INTEND'
    MARK8600  'MARKER'                 'INTORG'
    U_G3_T4   TOTAL_COST  114
    U_G3_T4   RESERVE_T4  256
    U_G3_T4   PMAX_G3_T4  -256
    U_G3_T4   PMIN_G3_T4  -77
    MARK8700  'MARKER'                 'INTEND'
    MARK8800  'MARKER'                 'INTORG'
    U_G4_T4   TOTAL_COST  130
    U_G4_T4   RESERVE_T4  147
    U_G4_T4   PMAX_G4_T4  -147
    U_G4_T4   PMIN_G4_T4  -65
    MARK8900  'MARKER'                 'INTEND'
    MARK9000  'MARKER'                 'INTORG'
    U_G5_T4   TOTAL_COST  332
    U_G5_T4   RESERVE_T4  215
    U_G5_T4   PMAX_G5_T4  -215
    U_G5_T4   PMIN_G5_T4  -26
    MARK9100  'MARKER'                 'INTEND'
    MARK9200  'MARKER'                 'INTORG'
    U_G6_T4   TOTAL_COST  341
    U_G6_T4   RESERVE_T4  178
    U_G6_T4   PMAX_G6_T4  -178
    U_G6_T4   PMIN_G6_T4  -65
    MARK9300  'MARKER'                 'INTEND'
    MARK9400  'MARKER'                 'INTORG'
    U_G7_T4   TOTAL_COST  189
    U_G7_T4   RESERVE_T4  254
    U_G7_T4   PMAX_G7_T4  -254
    U_G7_T4   PMIN_G7_T4  -76
    MARK9500  'MARKER'                 'INTEND'
    MARK9600  'MARKER'                 'INTORG'
    U_G8_T4   TOTAL_COST  247
    U_G8_T4   RESERVE_T4  203
    U_G8_T4   PMAX_G8_T4  -203
    U_G8_T4   PMIN_G8_T4  -62
    MARK9700  'MARKER'                 'INTEND'
    MARK9800  'MARKER'                 'INTORG'
    U_G9_T4   TOTAL_COST  300
    U_G9_T4   RESERVE_T4  209
    U_G9_T4   PMAX_G9_T4  -209
    U_G9_T4   PMIN_G9_T4  -56
    MARK9900  'MARKER'                 'INTEND'
    P_G0_T4   TOTAL_COST  50.1
    P_G0_T4   DEMAND_T4  1
    P_G0_T4   PMAX_G0_T4  1
    P_G0_T4   PMIN_G0_T4  1
    P_G0_T4   RAMPUP_G0_T4  1
    P_G0_T4   RAMPDN_G0_T4  -1
    P_G0_T4   RAMPUP_G0_T5  -1
    P_G0_T4   RAMPDN_G0_T5  1
    P_G1_T4   TOTAL_COST  34.9
    P_G1_T4   DEMAND_T4  1
    P_G1_T4   PMAX_G1_T4  1
    P_G1_T4   PMIN_G1_T4  1
    P_G1_T4   RAMPUP_G1_T4  1
    P_G1_T4   RAMPDN_G1_T4  -1
    P_G1_T4   RAMPUP_G1_T5  -1
    P_G1_T4   RAMPDN_G1_T5  1
    P_G2_T4   TOTAL_COST  47.4
    P_G2_T4   DEMAND_T4  1
    P_G2_T4   PMAX_G2_T4  1
    P_G2_T4   PMIN_G2_T4  1
    P_G2_T4   RAMPUP_G2_T4  1
    P_G2_T4   RAMPDN_G2_T4  -1
    P_G2_T4   RAMPUP_G2_T5  -1
    P_G2_T4   RAMPDN_G2_T5  1
    P_G3_T4   TOTAL_COST  38
    P_G3_T4   DEMAND_T4  1
    P_G3_T4   PMAX_G3_T4  1
    P_G3_T4   PMIN_G3_T4  1
    P_G3_T4   RAMPUP_G3_T4  1
    P_G3_T4   RAMPDN_G3_T4  -1
    P_G3_T4   RAMPUP_G3_T5  -1
    P_G3_T4   RAMPDN_G3_T5  1
    P_G4_T4   TOTAL_COST  37
    P_G4_T4   DEMAND_T4  1
    P_G4_T4   PMAX_G4_T4  1
    P_G4_T4   PMIN_G4_T4  1
    P_G4_T4   RAMPUP_G4_T4  1
    P_G4_T4   RAMPDN_G4_T4  -1
    P_G4_T4   RAMPUP_G4_T5  -1
    P_G4_T4   RAMPDN_G4_T5  1
    P_G5_T4   TOTAL_COST  37.8
    P_G5_T4   DEMAND_T4  1
    P_G5_T4   PMAX_G5_T4  1
    P_G5_T4   PMIN_G5_T4  1
    P_G5_T4   RAMPUP_G5_T4  1
    P_G5_T4   RAMPDN_G5_T4  -1
    P_G5_T4   RAMPUP_G5_T5  -1
    P_G5_T4   RAMPDN_G5_T5  1
    P_G6_T4   TOTAL_COST  50
    P_G6_T4   DEMAND_T4  1
    P_G6_T4   PMAX_G6_T4  1
    P_G6_T4   PMIN_G6_T4  1
    P_G6_T4   RAMPUP_G6_T4  1
    P_G6_T4   RAMPDN_G6_T4  -1
    P_G6_T4   RAMPUP_G6_T5  -1
    P_G6_T4   RAMPDN_G6_T5  1
    P_G7_T4   TOTAL_COST  36.6
    P_G7_T4   DEMAND_T4  1
    P_G7_T4   PMAX_G7_T4  1
    P_G7_T4   PMIN_G7_T4  1
    P_G7_T4   RAMPUP_G7_T4  1
    P_G7_T4   RAMPDN_G7_T4  -1
    P_G7_T4   RAMPUP_G7_T5  -1
    P_G7_T4   RAMPDN_G7_T5  1
    P_G8_T4   TOTAL_COST  41.5
    P_G8_T4   DEMAND_T4  1
    P_G8_T4   PMAX_G8_T4  1
    P_G8_T4   PMIN_G8_T4  1
    P_G8_T4   RAMPUP_G8_T4  1
    P_G8_T4   RAMPDN_G8_T4  -1
    P_G8_T4   RAMPUP_G8_T5  -1
    P_G8_T4   RAMPDN_G8_T5  1
    P_G9_T4   TOTAL_COST  35.4
    P_G9_T4   DEMAND_T4  1
    P_G9_T4   PMAX_G9_T4  1
    P_G9_T4   PMIN_G9_T4  1
    P_G9_T4   RAMPUP_G9_T4  1
    P_G9_T4   RAMPDN_G9_T4  -1
    P_G9_T4   RAMPUP_G9_T5  -1
    P_G9_T4   RAMPDN_G9_T5  1
    MARK1000  'MARKER'                 'INTORG'
    U_G0_T5   TOTAL_COST  141
    U_G0_T5   RESERVE_T5  235
    U_G0_T5   PMAX_G0_T5  -235
    U_G0_T5   PMIN_G0_T5  -65
    MARK1010  'MARKER'                 'INTEND'
    MARK1020  'MARKER'                 'INTORG'
    U_G1_T5   TOTAL_COST  182
    U_G1_T5   RESERVE_T5  223
    U_G1_T5   PMAX_G1_T5  -223
    U_G1_T5   PMIN_G1_T5  -26
    MARK1030  'MARKER'                 'INTEND'
    MARK1040  'MARKER'                 'INTORG'
    U_G2_T5   TOTAL_COST  291
    U_G2_T5   RESERVE_T5  214
    U_G2_T5   PMAX_G2_T5  -214
    U_G2_T5   PMIN_G2_T5  -21
    MARK1050  'MARKER'                 'INTEND'
    MARK1060  'MARKER'                 'INTORG'
    U_G3_T5   TOTAL_COST  114
    U_G3_T5   RESERVE_T5  256
    U_G3_T5   PMAX_G3_T5  -256
    U_G3_T5   PMIN_G3_T5  -77
    MARK1070  'MARKER'                 'INTEND'
    MARK1080  'MARKER'                 'INTORG'
    U_G4_T5   TOTAL_COST  130
    U_G4_T5   RESERVE_T5  147
    U_G4_T5   PMAX_G4_T5  -147
    U_G4_T5   PMIN_G4_T5  -65
    MARK1090  'MARKER'                 'INTEND'
    MARK1100  'MARKER'                 'INTORG'
    U_G5_T5   TOTAL_COST  332
    U_G5_T5   RESERVE_T5  215
    U_G5_T5   PMAX_G5_T5  -215
    U_G5_T5   PMIN_G5_T5  -26
    MARK1110  'MARKER'                 'INTEND'
    MARK1120  'MARKER'                 'INTORG'
    U_G6_T5   TOTAL_COST  341
    U_G6_T5   RESERVE_T5  178
    U_G6_T5   PMAX_G6_T5  -178
    U_G6_T5   PMIN_G6_T5  -65
    MARK1130  'MARKER'                 'INTEND'
    MARK1140  'MARKER'                 'INTORG'
    U_G7_T5   TOTAL_COST  189
    U_G7_T5   RESERVE_T5  254
    U_G7_T5   PMAX_G7_T5  -254
    U_G7_T5   PMIN_G7_T5  -76
    MARK1150  'MARKER'                 'INTEND'
    MARK1160  'MARKER'                 'INTORG'
    U_G8_T5   TOTAL_COST  247
    U_G8_T5   RESERVE_T5  203
    U_G8_T5   PMAX_G8_T5  -203
    U_G8_T5   PMIN_G8_T5  -62
    MARK1170  'MARKER'                 'INTEND'
    MARK1180  'MARKER'                 'INTORG'
    U_G9_T5   TOTAL_COST  300
    U_G9_T5   RESERVE_T5  209
    U_G9_T5   PMAX_G9_T5  -209
    U_G9_T5   PMIN_G9_T5  -56
    MARK1190  'MARKER'                 'INTEND'
    P_G0_T5   TOTAL_COST  50.1
    P_G0_T5   DEMAND_T5  1
    P_G0_T5   PMAX_G0_T5  1
    P_G0_T5   PMIN_G0_T5  1
    P_G0_T5   RAMPUP_G0_T5  1
    P_G0_T5   RAMPDN_G0_T5  -1
    P_G0_T5   RAMPUP_G0_T6  -1
    P_G0_T5   RAMPDN_G0_T6  1
    P_G1_T5   TOTAL_COST  34.9
    P_G1_T5   DEMAND_T5  1
    P_G1_T5   PMAX_G1_T5  1
    P_G1_T5   PMIN_G1_T5  1
    P_G1_T5   RAMPUP_G1_T5  1
    P_G1_T5   RAMPDN_G1_T5  -1
    P_G1_T5   RAMPUP_G1_T6  -1
    P_G1_T5   RAMPDN_G1_T6  1
    P_G2_T5   TOTAL_COST  47.4
    P_G2_T5   DEMAND_T5  1
    P_G2_T5   PMAX_G2_T5  1
    P_G2_T5   PMIN_G2_T5  1
    P_G2_T5   RAMPUP_G2_T5  1
    P_G2_T5   RAMPDN_G2_T5  -1
    P_G2_T5   RAMPUP_G2_T6  -1
    P_G2_T5   RAMPDN_G2_T6  1
    P_G3_T5   TOTAL_COST  38
    P_G3_T5   DEMAND_T5  1
    P_G3_T5   PMAX_G3_T5  1
    P_G3_T5   PMIN_G3_T5  1
    P_G3_T5   RAMPUP_G3_T5  1
    P_G3_T5   RAMPDN_G3_T5  -1
    P_G3_T5   RAMPUP_G3_T6  -1
    P_G3_T5   RAMPDN_G3_T6  1
    P_G4_T5   TOTAL_COST  37
    P_G4_T5   DEMAND_T5  1
    P_G4_T5   PMAX_G4_T5  1
    P_G4_T5   PMIN_G4_T5  1
    P_G4_T5   RAMPUP_G4_T5  1
    P_G4_T5   RAMPDN_G4_T5  -1
    P_G4_T5   RAMPUP_G4_T6  -1
    P_G4_T5   RAMPDN_G4_T6  1
    P_G5_T5   TOTAL_COST  37.8
    P_G5_T5   DEMAND_T5  1
    P_G5_T5   PMAX_G5_T5  1
    P_G5_T5   PMIN_G5_T5  1
    P_G5_T5   RAMPUP_G5_T5  1
    P_G5_T5   RAMPDN_G5_T5  -1
    P_G5_T5   RAMPUP_G5_T6  -1
    P_G5_T5   RAMPDN_G5_T6  1
    P_G6_T5   TOTAL_COST  50
    P_G6_T5   DEMAND_T5  1
    P_G6_T5   PMAX_G6_T5  1
    P_G6_T5   PMIN_G6_T5  1
    P_G6_T5   RAMPUP_G6_T5  1
    P_G6_T5   RAMPDN_G6_T5  -1
    P_G6_T5   RAMPUP_G6_T6  -1
    P_G6_T5   RAMPDN_G6_T6  1
    P_G7_T5   TOTAL_COST  36.6
    P_G7_T5   DEMAND_T5  1
    P_G7_T5   PMAX_G7_T5  1
    P_G7_T5   PMIN_G7_T5  1
    P_G7_T5   RAMPUP_G7_T5  1
    P_G7_T5   RAMPDN_G7_T5  -1
    P_G7_T5   RAMPUP_G7_T6  -1
    P_G7_T5   RAMPDN_G7_T6  1
    P_G8_T5   TOTAL_COST  41.5
    P_G8_T5   DEMAND_T5  1
    P_G8_T5   PMAX_G8_T5  1
    P_G8_T5   PMIN_G8_T5  1
    P_G8_T5   RAMPUP_G8_T5  1
    P_G8_T5   RAMPDN_G8_T5  -1
    P_G8_T5   RAMPUP_G8_T6  -1
    P_G8_T5   RAMPDN_G8_T6  1
    P_G9_T5   TOTAL_COST  35.4
    P_G9_T5   DEMAND_T5  1
    P_G9_T5   PMAX_G9_T5  1
    P_G9_T5   PMIN_G9_T5  1
    P_G9_T5   RAMPUP_G9_T5  1
    P_G9_T5   RAMPDN_G9_T5  -1
    P_G9_T5   RAMPUP_G9_T6  -1
    P_G9_T5   RAMPDN_G9_T6  1
    MARK1200  'MARKER'                 'INTORG'
    U_G0_T6   TOTAL_COST  141
    U_G0_T6   RESERVE_T6  235
    U_G0_T6   PMAX_G0_T6  -235
    U_G0_T6   PMIN_G0_T6  -65
    MARK1210  'MARKER'                 'INTEND'
    MARK1220  'MARKER'                 'INTORG'
    U_G1_T6   TOTAL_COST  182
    U_G1_T6   RESERVE_T6  223
    U_G1_T6   PMAX_G1_T6  -223
    U_G1_T6   PMIN_G1_T6  -26
    MARK1230  'MARKER'                 'INTEND'
    MARK1240  'MARKER'                 'INTORG'
    U_G2_T6   TOTAL_COST  291
    U_G2_T6   RESERVE_T6  214
    U_G2_T6   PMAX_G2_T6  -214
    U_G2_T6   PMIN_G2_T6  -21
    MARK1250  'MARKER'                 'INTEND'
    MARK1260  'MARKER'                 'INTORG'
    U_G3_T6   TOTAL_COST  114
    U_G3_T6   RESERVE_T6  256
    U_G3_T6   PMAX_G3_T6  -256
    U_G3_T6   PMIN_G3_T6  -77
    MARK1270  'MARKER'                 'INTEND'
    MARK1280  'MARKER'                 'INTORG'
    U_G4_T6   TOTAL_COST  130
    U_G4_T6   RESERVE_T6  147
    U_G4_T6   PMAX_G4_T6  -147
    U_G4_T6   PMIN_G4_T6  -65
    MARK1290  'MARKER'                 'INTEND'
    MARK1300  'MARKER'                 'INTORG'
    U_G5_T6   TOTAL_COST  332
    U_G5_T6   RESERVE_T6  215
    U_G5_T6   PMAX_G5_T6  -215
    U_G5_T6   PMIN_G5_T6  -26
    MARK1310  'MARKER'                 'INTEND'
    MARK1320  'MARKER'                 'INTORG'
    U_G6_T6   TOTAL_COST  341
    U_G6_T6   RESERVE_T6  178
    U_G6_T6   PMAX_G6_T6  -178
    U_G6_T6   PMIN_G6_T6  -65
    MARK1330  'MARKER'                 'INTEND'
    MARK1340  'MARKER'                 'INTORG'
    U_G7_T6   TOTAL_COST  189
    U_G7_T6   RESERVE_T6  254
    U_G7_T6   PMAX_G7_T6  -254
    U_G7_T6   PMIN_G7_T6  -76
    MARK1350  'MARKER'                 'INTEND'
    MARK1360  'MARKER'                 'INTORG'
    U_G8_T6   TOTAL_COST  247
    U_G8_T6   RESERVE_T6  203
    U_G8_T6   PMAX_G8_T6  -203
    U_G8_T6   PMIN_G8_T6  -62
    MARK1370  'MARKER'                 'INTEND'
    MARK1380  'MARKER'                 'INTORG'
    U_G9_T6   TOTAL_COST  300
    U_G9_T6   RESERVE_T6  209
    U_G9_T6   PMAX_G9_T6  -209
    U_G9_T6   PMIN_G9_T6  -56
    MARK1390  'MARKER'                 'INTEND'
    P_G0_T6   TOTAL_COST  50.1
    P_G0_T6   DEMAND_T6  1
    P_G0_T6   PMAX_G0_T6  1
    P_G0_T6   PMIN_G0_T6  1
    P_G0_T6   RAMPUP_G0_T6  1
    P_G0_T6   RAMPDN_G0_T6  -1
    P_G0_T6   RAMPUP_G0_T7  -1
    P_G0_T6   RAMPDN_G0_T7  1
    P_G1_T6   TOTAL_COST  34.9
    P_G1_T6   DEMAND_T6  1
    P_G1_T6   PMAX_G1_T6  1
    P_G1_T6   PMIN_G1_T6  1
    P_G1_T6   RAMPUP_G1_T6  1
    P_G1_T6   RAMPDN_G1_T6  -1
    P_G1_T6   RAMPUP_G1_T7  -1
    P_G1_T6   RAMPDN_G1_T7  1
    P_G2_T6   TOTAL_COST  47.4
    P_G2_T6   DEMAND_T6  1
    P_G2_T6   PMAX_G2_T6  1
    P_G2_T6   PMIN_G2_T6  1
    P_G2_T6   RAMPUP_G2_T6  1
    P_G2_T6   RAMPDN_G2_T6  -1
    P_G2_T6   RAMPUP_G2_T7  -1
    P_G2_T6   RAMPDN_G2_T7  1
    P_G3_T6   TOTAL_COST  38
    P_G3_T6   DEMAND_T6  1
    P_G3_T6   PMAX_G3_T6  1
    P_G3_T6   PMIN_G3_T6  1
    P_G3_T6   RAMPUP_G3_T6  1
    P_G3_T6   RAMPDN_G3_T6  -1
    P_G3_T6   RAMPUP_G3_T7  -1
    P_G3_T6   RAMPDN_G3_T7  1
    P_G4_T6   TOTAL_COST  37
    P_G4_T6   DEMAND_T6  1
    P_G4_T6   PMAX_G4_T6  1
    P_G4_T6   PMIN_G4_T6  1
    P_G4_T6   RAMPUP_G4_T6  1
    P_G4_T6   RAMPDN_G4_T6  -1
    P_G4_T6   RAMPUP_G4_T7  -1
    P_G4_T6   RAMPDN_G4_T7  1
    P_G5_T6   TOTAL_COST  37.8
    P_G5_T6   DEMAND_T6  1
    P_G5_T6   PMAX_G5_T6  1
    P_G5_T6   PMIN_G5_T6  1
    P_G5_T6   RAMPUP_G5_T6  1
    P_G5_T6   RAMPDN_G5_T6  -1
    P_G5_T6   RAMPUP_G5_T7  -1
    P_G5_T6   RAMPDN_G5_T7  1
    P_G6_T6   TOTAL_COST  50
    P_G6_T6   DEMAND_T6  1
    P_G6_T6   PMAX_G6_T6  1
    P_G6_T6   PMIN_G6_T6  1
    P_G6_T6   RAMPUP_G6_T6  1
    P_G6_T6   RAMPDN_G6_T6  -1
    P_G6_T6   RAMPUP_G6_T7  -1
    P_G6_T6   RAMPDN_G6_T7  1
    P_G7_T6   TOTAL_COST  36.6
    P_G7_T6   DEMAND_T6  1
    P_G7_T6   PMAX_G7_T6  1
    P_G7_T6   PMIN_G7_T6  1
    P_G7_T6   RAMPUP_G7_T6  1
    P_G7_T6   RAMPDN_G7_T6  -1
    P_G7_T6   RAMPUP_G7_T7  -1
    P_G7_T6   RAMPDN_G7_T7  1
    P_G8_T6   TOTAL_COST  41.5
    P_G8_T6   DEMAND_T6  1
    P_G8_T6   PMAX_G8_T6  1
    P_G8_T6   PMIN_G8_T6  1
    P_G8_T6   RAMPUP_G8_T6  1
    P_G8_T6   RAMPDN_G8_T6  -1
    P_G8_T6   RAMPUP_G8_T7  -1
    P_G8_T6   RAMPDN_G8_T7  1
    P_G9_T6   TOTAL_COST  35.4
    P_G9_T6   DEMAND_T6  1
    P_G9_T6   PMAX_G9_T6  1
    P_G9_T6   PMIN_G9_T6  1
    P_G9_T6   RAMPUP_G9_T6  1
    P_G9_T6   RAMPDN_G9_T6  -1
    P_G9_T6   RAMPUP_G9_T7  -1
    P_G9_T6   RAMPDN_G9_T7  1
    MARK1400  'MARKER'                 'INTORG'
    U_G0_T7   TOTAL_COST  141
    U_G0_T7   RESERVE_T7  235
    U_G0_T7   PMAX_G0_T7  -235
    U_G0_T7   PMIN_G0_T7  -65
    MARK1410  'MARKER'                 'INTEND'
    MARK1420  'MARKER'                 'INTORG'
    U_G1_T7   TOTAL_COST  182
    U_G1_T7   RESERVE_T7  223
    U_G1_T7   PMAX_G1_T7  -223
    U_G1_T7   PMIN_G1_T7  -26
    MARK1430  'MARKER'                 'INTEND'
    MARK1440  'MARKER'                 'INTORG'
    U_G2_T7   TOTAL_COST  291
    U_G2_T7   RESERVE_T7  214
    U_G2_T7   PMAX_G2_T7  -214
    U_G2_T7   PMIN_G2_T7  -21
    MARK1450  'MARKER'                 'INTEND'
    MARK1460  'MARKER'                 'INTORG'
    U_G3_T7   TOTAL_COST  114
    U_G3_T7   RESERVE_T7  256
    U_G3_T7   PMAX_G3_T7  -256
    U_G3_T7   PMIN_G3_T7  -77
    MARK1470  'MARKER'                 'INTEND'
    MARK1480  'MARKER'                 'INTORG'
    U_G4_T7   TOTAL_COST  130
    U_G4_T7   RESERVE_T7  147
    U_G4_T7   PMAX_G4_T7  -147
    U_G4_T7   PMIN_G4_T7  -65
    MARK1490  'MARKER'                 'INTEND'
    MARK1500  'MARKER'                 'INTORG'
    U_G5_T7   TOTAL_COST  332
    U_G5_T7   RESERVE_T7  215
    U_G5_T7   PMAX_G5_T7  -215
    U_G5_T7   PMIN_G5_T7  -26
    MARK1510  'MARKER'                 'INTEND'
    MARK1520  'MARKER'                 'INTORG'
    U_G6_T7   TOTAL_COST  341
    U_G6_T7   RESERVE_T7  178
    U_G6_T7   PMAX_G6_T7  -178
    U_G6_T7   PMIN_G6_T7  -65
    MARK1530  'MARKER'                 'INTEND'
    MARK1540  'MARKER'                 'INTORG'
    U_G7_T7   TOTAL_COST  189
    U_G7_T7   RESERVE_T7  254
    U_G7_T7   PMAX_G7_T7  -254
    U_G7_T7   PMIN_G7_T7  -76
    MARK1550  'MARKER'                 'INTEND'
    MARK1560  'MARKER'                 'INTORG'
    U_G8_T7   TOTAL_COST  247
    U_G8_T7   RESERVE_T7  203
    U_G8_T7   PMAX_G8_T7  -203
    U_G8_T7   PMIN_G8_T7  -62
    MARK1570  'MARKER'                 'INTEND'
    MARK1580  'MARKER'                 'INTORG'
    U_G9_T7   TOTAL_COST  300
    U_G9_T7   RESERVE_T7  209
    U_G9_T7   PMAX_G9_T7  -209
    U_G9_T7   PMIN_G9_T7  -56
    MARK1590  'MARKER'                 'INTEND'
    P_G0_T7   TOTAL_COST  50.1
    P_G0_T7   DEMAND_T7  1
    P_G0_T7   PMAX_G0_T7  1
    P_G0_T7   PMIN_G0_T7  1
    P_G0_T7   RAMPUP_G0_T7  1
    P_G0_T7   RAMPDN_G0_T7  -1
    P_G0_T7   RAMPUP_G0_T8  -1
    P_G0_T7   RAMPDN_G0_T8  1
    P_G1_T7   TOTAL_COST  34.9
    P_G1_T7   DEMAND_T7  1
    P_G1_T7   PMAX_G1_T7  1
    P_G1_T7   PMIN_G1_T7  1
    P_G1_T7   RAMPUP_G1_T7  1
    P_G1_T7   RAMPDN_G1_T7  -1
    P_G1_T7   RAMPUP_G1_T8  -1
    P_G1_T7   RAMPDN_G1_T8  1
    P_G2_T7   TOTAL_COST  47.4
    P_G2_T7   DEMAND_T7  1
    P_G2_T7   PMAX_G2_T7  1
    P_G2_T7   PMIN_G2_T7  1
    P_G2_T7   RAMPUP_G2_T7  1
    P_G2_T7   RAMPDN_G2_T7  -1
    P_G2_T7   RAMPUP_G2_T8  -1
    P_G2_T7   RAMPDN_G2_T8  1
    P_G3_T7   TOTAL_COST  38
    P_G3_T7   DEMAND_T7  1
    P_G3_T7   PMAX_G3_T7  1
    P_G3_T7   PMIN_G3_T7  1
    P_G3_T7   RAMPUP_G3_T7  1
    P_G3_T7   RAMPDN_G3_T7  -1
    P_G3_T7   RAMPUP_G3_T8  -1
    P_G3_T7   RAMPDN_G3_T8  1
    P_G4_T7   TOTAL_COST  37
    P_G4_T7   DEMAND_T7  1
    P_G4_T7   PMAX_G4_T7  1
    P_G4_T7   PMIN_G4_T7  1
    P_G4_T7   RAMPUP_G4_T7  1
    P_G4_T7   RAMPDN_G4_T7  -1
    P_G4_T7   RAMPUP_G4_T8  -1
    P_G4_T7   RAMPDN_G4_T8  1
    P_G5_T7   TOTAL_COST  37.8
    P_G5_T7   DEMAND_T7  1
    P_G5_T7   PMAX_G5_T7  1
    P_G5_T7   PMIN_G5_T7  1
    P_G5_T7   RAMPUP_G5_T7  1
    P_G5_T7   RAMPDN_G5_T7  -1
    P_G5_T7   RAMPUP_G5_T8  -1
    P_G5_T7   RAMPDN_G5_T8  1
    P_G6_T7   TOTAL_COST  50
    P_G6_T7   DEMAND_T7  1
    P_G6_T7   PMAX_G6_T7  1
    P_G6_T7   PMIN_G6_T7  1
    P_G6_T7   RAMPUP_G6_T7  1
    P_G6_T7   RAMPDN_G6_T7  -1
    P_G6_T7   RAMPUP_G6_T8  -1
    P_G6_T7   RAMPDN_G6_T8  1
    P_G7_T7   TOTAL_COST  36.6
    P_G7_T7   DEMAND_T7  1
    P_G7_T7   PMAX_G7_T7  1
    P_G7_T7   PMIN_G7_T7  1
    P_G7_T7   RAMPUP_G7_T7  1
    P_G7_T7   RAMPDN_G7_T7  -1
    P_G7_T7   RAMPUP_G7_T8  -1
    P_G7_T7   RAMPDN_G7_T8  1
    P_G8_T7   TOTAL_COST  41.5
    P_G8_T7   DEMAND_T7  1
    P_G8_T7   PMAX_G8_T7  1
    P_G8_T7   PMIN_G8_T7  1
    P_G8_T7   RAMPUP_G8_T7  1
    P_G8_T7   RAMPDN_G8_T7  -1
    P_G8_T7   RAMPUP_G8_T8  -1
    P_G8_T7   RAMPDN_G8_T8  1
    P_G9_T7   TOTAL_COST  35.4
    P_G9_T7   DEMAND_T7  1
    P_G9_T7   PMAX_G9_T7  1
    P_G9_T7   PMIN_G9_T7  1
    P_G9_T7   RAMPUP_G9_T7  1
    P_G9_T7   RAMPDN_G9_T7  -1
    P_G9_T7   RAMPUP_G9_T8  -1
    P_G9_T7   RAMPDN_G9_T8  1
    MARK1600  'MARKER'                 'INTORG'
    U_G0_T8   TOTAL_COST  141
    U_G0_T8   RESERVE_T8  235
    U_G0_T8   PMAX_G0_T8  -235
    U_G0_T8   PMIN_G0_T8  -65
    MARK1610  'MARKER'                 'INTEND'
    MARK1620  'MARKER'                 'INTORG'
    U_G1_T8   TOTAL_COST  182
    U_G1_T8   RESERVE_T8  223
    U_G1_T8   PMAX_G1_T8  -223
    U_G1_T8   PMIN_G1_T8  -26
    MARK1630  'MARKER'                 'INTEND'
    MARK1640  'MARKER'                 'INTORG'
    U_G2_T8   TOTAL_COST  291
    U_G2_T8   RESERVE_T8  214
    U_G2_T8   PMAX_G2_T8  -214
    U_G2_T8   PMIN_G2_T8  -21
    MARK1650  'MARKER'                 'INTEND'
    MARK1660  'MARKER'                 'INTORG'
    U_G3_T8   TOTAL_COST  114
    U_G3_T8   RESERVE_T8  256
    U_G3_T8   PMAX_G3_T8  -256
    U_G3_T8   PMIN_G3_T8  -77
    MARK1670  'MARKER'                 'INTEND'
    MARK1680  'MARKER'                 'INTORG'
    U_G4_T8   TOTAL_COST  130
    U_G4_T8   RESERVE_T8  147
    U_G4_T8   PMAX_G4_T8  -147
    U_G4_T8   PMIN_G4_T8  -65
    MARK1690  'MARKER'                 'INTEND'
    MARK1700  'MARKER'                 'INTORG'
    U_G5_T8   TOTAL_COST  332
    U_G5_T8   RESERVE_T8  215
    U_G5_T8   PMAX_G5_T8  -215
    U_G5_T8   PMIN_G5_T8  -26
    MARK1710  'MARKER'                 'INTEND'
    MARK1720  'MARKER'                 'INTORG'
    U_G6_T8   TOTAL_COST  341
    U_G6_T8   RESERVE_T8  178
    U_G6_T8   PMAX_G6_T8  -178
    U_G6_T8   PMIN_G6_T8  -65
    MARK1730  'MARKER'                 'INTEND'
    MARK1740  'MARKER'                 'INTORG'
    U_G7_T8   TOTAL_COST  189
    U_G7_T8   RESERVE_T8  254
    U_G7_T8   PMAX_G7_T8  -254
    U_G7_T8   PMIN_G7_T8  -76
    MARK1750  'MARKER'                 'INTEND'
    MARK1760  'MARKER'                 'INTORG'
    U_G8_T8   TOTAL_COST  247
    U_G8_T8   RESERVE_T8  203
    U_G8_T8   PMAX_G8_T8  -203
    U_G8_T8   PMIN_G8_T8  -62
    MARK1770  'MARKER'                 'INTEND'
    MARK1780  'MARKER'                 'INTORG'
    U_G9_T8   TOTAL_COST  300
    U_G9_T8   RESERVE_T8  209
    U_G9_T8   PMAX_G9_T8  -209
    U_G9_T8   PMIN_G9_T8  -56
    MARK1790  'MARKER'                 'INTEND'
    P_G0_T8   TOTAL_COST  50.1
    P_G0_T8   DEMAND_T8  1
    P_G0_T8   PMAX_G0_T8  1
    P_G0_T8   PMIN_G0_T8  1
    P_G0_T8   RAMPUP_G0_T8  1
    P_G0_T8   RAMPDN_G0_T8  -1
    P_G0_T8   RAMPUP_G0_T9  -1
    P_G0_T8   RAMPDN_G0_T9  1
    P_G1_T8   TOTAL_COST  34.9
    P_G1_T8   DEMAND_T8  1
    P_G1_T8   PMAX_G1_T8  1
    P_G1_T8   PMIN_G1_T8  1
    P_G1_T8   RAMPUP_G1_T8  1
    P_G1_T8   RAMPDN_G1_T8  -1
    P_G1_T8   RAMPUP_G1_T9  -1
    P_G1_T8   RAMPDN_G1_T9  1
    P_G2_T8   TOTAL_COST  47.4
    P_G2_T8   DEMAND_T8  1
    P_G2_T8   PMAX_G2_T8  1
    P_G2_T8   PMIN_G2_T8  1
    P_G2_T8   RAMPUP_G2_T8  1
    P_G2_T8   RAMPDN_G2_T8  -1
    P_G2_T8   RAMPUP_G2_T9  -1
    P_G2_T8   RAMPDN_G2_T9  1
    P_G3_T8   TOTAL_COST  38
    P_G3_T8   DEMAND_T8  1
    P_G3_T8   PMAX_G3_T8  1
    P_G3_T8   PMIN_G3_T8  1
    P_G3_T8   RAMPUP_G3_T8  1
    P_G3_T8   RAMPDN_G3_T8  -1
    P_G3_T8   RAMPUP_G3_T9  -1
    P_G3_T8   RAMPDN_G3_T9  1
    P_G4_T8   TOTAL_COST  37
    P_G4_T8   DEMAND_T8  1
    P_G4_T8   PMAX_G4_T8  1
    P_G4_T8   PMIN_G4_T8  1
    P_G4_T8   RAMPUP_G4_T8  1
    P_G4_T8   RAMPDN_G4_T8  -1
    P_G4_T8   RAMPUP_G4_T9  -1
    P_G4_T8   RAMPDN_G4_T9  1
    P_G5_T8   TOTAL_COST  37.8
    P_G5_T8   DEMAND_T8  1
    P_G5_T8   PMAX_G5_T8  1
    P_G5_T8   PMIN_G5_T8  1
    P_G5_T8   RAMPUP_G5_T8  1
    P_G5_T8   RAMPDN_G5_T8  -1
    P_G5_T8   RAMPUP_G5_T9  -1
    P_G5_T8   RAMPDN_G5_T9  1
    P_G6_T8   TOTAL_COST  50
    P_G6_T8   DEMAND_T8  1
    P_G6_T8   PMAX_G6_T8  1
    P_G6_T8   PMIN_G6_T8  1
    P_G6_T8   RAMPUP_G6_T8  1
    P_G6_T8   RAMPDN_G6_T8  -1
    P_G6_T8   RAMPUP_G6_T9  -1
    P_G6_T8   RAMPDN_G6_T9  1
    P_G7_T8   TOTAL_COST  36.6
    P_G7_T8   DEMAND_T8  1
    P_G7_T8   PMAX_G7_T8  1
    P_G7_T8   PMIN_G7_T8  1
    P_G7_T8   RAMPUP_G7_T8  1
    P_G7_T8   RAMPDN_G7_T8  -1
    P_G7_T8   RAMPUP_G7_T9  -1
    P_G7_T8   RAMPDN_G7_T9  1
    P_G8_T8   TOTAL_COST  41.5
    P_G8_T8   DEMAND_T8  1
    P_G8_T8   PMAX_G8_T8  1
    P_G8_T8   PMIN_G8_T8  1
    P_G8_T8   RAMPUP_G8_T8  1
    P_G8_T8   RAMPDN_G8_T8  -1
    P_G8_T8   RAMPUP_G8_T9  -1
    P_G8_T8   RAMPDN_G8_T9  1
    P_G9_T8   TOTAL_COST  35.4
    P_G9_T8   DEMAND_T8  1
    P_G9_T8   PMAX_G9_T8  1
    P_G9_T8   PMIN_G9_T8  1
    P_G9_T8   RAMPUP_G9_T8  1
    P_G9_T8   RAMPDN_G9_T8  -1
    P_G9_T8   RAMPUP_G9_T9  -1
    P_G9_T8   RAMPDN_G9_T9  1
    MARK1800  'MARKER'                 'INTORG'
    U_G0_T9   TOTAL_COST  141
    U_G0_T9   RESERVE_T9  235
    U_G0_T9   PMAX_G0_T9  -235
    U_G0_T9   PMIN_G0_T9  -65
    MARK1810  'MARKER'                 'INTEND'
    MARK1820  'MARKER'                 'INTORG'
    U_G1_T9   TOTAL_COST  182
    U_G1_T9   RESERVE_T9  223
    U_G1_T9   PMAX_G1_T9  -223
    U_G1_T9   PMIN_G1_T9  -26
    MARK1830  'MARKER'                 'INTEND'
    MARK1840  'MARKER'                 'INTORG'
    U_G2_T9   TOTAL_COST  291
    U_G2_T9   RESERVE_T9  214
    U_G2_T9   PMAX_G2_T9  -214
    U_G2_T9   PMIN_G2_T9  -21
    MARK1850  'MARKER'                 'INTEND'
    MARK1860  'MARKER'                 'INTORG'
    U_G3_T9   TOTAL_COST  114
    U_G3_T9   RESERVE_T9  256
    U_G3_T9   PMAX_G3_T9  -256
    U_G3_T9   PMIN_G3_T9  -77
    MARK1870  'MARKER'                 'INTEND'
    MARK1880  'MARKER'                 'INTORG'
    U_G4_T9   TOTAL_COST  130
    U_G4_T9   RESERVE_T9  147
    U_G4_T9   PMAX_G4_T9  -147
    U_G4_T9   PMIN_G4_T9  -65
    MARK1890  'MARKER'                 'INTEND'
    MARK1900  'MARKER'                 'INTORG'
    U_G5_T9   TOTAL_COST  332
    U_G5_T9   RESERVE_T9  215
    U_G5_T9   PMAX_G5_T9  -215
    U_G5_T9   PMIN_G5_T9  -26
    MARK1910  'MARKER'                 'INTEND'
    MARK1920  'MARKER'                 'INTORG'
    U_G6_T9   TOTAL_COST  341
    U_G6_T9   RESERVE_T9  178
    U_G6_T9   PMAX_G6_T9  -178
    U_G6_T9   PMIN_G6_T9  -65
    MARK1930  'MARKER'                 'INTEND'
    MARK1940  'MARKER'                 'INTORG'
    U_G7_T9   TOTAL_COST  189
    U_G7_T9   RESERVE_T9  254
    U_G7_T9   PMAX_G7_T9  -254
    U_G7_T9   PMIN_G7_T9  -76
    MARK1950  'MARKER'                 'INTEND'
    MARK1960  'MARKER'                 'INTORG'
    U_G8_T9   TOTAL_COST  247
    U_G8_T9   RESERVE_T9  203
    U_G8_T9   PMAX_G8_T9  -203
    U_G8_T9   PMIN_G8_T9  -62
    MARK1970  'MARKER'                 'INTEND'
    MARK1980  'MARKER'                 'INTORG'
    U_G9_T9   TOTAL_COST  300
    U_G9_T9   RESERVE_T9  209
    U_G9_T9   PMAX_G9_T9  -209
    U_G9_T9   PMIN_G9_T9  -56
    MARK1990  'MARKER'                 'INTEND'
    P_G0_T9   TOTAL_COST  50.1
    P_G0_T9   DEMAND_T9  1
    P_G0_T9   PMAX_G0_T9  1
    P_G0_T9   PMIN_G0_T9  1
    P_G0_T9   RAMPUP_G0_T9  1
    P_G0_T9   RAMPDN_G0_T9  -1
    P_G0_T9   RAMPUP_G0_T10  -1
    P_G0_T9   RAMPDN_G0_T10  1
    P_G1_T9   TOTAL_COST  34.9
    P_G1_T9   DEMAND_T9  1
    P_G1_T9   PMAX_G1_T9  1
    P_G1_T9   PMIN_G1_T9  1
    P_G1_T9   RAMPUP_G1_T9  1
    P_G1_T9   RAMPDN_G1_T9  -1
    P_G1_T9   RAMPUP_G1_T10  -1
    P_G1_T9   RAMPDN_G1_T10  1
    P_G2_T9   TOTAL_COST  47.4
    P_G2_T9   DEMAND_T9  1
    P_G2_T9   PMAX_G2_T9  1
    P_G2_T9   PMIN_G2_T9  1
    P_G2_T9   RAMPUP_G2_T9  1
    P_G2_T9   RAMPDN_G2_T9  -1
    P_G2_T9   RAMPUP_G2_T10  -1
    P_G2_T9   RAMPDN_G2_T10  1
    P_G3_T9   TOTAL_COST  38
    P_G3_T9   DEMAND_T9  1
    P_G3_T9   PMAX_G3_T9  1
    P_G3_T9   PMIN_G3_T9  1
    P_G3_T9   RAMPUP_G3_T9  1
    P_G3_T9   RAMPDN_G3_T9  -1
    P_G3_T9   RAMPUP_G3_T10  -1
    P_G3_T9   RAMPDN_G3_T10  1
    P_G4_T9   TOTAL_COST  37
    P_G4_T9   DEMAND_T9  1
    P_G4_T9   PMAX_G4_T9  1
    P_G4_T9   PMIN_G4_T9  1
    P_G4_T9   RAMPUP_G4_T9  1
    P_G4_T9   RAMPDN_G4_T9  -1
    P_G4_T9   RAMPUP_G4_T10  -1
    P_G4_T9   RAMPDN_G4_T10  1
    P_G5_T9   TOTAL_COST  37.8
    P_G5_T9   DEMAND_T9  1
    P_G5_T9   PMAX_G5_T9  1
    P_G5_T9   PMIN_G5_T9  1
    P_G5_T9   RAMPUP_G5_T9  1
    P_G5_T9   RAMPDN_G5_T9  -1
    P_G5_T9   RAMPUP_G5_T10  -1
    P_G5_T9   RAMPDN_G5_T10  1
    P_G6_T9   TOTAL_COST  50
    P_G6_T9   DEMAND_T9  1
    P_G6_T9   PMAX_G6_T9  1
    P_G6_T9   PMIN_G6_T9  1
    P_G6_T9   RAMPUP_G6_T9  1
    P_G6_T9   RAMPDN_G6_T9  -1
    P_G6_T9   RAMPUP_G6_T10  -1
    P_G6_T9   RAMPDN_G6_T10  1
    P_G7_T9   TOTAL_COST  36.6
    P_G7_T9   DEMAND_T9  1
    P_G7_T9   PMAX_G7_T9  1
    P_G7_T9   PMIN_G7_T9  1
    P_G7_T9   RAMPUP_G7_T9  1
    P_G7_T9   RAMPDN_G7_T9  -1
    P_G7_T9   RAMPUP_G7_T10  -1
    P_G7_T9   RAMPDN_G7_T10  1
    P_G8_T9   TOTAL_COST  41.5
    P_G8_T9   DEMAND_T9  1
    P_G8_T9   PMAX_G8_T9  1
    P_G8_T9   PMIN_G8_T9  1
    P_G8_T9   RAMPUP_G8_T9  1
    P_G8_T9   RAMPDN_G8_T9  -1
    P_G8_T9   RAMPUP_G8_T10  -1
    P_G8_T9   RAMPDN_G8_T10  1
    P_G9_T9   TOTAL_COST  35.4
    P_G9_T9   DEMAND_T9  1
    P_G9_T9   PMAX_G9_T9  1
    P_G9_T9   PMIN_G9_T9  1
    P_G9_T9   RAMPUP_G9_T9  1
    P_G9_T9   RAMPDN_G9_T9  -1
    P_G9_T9   RAMPUP_G9_T10  -1
    P_G9_T9   RAMPDN_G9_T10  1
    MARK2000  'MARKER'                 'INTORG'
    U_G0_T10  TOTAL_COST  141
    U_G0_T10  RESERVE_T10  235
    U_G0_T10  PMAX_G0_T10  -235
    U_G0_T10  PMIN_G0_T10  -65
    MARK2010  'MARKER'                 'INTEND'
    MARK2020  'MARKER'                 'INTORG'
    U_G1_T10  TOTAL_COST  182
    U_G1_T10  RESERVE_T10  223
    U_G1_T10  PMAX_G1_T10  -223
    U_G1_T10  PMIN_G1_T10  -26
    MARK2030  'MARKER'                 'INTEND'
    MARK2040  'MARKER'                 'INTORG'
    U_G2_T10  TOTAL_COST  291
    U_G2_T10  RESERVE_T10  214
    U_G2_T10  PMAX_G2_T10  -214
    U_G2_T10  PMIN_G2_T10  -21
    MARK2050  'MARKER'                 'INTEND'
    MARK2060  'MARKER'                 'INTORG'
    U_G3_T10  TOTAL_COST  114
    U_G3_T10  RESERVE_T10  256
    U_G3_T10  PMAX_G3_T10  -256
    U_G3_T10  PMIN_G3_T10  -77
    MARK2070  'MARKER'                 'INTEND'
    MARK2080  'MARKER'                 'INTORG'
    U_G4_T10  TOTAL_COST  130
    U_G4_T10  RESERVE_T10  147
    U_G4_T10  PMAX_G4_T10  -147
    U_G4_T10  PMIN_G4_T10  -65
    MARK2090  'MARKER'                 'INTEND'
    MARK2100  'MARKER'                 'INTORG'
    U_G5_T10  TOTAL_COST  332
    U_G5_T10  RESERVE_T10  215
    U_G5_T10  PMAX_G5_T10  -215
    U_G5_T10  PMIN_G5_T10  -26
    MARK2110  'MARKER'                 'INTEND'
    MARK2120  'MARKER'                 'INTORG'
    U_G6_T10  TOTAL_COST  341
    U_G6_T10  RESERVE_T10  178
    U_G6_T10  PMAX_G6_T10  -178
    U_G6_T10  PMIN_G6_T10  -65
    MARK2130  'MARKER'                 'INTEND'
    MARK2140  'MARKER'                 'INTORG'
    U_G7_T10  TOTAL_COST  189
    U_G7_T10  RESERVE_T10  254
    U_G7_T10  PMAX_G7_T10  -254
    U_G7_T10  PMIN_G7_T10  -76
    MARK2150  'MARKER'                 'INTEND'
    MARK2160  'MARKER'                 'INTORG'
    U_G8_T10  TOTAL_COST  247
    U_G8_T10  RESERVE_T10  203
    U_G8_T10  PMAX_G8_T10  -203
    U_G8_T10  PMIN_G8_T10  -62
    MARK2170  'MARKER'                 'INTEND'
    MARK2180  'MARKER'                 'INTORG'
    U_G9_T10  TOTAL_COST  300
    U_G9_T10  RESERVE_T10  209
    U_G9_T10  PMAX_G9_T10  -209
    U_G9_T10  PMIN_G9_T10  -56
    MARK2190  'MARKER'                 'INTEND'
    P_G0_T10  TOTAL_COST  50.1
    P_G0_T10  DEMAND_T10  1
    P_G0_T10  PMAX_G0_T10  1
    P_G0_T10  PMIN_G0_T10  1
    P_G0_T10  RAMPUP_G0_T10  1
    P_G0_T10  RAMPDN_G0_T10  -1
    P_G0_T10  RAMPUP_G0_T11  -1
    P_G0_T10  RAMPDN_G0_T11  1
    P_G1_T10  TOTAL_COST  34.9
    P_G1_T10  DEMAND_T10  1
    P_G1_T10  PMAX_G1_T10  1
    P_G1_T10  PMIN_G1_T10  1
    P_G1_T10  RAMPUP_G1_T10  1
    P_G1_T10  RAMPDN_G1_T10  -1
    P_G1_T10  RAMPUP_G1_T11  -1
    P_G1_T10  RAMPDN_G1_T11  1
    P_G2_T10  TOTAL_COST  47.4
    P_G2_T10  DEMAND_T10  1
    P_G2_T10  PMAX_G2_T10  1
    P_G2_T10  PMIN_G2_T10  1
    P_G2_T10  RAMPUP_G2_T10  1
    P_G2_T10  RAMPDN_G2_T10  -1
    P_G2_T10  RAMPUP_G2_T11  -1
    P_G2_T10  RAMPDN_G2_T11  1
    P_G3_T10  TOTAL_COST  38
    P_G3_T10  DEMAND_T10  1
    P_G3_T10  PMAX_G3_T10  1
    P_G3_T10  PMIN_G3_T10  1
    P_G3_T10  RAMPUP_G3_T10  1
    P_G3_T10  RAMPDN_G3_T10  -1
    P_G3_T10  RAMPUP_G3_T11  -1
    P_G3_T10  RAMPDN_G3_T11  1
    P_G4_T10  TOTAL_COST  37
    P_G4_T10  DEMAND_T10  1
    P_G4_T10  PMAX_G4_T10  1
    P_G4_T10  PMIN_G4_T10  1
    P_G4_T10  RAMPUP_G4_T10  1
    P_G4_T10  RAMPDN_G4_T10  -1
    P_G4_T10  RAMPUP_G4_T11  -1
    P_G4_T10  RAMPDN_G4_T11  1
    P_G5_T10  TOTAL_COST  37.8
    P_G5_T10  DEMAND_T10  1
    P_G5_T10  PMAX_G5_T10  1
    P_G5_T10  PMIN_G5_T10  1
    P_G5_T10  RAMPUP_G5_T10  1
    P_G5_T10  RAMPDN_G5_T10  -1
    P_G5_T10  RAMPUP_G5_T11  -1
    P_G5_T10  RAMPDN_G5_T11  1
    P_G6_T10  TOTAL_COST  50
    P_G6_T10  DEMAND_T10  1
    P_G6_T10  PMAX_G6_T10  1
    P_G6_T10  PMIN_G6_T10  1
    P_G6_T10  RAMPUP_G6_T10  1
    P_G6_T10  RAMPDN_G6_T10  -1
    P_G6_T10  RAMPUP_G6_T11  -1
    P_G6_T10  RAMPDN_G6_T11  1
    P_G7_T10  TOTAL_COST  36.6
    P_G7_T10  DEMAND_T10  1
    P_G7_T10  PMAX_G7_T10  1
    P_G7_T10  PMIN_G7_T10  1
    P_G7_T10  RAMPUP_G7_T10  1
    P_G7_T10  RAMPDN_G7_T10  -1
    P_G7_T10  RAMPUP_G7_T11  -1
    P_G7_T10  RAMPDN_G7_T11  1
    P_G8_T10  TOTAL_COST  41.5
    P_G8_T10  DEMAND_T10  1
    P_G8_T10  PMAX_G8_T10  1
    P_G8_T10  PMIN_G8_T10  1
    P_G8_T10  RAMPUP_G8_T10  1
    P_G8_T10  RAMPDN_G8_T10  -1
    P_G8_T10  RAMPUP_G8_T11  -1
    P_G8_T10  RAMPDN_G8_T11  1
    P_G9_T10  TOTAL_COST  35.4
    P_G9_T10  DEMAND_T10  1
    P_G9_T10  PMAX_G9_T10  1
    P_G9_T10  PMIN_G9_T10  1
    P_G9_T10  RAMPUP_G9_T10  1
    P_G9_T10  RAMPDN_G9_T10  -1
    P_G9_T10  RAMPUP_G9_T11  -1
    P_G9_T10  RAMPDN_G9_T11  1
    MARK2200  'MARKER'                 'INTORG'
    U_G0_T11  TOTAL_COST  141
    U_G0_T11  RESERVE_T11  235
    U_G0_T11  PMAX_G0_T11  -235
    U_G0_T11  PMIN_G0_T11  -65
    MARK2210  'MARKER'                 'INTEND'
    MARK2220  'MARKER'                 'INTORG'
    U_G1_T11  TOTAL_COST  182
    U_G1_T11  RESERVE_T11  223
    U_G1_T11  PMAX_G1_T11  -223
    U_G1_T11  PMIN_G1_T11  -26
    MARK2230  'MARKER'                 'INTEND'
    MARK2240  'MARKER'                 'INTORG'
    U_G2_T11  TOTAL_COST  291
    U_G2_T11  RESERVE_T11  214
    U_G2_T11  PMAX_G2_T11  -214
    U_G2_T11  PMIN_G2_T11  -21
    MARK2250  'MARKER'                 'INTEND'
    MARK2260  'MARKER'                 'INTORG'
    U_G3_T11  TOTAL_COST  114
    U_G3_T11  RESERVE_T11  256
    U_G3_T11  PMAX_G3_T11  -256
    U_G3_T11  PMIN_G3_T11  -77
    MARK2270  'MARKER'                 'INTEND'
    MARK2280  'MARKER'                 'INTORG'
    U_G4_T11  TOTAL_COST  130
    U_G4_T11  RESERVE_T11  147
    U_G4_T11  PMAX_G4_T11  -147
    U_G4_T11  PMIN_G4_T11  -65
    MARK2290  'MARKER'                 'INTEND'
    MARK2300  'MARKER'                 'INTORG'
    U_G5_T11  TOTAL_COST  332
    U_G5_T11  RESERVE_T11  215
    U_G5_T11  PMAX_G5_T11  -215
    U_G5_T11  PMIN_G5_T11  -26
    MARK2310  'MARKER'                 'INTEND'
    MARK2320  'MARKER'                 'INTORG'
    U_G6_T11  TOTAL_COST  341
    U_G6_T11  RESERVE_T11  178
    U_G6_T11  PMAX_G6_T11  -178
    U_G6_T11  PMIN_G6_T11  -65
    MARK2330  'MARKER'                 'INTEND'
    MARK2340  'MARKER'                 'INTORG'
    U_G7_T11  TOTAL_COST  189
    U_G7_T11  RESERVE_T11  254
    U_G7_T11  PMAX_G7_T11  -254
    U_G7_T11  PMIN_G7_T11  -76
    MARK2350  'MARKER'                 'INTEND'
    MARK2360  'MARKER'                 'INTORG'
    U_G8_T11  TOTAL_COST  247
    U_G8_T11  RESERVE_T11  203
    U_G8_T11  PMAX_G8_T11  -203
    U_G8_T11  PMIN_G8_T11  -62
    MARK2370  'MARKER'                 'INTEND'
    MARK2380  'MARKER'                 'INTORG'
    U_G9_T11  TOTAL_COST  300
    U_G9_T11  RESERVE_T11  209
    U_G9_T11  PMAX_G9_T11  -209
    U_G9_T11  PMIN_G9_T11  -56
    MARK2390  'MARKER'                 'INTEND'
    P_G0_T11  TOTAL_COST  50.1
    P_G0_T11  DEMAND_T11  1
    P_G0_T11  PMAX_G0_T11  1
    P_G0_T11  PMIN_G0_T11  1
    P_G0_T11  RAMPUP_G0_T11  1
    P_G0_T11  RAMPDN_G0_T11  -1
    P_G0_T11  RAMPUP_G0_T12  -1
    P_G0_T11  RAMPDN_G0_T12  1
    P_G1_T11  TOTAL_COST  34.9
    P_G1_T11  DEMAND_T11  1
    P_G1_T11  PMAX_G1_T11  1
    P_G1_T11  PMIN_G1_T11  1
    P_G1_T11  RAMPUP_G1_T11  1
    P_G1_T11  RAMPDN_G1_T11  -1
    P_G1_T11  RAMPUP_G1_T12  -1
    P_G1_T11  RAMPDN_G1_T12  1
    P_G2_T11  TOTAL_COST  47.4
    P_G2_T11  DEMAND_T11  1
    P_G2_T11  PMAX_G2_T11  1
    P_G2_T11  PMIN_G2_T11  1
    P_G2_T11  RAMPUP_G2_T11  1
    P_G2_T11  RAMPDN_G2_T11  -1
    P_G2_T11  RAMPUP_G2_T12  -1
    P_G2_T11  RAMPDN_G2_T12  1
    P_G3_T11  TOTAL_COST  38
    P_G3_T11  DEMAND_T11  1
    P_G3_T11  PMAX_G3_T11  1
    P_G3_T11  PMIN_G3_T11  1
    P_G3_T11  RAMPUP_G3_T11  1
    P_G3_T11  RAMPDN_G3_T11  -1
    P_G3_T11  RAMPUP_G3_T12  -1
    P_G3_T11  RAMPDN_G3_T12  1
    P_G4_T11  TOTAL_COST  37
    P_G4_T11  DEMAND_T11  1
    P_G4_T11  PMAX_G4_T11  1
    P_G4_T11  PMIN_G4_T11  1
    P_G4_T11  RAMPUP_G4_T11  1
    P_G4_T11  RAMPDN_G4_T11  -1
    P_G4_T11  RAMPUP_G4_T12  -1
    P_G4_T11  RAMPDN_G4_T12  1
    P_G5_T11  TOTAL_COST  37.8
    P_G5_T11  DEMAND_T11  1
    P_G5_T11  PMAX_G5_T11  1
    P_G5_T11  PMIN_G5_T11  1
    P_G5_T11  RAMPUP_G5_T11  1
    P_G5_T11  RAMPDN_G5_T11  -1
    P_G5_T11  RAMPUP_G5_T12  -1
    P_G5_T11  RAMPDN_G5_T12  1
    P_G6_T11  TOTAL_COST  50
    P_G6_T11  DEMAND_T11  1
    P_G6_T11  PMAX_G6_T11  1
    P_G6_T11  PMIN_G6_T11  1
    P_G6_T11  RAMPUP_G6_T11  1
    P_G6_T11  RAMPDN_G6_T11  -1
    P_G6_T11  RAMPUP_G6_T12  -1
    P_G6_T11  RAMPDN_G6_T12  1
    P_G7_T11  TOTAL_COST  36.6
    P_G7_T11  DEMAND_T11  1
    P_G7_T11  PMAX_G7_T11  1
    P_G7_T11  PMIN_G7_T11  1
    P_G7_T11  RAMPUP_G7_T11  1
    P_G7_T11  RAMPDN_G7_T11  -1
    P_G7_T11  RAMPUP_G7_T12  -1
    P_G7_T11  RAMPDN_G7_T12  1
    P_G8_T11  TOTAL_COST  41.5
    P_G8_T11  DEMAND_T11  1
    P_G8_T11  PMAX_G8_T11  1
    P_G8_T11  PMIN_G8_T11  1
    P_G8_T11  RAMPUP_G8_T11  1
    P_G8_T11  RAMPDN_G8_T11  -1
    P_G8_T11  RAMPUP_G8_T12  -1
    P_G8_T11  RAMPDN_G8_T12  1
    P_G9_T11  TOTAL_COST  35.4
    P_G9_T11  DEMAND_T11  1
    P_G9_T11  PMAX_G9_T11  1
    P_G9_T11  PMIN_G9_T11  1
    P_G9_T11  RAMPUP_G9_T11  1
    P_G9_T11  RAMPDN_G9_T11  -1
    P_G9_T11  RAMPUP_G9_T12  -1
    P_G9_T11  RAMPDN_G9_T12  1
    MARK2400  'MARKER'                 'INTORG'
    U_G0_T12  TOTAL_COST  141
    U_G0_T12  RESERVE_T12  235
    U_G0_T12  PMAX_G0_T12  -235
    U_G0_T12  PMIN_G0_T12  -65
    MARK2410  'MARKER'                 'INTEND'
    MARK2420  'MARKER'                 'INTORG'
    U_G1_T12  TOTAL_COST  182
    U_G1_T12  RESERVE_T12  223
    U_G1_T12  PMAX_G1_T12  -223
    U_G1_T12  PMIN_G1_T12  -26
    MARK2430  'MARKER'                 'INTEND'
    MARK2440  'MARKER'                 'INTORG'
    U_G2_T12  TOTAL_COST  291
    U_G2_T12  RESERVE_T12  214
    U_G2_T12  PMAX_G2_T12  -214
    U_G2_T12  PMIN_G2_T12  -21
    MARK2450  'MARKER'                 'INTEND'
    MARK2460  'MARKER'                 'INTORG'
    U_G3_T12  TOTAL_COST  114
    U_G3_T12  RESERVE_T12  256
    U_G3_T12  PMAX_G3_T12  -256
    U_G3_T12  PMIN_G3_T12  -77
    MARK2470  'MARKER'                 'INTEND'
    MARK2480  'MARKER'                 'INTORG'
    U_G4_T12  TOTAL_COST  130
    U_G4_T12  RESERVE_T12  147
    U_G4_T12  PMAX_G4_T12  -147
    U_G4_T12  PMIN_G4_T12  -65
    MARK2490  'MARKER'                 'INTEND'
    MARK2500  'MARKER'                 'INTORG'
    U_G5_T12  TOTAL_COST  332
    U_G5_T12  RESERVE_T12  215
    U_G5_T12  PMAX_G5_T12  -215
    U_G5_T12  PMIN_G5_T12  -26
    MARK2510  'MARKER'                 'INTEND'
    MARK2520  'MARKER'                 'INTORG'
    U_G6_T12  TOTAL_COST  341
    U_G6_T12  RESERVE_T12  178
    U_G6_T12  PMAX_G6_T12  -178
    U_G6_T12  PMIN_G6_T12  -65
    MARK2530  'MARKER'                 'INTEND'
    MARK2540  'MARKER'                 'INTORG'
    U_G7_T12  TOTAL_COST  189
    U_G7_T12  RESERVE_T12  254
    U_G7_T12  PMAX_G7_T12  -254
    U_G7_T12  PMIN_G7_T12  -76
    MARK2550  'MARKER'                 'INTEND'
    MARK2560  'MARKER'                 'INTORG'
    U_G8_T12  TOTAL_COST  247
    U_G8_T12  RESERVE_T12  203
    U_G8_T12  PMAX_G8_T12  -203
    U_G8_T12  PMIN_G8_T12  -62
    MARK2570  'MARKER'                 'INTEND'
    MARK2580  'MARKER'                 'INTORG'
    U_G9_T12  TOTAL_COST  300
    U_G9_T12  RESERVE_T12  209
    U_G9_T12  PMAX_G9_T12  -209
    U_G9_T12  PMIN_G9_T12  -56
    MARK2590  'MARKER'                 'INTEND'
    P_G0_T12  TOTAL_COST  50.1
    P_G0_T12  DEMAND_T12  1
    P_G0_T12  PMAX_G0_T12  1
    P_G0_T12  PMIN_G0_T12  1
    P_G0_T12  RAMPUP_G0_T12  1
    P_G0_T12  RAMPDN_G0_T12  -1
    P_G0_T12  RAMPUP_G0_T13  -1
    P_G0_T12  RAMPDN_G0_T13  1
    P_G1_T12  TOTAL_COST  34.9
    P_G1_T12  DEMAND_T12  1
    P_G1_T12  PMAX_G1_T12  1
    P_G1_T12  PMIN_G1_T12  1
    P_G1_T12  RAMPUP_G1_T12  1
    P_G1_T12  RAMPDN_G1_T12  -1
    P_G1_T12  RAMPUP_G1_T13  -1
    P_G1_T12  RAMPDN_G1_T13  1
    P_G2_T12  TOTAL_COST  47.4
    P_G2_T12  DEMAND_T12  1
    P_G2_T12  PMAX_G2_T12  1
    P_G2_T12  PMIN_G2_T12  1
    P_G2_T12  RAMPUP_G2_T12  1
    P_G2_T12  RAMPDN_G2_T12  -1
    P_G2_T12  RAMPUP_G2_T13  -1
    P_G2_T12  RAMPDN_G2_T13  1
    P_G3_T12  TOTAL_COST  38
    P_G3_T12  DEMAND_T12  1
    P_G3_T12  PMAX_G3_T12  1
    P_G3_T12  PMIN_G3_T12  1
    P_G3_T12  RAMPUP_G3_T12  1
    P_G3_T12  RAMPDN_G3_T12  -1
    P_G3_T12  RAMPUP_G3_T13  -1
    P_G3_T12  RAMPDN_G3_T13  1
    P_G4_T12  TOTAL_COST  37
    P_G4_T12  DEMAND_T12  1
    P_G4_T12  PMAX_G4_T12  1
    P_G4_T12  PMIN_G4_T12  1
    P_G4_T12  RAMPUP_G4_T12  1
    P_G4_T12  RAMPDN_G4_T12  -1
    P_G4_T12  RAMPUP_G4_T13  -1
    P_G4_T12  RAMPDN_G4_T13  1
    P_G5_T12  TOTAL_COST  37.8
    P_G5_T12  DEMAND_T12  1
    P_G5_T12  PMAX_G5_T12  1
    P_G5_T12  PMIN_G5_T12  1
    P_G5_T12  RAMPUP_G5_T12  1
    P_G5_T12  RAMPDN_G5_T12  -1
    P_G5_T12  RAMPUP_G5_T13  -1
    P_G5_T12  RAMPDN_G5_T13  1
    P_G6_T12  TOTAL_COST  50
    P_G6_T12  DEMAND_T12  1
    P_G6_T12  PMAX_G6_T12  1
    P_G6_T12  PMIN_G6_T12  1
    P_G6_T12  RAMPUP_G6_T12  1
    P_G6_T12  RAMPDN_G6_T12  -1
    P_G6_T12  RAMPUP_G6_T13  -1
    P_G6_T12  RAMPDN_G6_T13  1
    P_G7_T12  TOTAL_COST  36.6
    P_G7_T12  DEMAND_T12  1
    P_G7_T12  PMAX_G7_T12  1
    P_G7_T12  PMIN_G7_T12  1
    P_G7_T12  RAMPUP_G7_T12  1
    P_G7_T12  RAMPDN_G7_T12  -1
    P_G7_T12  RAMPUP_G7_T13  -1
    P_G7_T12  RAMPDN_G7_T13  1
    P_G8_T12  TOTAL_COST  41.5
    P_G8_T12  DEMAND_T12  1
    P_G8_T12  PMAX_G8_T12  1
    P_G8_T12  PMIN_G8_T12  1
    P_G8_T12  RAMPUP_G8_T12  1
    P_G8_T12  RAMPDN_G8_T12  -1
    P_G8_T12  RAMPUP_G8_T13  -1
    P_G8_T12  RAMPDN_G8_T13  1
    P_G9_T12  TOTAL_COST  35.4
    P_G9_T12  DEMAND_T12  1
    P_G9_T12  PMAX_G9_T12  1
    P_G9_T12  PMIN_G9_T12  1
    P_G9_T12  RAMPUP_G9_T12  1
    P_G9_T12  RAMPDN_G9_T12  -1
    P_G9_T12  RAMPUP_G9_T13  -1
    P_G9_T12  RAMPDN_G9_T13  1
    MARK2600  'MARKER'                 'INTORG'
    U_G0_T13  TOTAL_COST  141
    U_G0_T13  RESERVE_T13  235
    U_G0_T13  PMAX_G0_T13  -235
    U_G0_T13  PMIN_G0_T13  -65
    MARK2610  'MARKER'                 'INTEND'
    MARK2620  'MARKER'                 'INTORG'
    U_G1_T13  TOTAL_COST  182
    U_G1_T13  RESERVE_T13  223
    U_G1_T13  PMAX_G1_T13  -223
    U_G1_T13  PMIN_G1_T13  -26
    MARK2630  'MARKER'                 'INTEND'
    MARK2640  'MARKER'                 'INTORG'
    U_G2_T13  TOTAL_COST  291
    U_G2_T13  RESERVE_T13  214
    U_G2_T13  PMAX_G2_T13  -214
    U_G2_T13  PMIN_G2_T13  -21
    MARK2650  'MARKER'                 'INTEND'
    MARK2660  'MARKER'                 'INTORG'
    U_G3_T13  TOTAL_COST  114
    U_G3_T13  RESERVE_T13  256
    U_G3_T13  PMAX_G3_T13  -256
    U_G3_T13  PMIN_G3_T13  -77
    MARK2670  'MARKER'                 'INTEND'
    MARK2680  'MARKER'                 'INTORG'
    U_G4_T13  TOTAL_COST  130
    U_G4_T13  RESERVE_T13  147
    U_G4_T13  PMAX_G4_T13  -147
    U_G4_T13  PMIN_G4_T13  -65
    MARK2690  'MARKER'                 'INTEND'
    MARK2700  'MARKER'                 'INTORG'
    U_G5_T13  TOTAL_COST  332
    U_G5_T13  RESERVE_T13  215
    U_G5_T13  PMAX_G5_T13  -215
    U_G5_T13  PMIN_G5_T13  -26
    MARK2710  'MARKER'                 'INTEND'
    MARK2720  'MARKER'                 'INTORG'
    U_G6_T13  TOTAL_COST  341
    U_G6_T13  RESERVE_T13  178
    U_G6_T13  PMAX_G6_T13  -178
    U_G6_T13  PMIN_G6_T13  -65
    MARK2730  'MARKER'                 'INTEND'
    MARK2740  'MARKER'                 'INTORG'
    U_G7_T13  TOTAL_COST  189
    U_G7_T13  RESERVE_T13  254
    U_G7_T13  PMAX_G7_T13  -254
    U_G7_T13  PMIN_G7_T13  -76
    MARK2750  'MARKER'                 'INTEND'
    MARK2760  'MARKER'                 'INTORG'
    U_G8_T13  TOTAL_COST  247
    U_G8_T13  RESERVE_T13  203
    U_G8_T13  PMAX_G8_T13  -203
    U_G8_T13  PMIN_G8_T13  -62
    MARK2770  'MARKER'                 'INTEND'
    MARK2780  'MARKER'                 'INTORG'
    U_G9_T13  TOTAL_COST  300
    U_G9_T13  RESERVE_T13  209
    U_G9_T13  PMAX_G9_T13  -209
    U_G9_T13  PMIN_G9_T13  -56
    MARK2790  'MARKER'                 'INTEND'
    P_G0_T13  TOTAL_COST  50.1
    P_G0_T13  DEMAND_T13  1
    P_G0_T13  PMAX_G0_T13  1
    P_G0_T13  PMIN_G0_T13  1
    P_G0_T13  RAMPUP_G0_T13  1
    P_G0_T13  RAMPDN_G0_T13  -1
    P_G0_T13  RAMPUP_G0_T14  -1
    P_G0_T13  RAMPDN_G0_T14  1
    P_G1_T13  TOTAL_COST  34.9
    P_G1_T13  DEMAND_T13  1
    P_G1_T13  PMAX_G1_T13  1
    P_G1_T13  PMIN_G1_T13  1
    P_G1_T13  RAMPUP_G1_T13  1
    P_G1_T13  RAMPDN_G1_T13  -1
    P_G1_T13  RAMPUP_G1_T14  -1
    P_G1_T13  RAMPDN_G1_T14  1
    P_G2_T13  TOTAL_COST  47.4
    P_G2_T13  DEMAND_T13  1
    P_G2_T13  PMAX_G2_T13  1
    P_G2_T13  PMIN_G2_T13  1
    P_G2_T13  RAMPUP_G2_T13  1
    P_G2_T13  RAMPDN_G2_T13  -1
    P_G2_T13  RAMPUP_G2_T14  -1
    P_G2_T13  RAMPDN_G2_T14  1
    P_G3_T13  TOTAL_COST  38
    P_G3_T13  DEMAND_T13  1
    P_G3_T13  PMAX_G3_T13  1
    P_G3_T13  PMIN_G3_T13  1
    P_G3_T13  RAMPUP_G3_T13  1
    P_G3_T13  RAMPDN_G3_T13  -1
    P_G3_T13  RAMPUP_G3_T14  -1
    P_G3_T13  RAMPDN_G3_T14  1
    P_G4_T13  TOTAL_COST  37
    P_G4_T13  DEMAND_T13  1
    P_G4_T13  PMAX_G4_T13  1
    P_G4_T13  PMIN_G4_T13  1
    P_G4_T13  RAMPUP_G4_T13  1
    P_G4_T13  RAMPDN_G4_T13  -1
    P_G4_T13  RAMPUP_G4_T14  -1
    P_G4_T13  RAMPDN_G4_T14  1
    P_G5_T13  TOTAL_COST  37.8
    P_G5_T13  DEMAND_T13  1
    P_G5_T13  PMAX_G5_T13  1
    P_G5_T13  PMIN_G5_T13  1
    P_G5_T13  RAMPUP_G5_T13  1
    P_G5_T13  RAMPDN_G5_T13  -1
    P_G5_T13  RAMPUP_G5_T14  -1
    P_G5_T13  RAMPDN_G5_T14  1
    P_G6_T13  TOTAL_COST  50
    P_G6_T13  DEMAND_T13  1
    P_G6_T13  PMAX_G6_T13  1
    P_G6_T13  PMIN_G6_T13  1
    P_G6_T13  RAMPUP_G6_T13  1
    P_G6_T13  RAMPDN_G6_T13  -1
    P_G6_T13  RAMPUP_G6_T14  -1
    P_G6_T13  RAMPDN_G6_T14  1
    P_G7_T13  TOTAL_COST  36.6
    P_G7_T13  DEMAND_T13  1
    P_G7_T13  PMAX_G7_T13  1
    P_G7_T13  PMIN_G7_T13  1
    P_G7_T13  RAMPUP_G7_T13  1
    P_G7_T13  RAMPDN_G7_T13  -1
    P_G7_T13  RAMPUP_G7_T14  -1
    P_G7_T13  RAMPDN_G7_T14  1
    P_G8_T13  TOTAL_COST  41.5
    P_G8_T13  DEMAND_T13  1
    P_G8_T13  PMAX_G8_T13  1
    P_G8_T13  PMIN_G8_T13  1
    P_G8_T13  RAMPUP_G8_T13  1
    P_G8_T13  RAMPDN_G8_T13  -1
    P_G8_T13  RAMPUP_G8_T14  -1
    P_G8_T13  RAMPDN_G8_T14  1
    P_G9_T13  TOTAL_COST  35.4
    P_G9_T13  DEMAND_T13  1
    P_G9_T13  PMAX_G9_T13  1
    P_G9_T13  PMIN_G9_T13  1
    P_G9_T13  RAMPUP_G9_T13  1
    P_G9_T13  RAMPDN_G9_T13  -1
    P_G9_T13  RAMPUP_G9_T14  -1
    P_G9_T13  RAMPDN_G9_T14  1
    MARK2800  'MARKER'                 'INTORG'
    U_G0_T14  TOTAL_COST  141
    U_G0_T14  RESERVE_T14  235
    U_G0_T14  PMAX_G0_T14  -235
    U_G0_T14  PMIN_G0_T14  -65
    MARK2810  'MARKER'                 'INTEND'
    MARK2820  'MARKER'                 'INTORG'
    U_G1_T14  TOTAL_COST  182
    U_G1_T14  RESERVE_T14  223
    U_G1_T14  PMAX_G1_T14  -223
    U_G1_T14  PMIN_G1_T14  -26
    MARK2830  'MARKER'                 'INTEND'
    MARK2840  'MARKER'                 'INTORG'
    U_G2_T14  TOTAL_COST  291
    U_G2_T14  RESERVE_T14  214
    U_G2_T14  PMAX_G2_T14  -214
    U_G2_T14  PMIN_G2_T14  -21
    MARK2850  'MARKER'                 'INTEND'
    MARK2860  'MARKER'                 'INTORG'
    U_G3_T14  TOTAL_COST  114
    U_G3_T14  RESERVE_T14  256
    U_G3_T14  PMAX_G3_T14  -256
    U_G3_T14  PMIN_G3_T14  -77
    MARK2870  'MARKER'                 'INTEND'
    MARK2880  'MARKER'                 'INTORG'
    U_G4_T14  TOTAL_COST  130
    U_G4_T14  RESERVE_T14  147
    U_G4_T14  PMAX_G4_T14  -147
    U_G4_T14  PMIN_G4_T14  -65
    MARK2890  'MARKER'                 'INTEND'
    MARK2900  'MARKER'                 'INTORG'
    U_G5_T14  TOTAL_COST  332
    U_G5_T14  RESERVE_T14  215
    U_G5_T14  PMAX_G5_T14  -215
    U_G5_T14  PMIN_G5_T14  -26
    MARK2910  'MARKER'                 'INTEND'
    MARK2920  'MARKER'                 'INTORG'
    U_G6_T14  TOTAL_COST  341
    U_G6_T14  RESERVE_T14  178
    U_G6_T14  PMAX_G6_T14  -178
    U_G6_T14  PMIN_G6_T14  -65
    MARK2930  'MARKER'                 'INTEND'
    MARK2940  'MARKER'                 'INTORG'
    U_G7_T14  TOTAL_COST  189
    U_G7_T14  RESERVE_T14  254
    U_G7_T14  PMAX_G7_T14  -254
    U_G7_T14  PMIN_G7_T14  -76
    MARK2950  'MARKER'                 'INTEND'
    MARK2960  'MARKER'                 'INTORG'
    U_G8_T14  TOTAL_COST  247
    U_G8_T14  RESERVE_T14  203
    U_G8_T14  PMAX_G8_T14  -203
    U_G8_T14  PMIN_G8_T14  -62
    MARK2970  'MARKER'                 'INTEND'
    MARK2980  'MARKER'                 'INTORG'
    U_G9_T14  TOTAL_COST  300
    U_G9_T14  RESERVE_T14  209
    U_G9_T14  PMAX_G9_T14  -209
    U_G9_T14  PMIN_G9_T14  -56
    MARK2990  'MARKER'                 'INTEND'
    P_G0_T14  TOTAL_COST  50.1
    P_G0_T14  DEMAND_T14  1
    P_G0_T14  PMAX_G0_T14  1
    P_G0_T14  PMIN_G0_T14  1
    P_G0_T14  RAMPUP_G0_T14  1
    P_G0_T14  RAMPDN_G0_T14  -1
    P_G0_T14  RAMPUP_G0_T15  -1
    P_G0_T14  RAMPDN_G0_T15  1
    P_G1_T14  TOTAL_COST  34.9
    P_G1_T14  DEMAND_T14  1
    P_G1_T14  PMAX_G1_T14  1
    P_G1_T14  PMIN_G1_T14  1
    P_G1_T14  RAMPUP_G1_T14  1
    P_G1_T14  RAMPDN_G1_T14  -1
    P_G1_T14  RAMPUP_G1_T15  -1
    P_G1_T14  RAMPDN_G1_T15  1
    P_G2_T14  TOTAL_COST  47.4
    P_G2_T14  DEMAND_T14  1
    P_G2_T14  PMAX_G2_T14  1
    P_G2_T14  PMIN_G2_T14  1
    P_G2_T14  RAMPUP_G2_T14  1
    P_G2_T14  RAMPDN_G2_T14  -1
    P_G2_T14  RAMPUP_G2_T15  -1
    P_G2_T14  RAMPDN_G2_T15  1
    P_G3_T14  TOTAL_COST  38
    P_G3_T14  DEMAND_T14  1
    P_G3_T14  PMAX_G3_T14  1
    P_G3_T14  PMIN_G3_T14  1
    P_G3_T14  RAMPUP_G3_T14  1
    P_G3_T14  RAMPDN_G3_T14  -1
    P_G3_T14  RAMPUP_G3_T15  -1
    P_G3_T14  RAMPDN_G3_T15  1
    P_G4_T14  TOTAL_COST  37
    P_G4_T14  DEMAND_T14  1
    P_G4_T14  PMAX_G4_T14  1
    P_G4_T14  PMIN_G4_T14  1
    P_G4_T14  RAMPUP_G4_T14  1
    P_G4_T14  RAMPDN_G4_T14  -1
    P_G4_T14  RAMPUP_G4_T15  -1
    P_G4_T14  RAMPDN_G4_T15  1
    P_G5_T14  TOTAL_COST  37.8
    P_G5_T14  DEMAND_T14  1
    P_G5_T14  PMAX_G5_T14  1
    P_G5_T14  PMIN_G5_T14  1
    P_G5_T14  RAMPUP_G5_T14  1
    P_G5_T14  RAMPDN_G5_T14  -1
    P_G5_T14  RAMPUP_G5_T15  -1
    P_G5_T14  RAMPDN_G5_T15  1
    P_G6_T14  TOTAL_COST  50
    P_G6_T14  DEMAND_T14  1
    P_G6_T14  PMAX_G6_T14  1
    P_G6_T14  PMIN_G6_T14  1
    P_G6_T14  RAMPUP_G6_T14  1
    P_G6_T14  RAMPDN_G6_T14  -1
    P_G6_T14  RAMPUP_G6_T15  -1
    P_G6_T14  RAMPDN_G6_T15  1
    P_G7_T14  TOTAL_COST  36.6
    P_G7_T14  DEMAND_T14  1
    P_G7_T14  PMAX_G7_T14  1
    P_G7_T14  PMIN_G7_T14  1
    P_G7_T14  RAMPUP_G7_T14  1
    P_G7_T14  RAMPDN_G7_T14  -1
    P_G7_T14  RAMPUP_G7_T15  -1
    P_G7_T14  RAMPDN_G7_T15  1
    P_G8_T14  TOTAL_COST  41.5
    P_G8_T14  DEMAND_T14  1
    P_G8_T14  PMAX_G8_T14  1
    P_G8_T14  PMIN_G8_T14  1
    P_G8_T14  RAMPUP_G8_T14  1
    P_G8_T14  RAMPDN_G8_T14  -1
    P_G8_T14  RAMPUP_G8_T15  -1
    P_G8_T14  RAMPDN_G8_T15  1
    P_G9_T14  TOTAL_COST  35.4
    P_G9_T14  DEMAND_T14  1
    P_G9_T14  PMAX_G9_T14  1
    P_G9_T14  PMIN_G9_T14  1
    P_G9_T14  RAMPUP_G9_T14  1
    P_G9_T14  RAMPDN_G9_T14  -1
    P_G9_T14  RAMPUP_G9_T15  -1
    P_G9_T14  RAMPDN_G9_T15  1
    MARK3000  'MARKER'                 'INTORG'
    U_G0_T15  TOTAL_COST  141
    U_G0_T15  RESERVE_T15  235
    U_G0_T15  PMAX_G0_T15  -235
    U_G0_T15  PMIN_G0_T15  -65
    MARK3010  'MARKER'                 'INTEND'
    MARK3020  'MARKER'                 'INTORG'
    U_G1_T15  TOTAL_COST  182
    U_G1_T15  RESERVE_T15  223
    U_G1_T15  PMAX_G1_T15  -223
    U_G1_T15  PMIN_G1_T15  -26
    MARK3030  'MARKER'                 'INTEND'
    MARK3040  'MARKER'                 'INTORG'
    U_G2_T15  TOTAL_COST  291
    U_G2_T15  RESERVE_T15  214
    U_G2_T15  PMAX_G2_T15  -214
    U_G2_T15  PMIN_G2_T15  -21
    MARK3050  'MARKER'                 'INTEND'
    MARK3060  'MARKER'                 'INTORG'
    U_G3_T15  TOTAL_COST  114
    U_G3_T15  RESERVE_T15  256
    U_G3_T15  PMAX_G3_T15  -256
    U_G3_T15  PMIN_G3_T15  -77
    MARK3070  'MARKER'                 'INTEND'
    MARK3080  'MARKER'                 'INTORG'
    U_G4_T15  TOTAL_COST  130
    U_G4_T15  RESERVE_T15  147
    U_G4_T15  PMAX_G4_T15  -147
    U_G4_T15  PMIN_G4_T15  -65
    MARK3090  'MARKER'                 'INTEND'
    MARK3100  'MARKER'                 'INTORG'
    U_G5_T15  TOTAL_COST  332
    U_G5_T15  RESERVE_T15  215
    U_G5_T15  PMAX_G5_T15  -215
    U_G5_T15  PMIN_G5_T15  -26
    MARK3110  'MARKER'                 'INTEND'
    MARK3120  'MARKER'                 'INTORG'
    U_G6_T15  TOTAL_COST  341
    U_G6_T15  RESERVE_T15  178
    U_G6_T15  PMAX_G6_T15  -178
    U_G6_T15  PMIN_G6_T15  -65
    MARK3130  'MARKER'                 'INTEND'
    MARK3140  'MARKER'                 'INTORG'
    U_G7_T15  TOTAL_COST  189
    U_G7_T15  RESERVE_T15  254
    U_G7_T15  PMAX_G7_T15  -254
    U_G7_T15  PMIN_G7_T15  -76
    MARK3150  'MARKER'                 'INTEND'
    MARK3160  'MARKER'                 'INTORG'
    U_G8_T15  TOTAL_COST  247
    U_G8_T15  RESERVE_T15  203
    U_G8_T15  PMAX_G8_T15  -203
    U_G8_T15  PMIN_G8_T15  -62
    MARK3170  'MARKER'                 'INTEND'
    MARK3180  'MARKER'                 'INTORG'
    U_G9_T15  TOTAL_COST  300
    U_G9_T15  RESERVE_T15  209
    U_G9_T15  PMAX_G9_T15  -209
    U_G9_T15  PMIN_G9_T15  -56
    MARK3190  'MARKER'                 'INTEND'
    P_G0_T15  TOTAL_COST  50.1
    P_G0_T15  DEMAND_T15  1
    P_G0_T15  PMAX_G0_T15  1
    P_G0_T15  PMIN_G0_T15  1
    P_G0_T15  RAMPUP_G0_T15  1
    P_G0_T15  RAMPDN_G0_T15  -1
    P_G0_T15  RAMPUP_G0_T16  -1
    P_G0_T15  RAMPDN_G0_T16  1
    P_G1_T15  TOTAL_COST  34.9
    P_G1_T15  DEMAND_T15  1
    P_G1_T15  PMAX_G1_T15  1
    P_G1_T15  PMIN_G1_T15  1
    P_G1_T15  RAMPUP_G1_T15  1
    P_G1_T15  RAMPDN_G1_T15  -1
    P_G1_T15  RAMPUP_G1_T16  -1
    P_G1_T15  RAMPDN_G1_T16  1
    P_G2_T15  TOTAL_COST  47.4
    P_G2_T15  DEMAND_T15  1
    P_G2_T15  PMAX_G2_T15  1
    P_G2_T15  PMIN_G2_T15  1
    P_G2_T15  RAMPUP_G2_T15  1
    P_G2_T15  RAMPDN_G2_T15  -1
    P_G2_T15  RAMPUP_G2_T16  -1
    P_G2_T15  RAMPDN_G2_T16  1
    P_G3_T15  TOTAL_COST  38
    P_G3_T15  DEMAND_T15  1
    P_G3_T15  PMAX_G3_T15  1
    P_G3_T15  PMIN_G3_T15  1
    P_G3_T15  RAMPUP_G3_T15  1
    P_G3_T15  RAMPDN_G3_T15  -1
    P_G3_T15  RAMPUP_G3_T16  -1
    P_G3_T15  RAMPDN_G3_T16  1
    P_G4_T15  TOTAL_COST  37
    P_G4_T15  DEMAND_T15  1
    P_G4_T15  PMAX_G4_T15  1
    P_G4_T15  PMIN_G4_T15  1
    P_G4_T15  RAMPUP_G4_T15  1
    P_G4_T15  RAMPDN_G4_T15  -1
    P_G4_T15  RAMPUP_G4_T16  -1
    P_G4_T15  RAMPDN_G4_T16  1
    P_G5_T15  TOTAL_COST  37.8
    P_G5_T15  DEMAND_T15  1
    P_G5_T15  PMAX_G5_T15  1
    P_G5_T15  PMIN_G5_T15  1
    P_G5_T15  RAMPUP_G5_T15  1
    P_G5_T15  RAMPDN_G5_T15  -1
    P_G5_T15  RAMPUP_G5_T16  -1
    P_G5_T15  RAMPDN_G5_T16  1
    P_G6_T15  TOTAL_COST  50
    P_G6_T15  DEMAND_T15  1
    P_G6_T15  PMAX_G6_T15  1
    P_G6_T15  PMIN_G6_T15  1
    P_G6_T15  RAMPUP_G6_T15  1
    P_G6_T15  RAMPDN_G6_T15  -1
    P_G6_T15  RAMPUP_G6_T16  -1
    P_G6_T15  RAMPDN_G6_T16  1
    P_G7_T15  TOTAL_COST  36.6
    P_G7_T15  DEMAND_T15  1
    P_G7_T15  PMAX_G7_T15  1
    P_G7_T15  PMIN_G7_T15  1
    P_G7_T15  RAMPUP_G7_T15  1
    P_G7_T15  RAMPDN_G7_T15  -1
    P_G7_T15  RAMPUP_G7_T16  -1
    P_G7_T15  RAMPDN_G7_T16  1
    P_G8_T15  TOTAL_COST  41.5
    P_G8_T15  DEMAND_T15  1
    P_G8_T15  PMAX_G8_T15  1
    P_G8_T15  PMIN_G8_T15  1
    P_G8_T15  RAMPUP_G8_T15  1
    P_G8_T15  RAMPDN_G8_T15  -1
    P_G8_T15  RAMPUP_G8_T16  -1
    P_G8_T15  RAMPDN_G8_T16  1
    P_G9_T15  TOTAL_COST  35.4
    P_G9_T15  DEMAND_T15  1
    P_G9_T15  PMAX_G9_T15  1
    P_G9_T15  PMIN_G9_T15  1
    P_G9_T15  RAMPUP_G9_T15  1
    P_G9_T15  RAMPDN_G9_T15  -1
    P_G9_T15  RAMPUP_G9_T16  -1
    P_G9_T15  RAMPDN_G9_T16  1
    MARK3200  'MARKER'                 'INTORG'
    U_G0_T16  TOTAL_COST  141
    U_G0_T16  RESERVE_T16  235
    U_G0_T16  PMAX_G0_T16  -235
    U_G0_T16  PMIN_G0_T16  -65
    MARK3210  'MARKER'                 'INTEND'
    MARK3220  'MARKER'                 'INTORG'
    U_G1_T16  TOTAL_COST  182
    U_G1_T16  RESERVE_T16  223
    U_G1_T16  PMAX_G1_T16  -223
    U_G1_T16  PMIN_G1_T16  -26
    MARK3230  'MARKER'                 'INTEND'
    MARK3240  'MARKER'                 'INTORG'
    U_G2_T16  TOTAL_COST  291
    U_G2_T16  RESERVE_T16  214
    U_G2_T16  PMAX_G2_T16  -214
    U_G2_T16  PMIN_G2_T16  -21
    MARK3250  'MARKER'                 'INTEND'
    MARK3260  'MARKER'                 'INTORG'
    U_G3_T16  TOTAL_COST  114
    U_G3_T16  RESERVE_T16  256
    U_G3_T16  PMAX_G3_T16  -256
    U_G3_T16  PMIN_G3_T16  -77
    MARK3270  'MARKER'                 'INTEND'
    MARK3280  'MARKER'                 'INTORG'
    U_G4_T16  TOTAL_COST  130
    U_G4_T16  RESERVE_T16  147
    U_G4_T16  PMAX_G4_T16  -147
    U_G4_T16  PMIN_G4_T16  -65
    MARK3290  'MARKER'                 'INTEND'
    MARK3300  'MARKER'                 'INTORG'
    U_G5_T16  TOTAL_COST  332
    U_G5_T16  RESERVE_T16  215
    U_G5_T16  PMAX_G5_T16  -215
    U_G5_T16  PMIN_G5_T16  -26
    MARK3310  'MARKER'                 'INTEND'
    MARK3320  'MARKER'                 'INTORG'
    U_G6_T16  TOTAL_COST  341
    U_G6_T16  RESERVE_T16  178
    U_G6_T16  PMAX_G6_T16  -178
    U_G6_T16  PMIN_G6_T16  -65
    MARK3330  'MARKER'                 'INTEND'
    MARK3340  'MARKER'                 'INTORG'
    U_G7_T16  TOTAL_COST  189
    U_G7_T16  RESERVE_T16  254
    U_G7_T16  PMAX_G7_T16  -254
    U_G7_T16  PMIN_G7_T16  -76
    MARK3350  'MARKER'                 'INTEND'
    MARK3360  'MARKER'                 'INTORG'
    U_G8_T16  TOTAL_COST  247
    U_G8_T16  RESERVE_T16  203
    U_G8_T16  PMAX_G8_T16  -203
    U_G8_T16  PMIN_G8_T16  -62
    MARK3370  'MARKER'                 'INTEND'
    MARK3380  'MARKER'                 'INTORG'
    U_G9_T16  TOTAL_COST  300
    U_G9_T16  RESERVE_T16  209
    U_G9_T16  PMAX_G9_T16  -209
    U_G9_T16  PMIN_G9_T16  -56
    MARK3390  'MARKER'                 'INTEND'
    P_G0_T16  TOTAL_COST  50.1
    P_G0_T16  DEMAND_T16  1
    P_G0_T16  PMAX_G0_T16  1
    P_G0_T16  PMIN_G0_T16  1
    P_G0_T16  RAMPUP_G0_T16  1
    P_G0_T16  RAMPDN_G0_T16  -1
    P_G0_T16  RAMPUP_G0_T17  -1
    P_G0_T16  RAMPDN_G0_T17  1
    P_G1_T16  TOTAL_COST  34.9
    P_G1_T16  DEMAND_T16  1
    P_G1_T16  PMAX_G1_T16  1
    P_G1_T16  PMIN_G1_T16  1
    P_G1_T16  RAMPUP_G1_T16  1
    P_G1_T16  RAMPDN_G1_T16  -1
    P_G1_T16  RAMPUP_G1_T17  -1
    P_G1_T16  RAMPDN_G1_T17  1
    P_G2_T16  TOTAL_COST  47.4
    P_G2_T16  DEMAND_T16  1
    P_G2_T16  PMAX_G2_T16  1
    P_G2_T16  PMIN_G2_T16  1
    P_G2_T16  RAMPUP_G2_T16  1
    P_G2_T16  RAMPDN_G2_T16  -1
    P_G2_T16  RAMPUP_G2_T17  -1
    P_G2_T16  RAMPDN_G2_T17  1
    P_G3_T16  TOTAL_COST  38
    P_G3_T16  DEMAND_T16  1
    P_G3_T16  PMAX_G3_T16  1
    P_G3_T16  PMIN_G3_T16  1
    P_G3_T16  RAMPUP_G3_T16  1
    P_G3_T16  RAMPDN_G3_T16  -1
    P_G3_T16  RAMPUP_G3_T17  -1
    P_G3_T16  RAMPDN_G3_T17  1
    P_G4_T16  TOTAL_COST  37
    P_G4_T16  DEMAND_T16  1
    P_G4_T16  PMAX_G4_T16  1
    P_G4_T16  PMIN_G4_T16  1
    P_G4_T16  RAMPUP_G4_T16  1
    P_G4_T16  RAMPDN_G4_T16  -1
    P_G4_T16  RAMPUP_G4_T17  -1
    P_G4_T16  RAMPDN_G4_T17  1
    P_G5_T16  TOTAL_COST  37.8
    P_G5_T16  DEMAND_T16  1
    P_G5_T16  PMAX_G5_T16  1
    P_G5_T16  PMIN_G5_T16  1
    P_G5_T16  RAMPUP_G5_T16  1
    P_G5_T16  RAMPDN_G5_T16  -1
    P_G5_T16  RAMPUP_G5_T17  -1
    P_G5_T16  RAMPDN_G5_T17  1
    P_G6_T16  TOTAL_COST  50
    P_G6_T16  DEMAND_T16  1
    P_G6_T16  PMAX_G6_T16  1
    P_G6_T16  PMIN_G6_T16  1
    P_G6_T16  RAMPUP_G6_T16  1
    P_G6_T16  RAMPDN_G6_T16  -1
    P_G6_T16  RAMPUP_G6_T17  -1
    P_G6_T16  RAMPDN_G6_T17  1
    P_G7_T16  TOTAL_COST  36.6
    P_G7_T16  DEMAND_T16  1
    P_G7_T16  PMAX_G7_T16  1
    P_G7_T16  PMIN_G7_T16  1
    P_G7_T16  RAMPUP_G7_T16  1
    P_G7_T16  RAMPDN_G7_T16  -1
    P_G7_T16  RAMPUP_G7_T17  -1
    P_G7_T16  RAMPDN_G7_T17  1
    P_G8_T16  TOTAL_COST  41.5
    P_G8_T16  DEMAND_T16  1
    P_G8_T16  PMAX_G8_T16  1
    P_G8_T16  PMIN_G8_T16  1
    P_G8_T16  RAMPUP_G8_T16  1
    P_G8_T16  RAMPDN_G8_T16  -1
    P_G8_T16  RAMPUP_G8_T17  -1
    P_G8_T16  RAMPDN_G8_T17  1
    P_G9_T16  TOTAL_COST  35.4
    P_G9_T16  DEMAND_T16  1
    P_G9_T16  PMAX_G9_T16  1
    P_G9_T16  PMIN_G9_T16  1
    P_G9_T16  RAMPUP_G9_T16  1
    P_G9_T16  RAMPDN_G9_T16  -1
    P_G9_T16  RAMPUP_G9_T17  -1
    P_G9_T16  RAMPDN_G9_T17  1
    MARK3400  'MARKER'                 'INTORG'
    U_G0_T17  TOTAL_COST  141
    U_G0_T17  RESERVE_T17  235
    U_G0_T17  PMAX_G0_T17  -235
    U_G0_T17  PMIN_G0_T17  -65
    MARK3410  'MARKER'                 'INTEND'
    MARK3420  'MARKER'                 'INTORG'
    U_G1_T17  TOTAL_COST  182
    U_G1_T17  RESERVE_T17  223
    U_G1_T17  PMAX_G1_T17  -223
    U_G1_T17  PMIN_G1_T17  -26
    MARK3430  'MARKER'                 'INTEND'
    MARK3440  'MARKER'                 'INTORG'
    U_G2_T17  TOTAL_COST  291
    U_G2_T17  RESERVE_T17  214
    U_G2_T17  PMAX_G2_T17  -214
    U_G2_T17  PMIN_G2_T17  -21
    MARK3450  'MARKER'                 'INTEND'
    MARK3460  'MARKER'                 'INTORG'
    U_G3_T17  TOTAL_COST  114
    U_G3_T17  RESERVE_T17  256
    U_G3_T17  PMAX_G3_T17  -256
    U_G3_T17  PMIN_G3_T17  -77
    MARK3470  'MARKER'                 'INTEND'
    MARK3480  'MARKER'                 'INTORG'
    U_G4_T17  TOTAL_COST  130
    U_G4_T17  RESERVE_T17  147
    U_G4_T17  PMAX_G4_T17  -147
    U_G4_T17  PMIN_G4_T17  -65
    MARK3490  'MARKER'                 'INTEND'
    MARK3500  'MARKER'                 'INTORG'
    U_G5_T17  TOTAL_COST  332
    U_G5_T17  RESERVE_T17  215
    U_G5_T17  PMAX_G5_T17  -215
    U_G5_T17  PMIN_G5_T17  -26
    MARK3510  'MARKER'                 'INTEND'
    MARK3520  'MARKER'                 'INTORG'
    U_G6_T17  TOTAL_COST  341
    U_G6_T17  RESERVE_T17  178
    U_G6_T17  PMAX_G6_T17  -178
    U_G6_T17  PMIN_G6_T17  -65
    MARK3530  'MARKER'                 'INTEND'
    MARK3540  'MARKER'                 'INTORG'
    U_G7_T17  TOTAL_COST  189
    U_G7_T17  RESERVE_T17  254
    U_G7_T17  PMAX_G7_T17  -254
    U_G7_T17  PMIN_G7_T17  -76
    MARK3550  'MARKER'                 'INTEND'
    MARK3560  'MARKER'                 'INTORG'
    U_G8_T17  TOTAL_COST  247
    U_G8_T17  RESERVE_T17  203
    U_G8_T17  PMAX_G8_T17  -203
    U_G8_T17  PMIN_G8_T17  -62
    MARK3570  'MARKER'                 'INTEND'
    MARK3580  'MARKER'                 'INTORG'
    U_G9_T17  TOTAL_COST  300
    U_G9_T17  RESERVE_T17  209
    U_G9_T17  PMAX_G9_T17  -209
    U_G9_T17  PMIN_G9_T17  -56
    MARK3590  'MARKER'                 'INTEND'
    P_G0_T17  TOTAL_COST  50.1
    P_G0_T17  DEMAND_T17  1
    P_G0_T17  PMAX_G0_T17  1
    P_G0_T17  PMIN_G0_T17  1
    P_G0_T17  RAMPUP_G0_T17  1
    P_G0_T17  RAMPDN_G0_T17  -1
    P_G0_T17  RAMPUP_G0_T18  -1
    P_G0_T17  RAMPDN_G0_T18  1
    P_G1_T17  TOTAL_COST  34.9
    P_G1_T17  DEMAND_T17  1
    P_G1_T17  PMAX_G1_T17  1
    P_G1_T17  PMIN_G1_T17  1
    P_G1_T17  RAMPUP_G1_T17  1
    P_G1_T17  RAMPDN_G1_T17  -1
    P_G1_T17  RAMPUP_G1_T18  -1
    P_G1_T17  RAMPDN_G1_T18  1
    P_G2_T17  TOTAL_COST  47.4
    P_G2_T17  DEMAND_T17  1
    P_G2_T17  PMAX_G2_T17  1
    P_G2_T17  PMIN_G2_T17  1
    P_G2_T17  RAMPUP_G2_T17  1
    P_G2_T17  RAMPDN_G2_T17  -1
    P_G2_T17  RAMPUP_G2_T18  -1
    P_G2_T17  RAMPDN_G2_T18  1
    P_G3_T17  TOTAL_COST  38
    P_G3_T17  DEMAND_T17  1
    P_G3_T17  PMAX_G3_T17  1
    P_G3_T17  PMIN_G3_T17  1
    P_G3_T17  RAMPUP_G3_T17  1
    P_G3_T17  RAMPDN_G3_T17  -1
    P_G3_T17  RAMPUP_G3_T18  -1
    P_G3_T17  RAMPDN_G3_T18  1
    P_G4_T17  TOTAL_COST  37
    P_G4_T17  DEMAND_T17  1
    P_G4_T17  PMAX_G4_T17  1
    P_G4_T17  PMIN_G4_T17  1
    P_G4_T17  RAMPUP_G4_T17  1
    P_G4_T17  RAMPDN_G4_T17  -1
    P_G4_T17  RAMPUP_G4_T18  -1
    P_G4_T17  RAMPDN_G4_T18  1
    P_G5_T17  TOTAL_COST  37.8
    P_G5_T17  DEMAND_T17  1
    P_G5_T17  PMAX_G5_T17  1
    P_G5_T17  PMIN_G5_T17  1
    P_G5_T17  RAMPUP_G5_T17  1
    P_G5_T17  RAMPDN_G5_T17  -1
    P_G5_T17  RAMPUP_G5_T18  -1
    P_G5_T17  RAMPDN_G5_T18  1
    P_G6_T17  TOTAL_COST  50
    P_G6_T17  DEMAND_T17  1
    P_G6_T17  PMAX_G6_T17  1
    P_G6_T17  PMIN_G6_T17  1
    P_G6_T17  RAMPUP_G6_T17  1
    P_G6_T17  RAMPDN_G6_T17  -1
    P_G6_T17  RAMPUP_G6_T18  -1
    P_G6_T17  RAMPDN_G6_T18  1
    P_G7_T17  TOTAL_COST  36.6
    P_G7_T17  DEMAND_T17  1
    P_G7_T17  PMAX_G7_T17  1
    P_G7_T17  PMIN_G7_T17  1
    P_G7_T17  RAMPUP_G7_T17  1
    P_G7_T17  RAMPDN_G7_T17  -1
    P_G7_T17  RAMPUP_G7_T18  -1
    P_G7_T17  RAMPDN_G7_T18  1
    P_G8_T17  TOTAL_COST  41.5
    P_G8_T17  DEMAND_T17  1
    P_G8_T17  PMAX_G8_T17  1
    P_G8_T17  PMIN_G8_T17  1
    P_G8_T17  RAMPUP_G8_T17  1
    P_G8_T17  RAMPDN_G8_T17  -1
    P_G8_T17  RAMPUP_G8_T18  -1
    P_G8_T17  RAMPDN_G8_T18  1
    P_G9_T17  TOTAL_COST  35.4
    P_G9_T17  DEMAND_T17  1
    P_G9_T17  PMAX_G9_T17  1
    P_G9_T17  PMIN_G9_T17  1
    P_G9_T17  RAMPUP_G9_T17  1
    P_G9_T17  RAMPDN_G9_T17  -1
    P_G9_T17  RAMPUP_G9_T18  -1
    P_G9_T17  RAMPDN_G9_T18  1
    MARK3600  'MARKER'                 'INTORG'
    U_G0_T18  TOTAL_COST  141
    U_G0_T18  RESERVE_T18  235
    U_G0_T18  PMAX_G0_T18  -235
    U_G0_T18  PMIN_G0_T18  -65
    MARK3610  'MARKER'                 'INTEND'
    MARK3620  'MARKER'                 'INTORG'
    U_G1_T18  TOTAL_COST  182
    U_G1_T18  RESERVE_T18  223
    U_G1_T18  PMAX_G1_T18  -223
    U_G1_T18  PMIN_G1_T18  -26
    MARK3630  'MARKER'                 'INTEND'
    MARK3640  'MARKER'                 'INTORG'
    U_G2_T18  TOTAL_COST  291
    U_G2_T18  RESERVE_T18  214
    U_G2_T18  PMAX_G2_T18  -214
    U_G2_T18  PMIN_G2_T18  -21
    MARK3650  'MARKER'                 'INTEND'
    MARK3660  'MARKER'                 'INTORG'
    U_G3_T18  TOTAL_COST  114
    U_G3_T18  RESERVE_T18  256
    U_G3_T18  PMAX_G3_T18  -256
    U_G3_T18  PMIN_G3_T18  -77
    MARK3670  'MARKER'                 'INTEND'
    MARK3680  'MARKER'                 'INTORG'
    U_G4_T18  TOTAL_COST  130
    U_G4_T18  RESERVE_T18  147
    U_G4_T18  PMAX_G4_T18  -147
    U_G4_T18  PMIN_G4_T18  -65
    MARK3690  'MARKER'                 'INTEND'
    MARK3700  'MARKER'                 'INTORG'
    U_G5_T18  TOTAL_COST  332
    U_G5_T18  RESERVE_T18  215
    U_G5_T18  PMAX_G5_T18  -215
    U_G5_T18  PMIN_G5_T18  -26
    MARK3710  'MARKER'                 'INTEND'
    MARK3720  'MARKER'                 'INTORG'
    U_G6_T18  TOTAL_COST  341
    U_G6_T18  RESERVE_T18  178
    U_G6_T18  PMAX_G6_T18  -178
    U_G6_T18  PMIN_G6_T18  -65
    MARK3730  'MARKER'                 'INTEND'
    MARK3740  'MARKER'                 'INTORG'
    U_G7_T18  TOTAL_COST  189
    U_G7_T18  RESERVE_T18  254
    U_G7_T18  PMAX_G7_T18  -254
    U_G7_T18  PMIN_G7_T18  -76
    MARK3750  'MARKER'                 'INTEND'
    MARK3760  'MARKER'                 'INTORG'
    U_G8_T18  TOTAL_COST  247
    U_G8_T18  RESERVE_T18  203
    U_G8_T18  PMAX_G8_T18  -203
    U_G8_T18  PMIN_G8_T18  -62
    MARK3770  'MARKER'                 'INTEND'
    MARK3780  'MARKER'                 'INTORG'
    U_G9_T18  TOTAL_COST  300
    U_G9_T18  RESERVE_T18  209
    U_G9_T18  PMAX_G9_T18  -209
    U_G9_T18  PMIN_G9_T18  -56
    MARK3790  'MARKER'                 'INTEND'
    P_G0_T18  TOTAL_COST  50.1
    P_G0_T18  DEMAND_T18  1
    P_G0_T18  PMAX_G0_T18  1
    P_G0_T18  PMIN_G0_T18  1
    P_G0_T18  RAMPUP_G0_T18  1
    P_G0_T18  RAMPDN_G0_T18  -1
    P_G0_T18  RAMPUP_G0_T19  -1
    P_G0_T18  RAMPDN_G0_T19  1
    P_G1_T18  TOTAL_COST  34.9
    P_G1_T18  DEMAND_T18  1
    P_G1_T18  PMAX_G1_T18  1
    P_G1_T18  PMIN_G1_T18  1
    P_G1_T18  RAMPUP_G1_T18  1
    P_G1_T18  RAMPDN_G1_T18  -1
    P_G1_T18  RAMPUP_G1_T19  -1
    P_G1_T18  RAMPDN_G1_T19  1
    P_G2_T18  TOTAL_COST  47.4
    P_G2_T18  DEMAND_T18  1
    P_G2_T18  PMAX_G2_T18  1
    P_G2_T18  PMIN_G2_T18  1
    P_G2_T18  RAMPUP_G2_T18  1
    P_G2_T18  RAMPDN_G2_T18  -1
    P_G2_T18  RAMPUP_G2_T19  -1
    P_G2_T18  RAMPDN_G2_T19  1
    P_G3_T18  TOTAL_COST  38
    P_G3_T18  DEMAND_T18  1
    P_G3_T18  PMAX_G3_T18  1
    P_G3_T18  PMIN_G3_T18  1
    P_G3_T18  RAMPUP_G3_T18  1
    P_G3_T18  RAMPDN_G3_T18  -1
    P_G3_T18  RAMPUP_G3_T19  -1
    P_G3_T18  RAMPDN_G3_T19  1
    P_G4_T18  TOTAL_COST  37
    P_G4_T18  DEMAND_T18  1
    P_G4_T18  PMAX_G4_T18  1
    P_G4_T18  PMIN_G4_T18  1
    P_G4_T18  RAMPUP_G4_T18  1
    P_G4_T18  RAMPDN_G4_T18  -1
    P_G4_T18  RAMPUP_G4_T19  -1
    P_G4_T18  RAMPDN_G4_T19  1
    P_G5_T18  TOTAL_COST  37.8
    P_G5_T18  DEMAND_T18  1
    P_G5_T18  PMAX_G5_T18  1
    P_G5_T18  PMIN_G5_T18  1
    P_G5_T18  RAMPUP_G5_T18  1
    P_G5_T18  RAMPDN_G5_T18  -1
    P_G5_T18  RAMPUP_G5_T19  -1
    P_G5_T18  RAMPDN_G5_T19  1
    P_G6_T18  TOTAL_COST  50
    P_G6_T18  DEMAND_T18  1
    P_G6_T18  PMAX_G6_T18  1
    P_G6_T18  PMIN_G6_T18  1
    P_G6_T18  RAMPUP_G6_T18  1
    P_G6_T18  RAMPDN_G6_T18  -1
    P_G6_T18  RAMPUP_G6_T19  -1
    P_G6_T18  RAMPDN_G6_T19  1
    P_G7_T18  TOTAL_COST  36.6
    P_G7_T18  DEMAND_T18  1
    P_G7_T18  PMAX_G7_T18  1
    P_G7_T18  PMIN_G7_T18  1
    P_G7_T18  RAMPUP_G7_T18  1
    P_G7_T18  RAMPDN_G7_T18  -1
    P_G7_T18  RAMPUP_G7_T19  -1
    P_G7_T18  RAMPDN_G7_T19  1
    P_G8_T18  TOTAL_COST  41.5
    P_G8_T18  DEMAND_T18  1
    P_G8_T18  PMAX_G8_T18  1
    P_G8_T18  PMIN_G8_T18  1
    P_G8_T18  RAMPUP_G8_T18  1
    P_G8_T18  RAMPDN_G8_T18  -1
    P_G8_T18  RAMPUP_G8_T19  -1
    P_G8_T18  RAMPDN_G8_T19  1
    P_G9_T18  TOTAL_COST  35.4
    P_G9_T18  DEMAND_T18  1
    P_G9_T18  PMAX_G9_T18  1
    P_G9_T18  PMIN_G9_T18  1
    P_G9_T18  RAMPUP_G9_T18  1
    P_G9_T18  RAMPDN_G9_T18  -1
    P_G9_T18  RAMPUP_G9_T19  -1
    P_G9_T18  RAMPDN_G9_T19  1
    MARK3800  'MARKER'                 'INTORG'
    U_G0_T19  TOTAL_COST  141
    U_G0_T19  RESERVE_T19  235
    U_G0_T19  PMAX_G0_T19  -235
    U_G0_T19  PMIN_G0_T19  -65
    MARK3810  'MARKER'                 'INTEND'
    MARK3820  'MARKER'                 'INTORG'
    U_G1_T19  TOTAL_COST  182
    U_G1_T19  RESERVE_T19  223
    U_G1_T19  PMAX_G1_T19  -223
    U_G1_T19  PMIN_G1_T19  -26
    MARK3830  'MARKER'                 'INTEND'
    MARK3840  'MARKER'                 'INTORG'
    U_G2_T19  TOTAL_COST  291
    U_G2_T19  RESERVE_T19  214
    U_G2_T19  PMAX_G2_T19  -214
    U_G2_T19  PMIN_G2_T19  -21
    MARK3850  'MARKER'                 'INTEND'
    MARK3860  'MARKER'                 'INTORG'
    U_G3_T19  TOTAL_COST  114
    U_G3_T19  RESERVE_T19  256
    U_G3_T19  PMAX_G3_T19  -256
    U_G3_T19  PMIN_G3_T19  -77
    MARK3870  'MARKER'                 'INTEND'
    MARK3880  'MARKER'                 'INTORG'
    U_G4_T19  TOTAL_COST  130
    U_G4_T19  RESERVE_T19  147
    U_G4_T19  PMAX_G4_T19  -147
    U_G4_T19  PMIN_G4_T19  -65
    MARK3890  'MARKER'                 'INTEND'
    MARK3900  'MARKER'                 'INTORG'
    U_G5_T19  TOTAL_COST  332
    U_G5_T19  RESERVE_T19  215
    U_G5_T19  PMAX_G5_T19  -215
    U_G5_T19  PMIN_G5_T19  -26
    MARK3910  'MARKER'                 'INTEND'
    MARK3920  'MARKER'                 'INTORG'
    U_G6_T19  TOTAL_COST  341
    U_G6_T19  RESERVE_T19  178
    U_G6_T19  PMAX_G6_T19  -178
    U_G6_T19  PMIN_G6_T19  -65
    MARK3930  'MARKER'                 'INTEND'
    MARK3940  'MARKER'                 'INTORG'
    U_G7_T19  TOTAL_COST  189
    U_G7_T19  RESERVE_T19  254
    U_G7_T19  PMAX_G7_T19  -254
    U_G7_T19  PMIN_G7_T19  -76
    MARK3950  'MARKER'                 'INTEND'
    MARK3960  'MARKER'                 'INTORG'
    U_G8_T19  TOTAL_COST  247
    U_G8_T19  RESERVE_T19  203
    U_G8_T19  PMAX_G8_T19  -203
    U_G8_T19  PMIN_G8_T19  -62
    MARK3970  'MARKER'                 'INTEND'
    MARK3980  'MARKER'                 'INTORG'
    U_G9_T19  TOTAL_COST  300
    U_G9_T19  RESERVE_T19  209
    U_G9_T19  PMAX_G9_T19  -209
    U_G9_T19  PMIN_G9_T19  -56
    MARK3990  'MARKER'                 'INTEND'
    P_G0_T19  TOTAL_COST  50.1
    P_G0_T19  DEMAND_T19  1
    P_G0_T19  PMAX_G0_T19  1
    P_G0_T19  PMIN_G0_T19  1
    P_G0_T19  RAMPUP_G0_T19  1
    P_G0_T19  RAMPDN_G0_T19  -1
    P_G0_T19  RAMPUP_G0_T20  -1
    P_G0_T19  RAMPDN_G0_T20  1
    P_G1_T19  TOTAL_COST  34.9
    P_G1_T19  DEMAND_T19  1
    P_G1_T19  PMAX_G1_T19  1
    P_G1_T19  PMIN_G1_T19  1
    P_G1_T19  RAMPUP_G1_T19  1
    P_G1_T19  RAMPDN_G1_T19  -1
    P_G1_T19  RAMPUP_G1_T20  -1
    P_G1_T19  RAMPDN_G1_T20  1
    P_G2_T19  TOTAL_COST  47.4
    P_G2_T19  DEMAND_T19  1
    P_G2_T19  PMAX_G2_T19  1
    P_G2_T19  PMIN_G2_T19  1
    P_G2_T19  RAMPUP_G2_T19  1
    P_G2_T19  RAMPDN_G2_T19  -1
    P_G2_T19  RAMPUP_G2_T20  -1
    P_G2_T19  RAMPDN_G2_T20  1
    P_G3_T19  TOTAL_COST  38
    P_G3_T19  DEMAND_T19  1
    P_G3_T19  PMAX_G3_T19  1
    P_G3_T19  PMIN_G3_T19  1
    P_G3_T19  RAMPUP_G3_T19  1
    P_G3_T19  RAMPDN_G3_T19  -1
    P_G3_T19  RAMPUP_G3_T20  -1
    P_G3_T19  RAMPDN_G3_T20  1
    P_G4_T19  TOTAL_COST  37
    P_G4_T19  DEMAND_T19  1
    P_G4_T19  PMAX_G4_T19  1
    P_G4_T19  PMIN_G4_T19  1
    P_G4_T19  RAMPUP_G4_T19  1
    P_G4_T19  RAMPDN_G4_T19  -1
    P_G4_T19  RAMPUP_G4_T20  -1
    P_G4_T19  RAMPDN_G4_T20  1
    P_G5_T19  TOTAL_COST  37.8
    P_G5_T19  DEMAND_T19  1
    P_G5_T19  PMAX_G5_T19  1
    P_G5_T19  PMIN_G5_T19  1
    P_G5_T19  RAMPUP_G5_T19  1
    P_G5_T19  RAMPDN_G5_T19  -1
    P_G5_T19  RAMPUP_G5_T20  -1
    P_G5_T19  RAMPDN_G5_T20  1
    P_G6_T19  TOTAL_COST  50
    P_G6_T19  DEMAND_T19  1
    P_G6_T19  PMAX_G6_T19  1
    P_G6_T19  PMIN_G6_T19  1
    P_G6_T19  RAMPUP_G6_T19  1
    P_G6_T19  RAMPDN_G6_T19  -1
    P_G6_T19  RAMPUP_G6_T20  -1
    P_G6_T19  RAMPDN_G6_T20  1
    P_G7_T19  TOTAL_COST  36.6
    P_G7_T19  DEMAND_T19  1
    P_G7_T19  PMAX_G7_T19  1
    P_G7_T19  PMIN_G7_T19  1
    P_G7_T19  RAMPUP_G7_T19  1
    P_G7_T19  RAMPDN_G7_T19  -1
    P_G7_T19  RAMPUP_G7_T20  -1
    P_G7_T19  RAMPDN_G7_T20  1
    P_G8_T19  TOTAL_COST  41.5
    P_G8_T19  DEMAND_T19  1
    P_G8_T19  PMAX_G8_T19  1
    P_G8_T19  PMIN_G8_T19  1
    P_G8_T19  RAMPUP_G8_T19  1
    P_G8_T19  RAMPDN_G8_T19  -1
    P_G8_T19  RAMPUP_G8_T20  -1
    P_G8_T19  RAMPDN_G8_T20  1
    P_G9_T19  TOTAL_COST  35.4
    P_G9_T19  DEMAND_T19  1
    P_G9_T19  PMAX_G9_T19  1
    P_G9_T19  PMIN_G9_T19  1
    P_G9_T19  RAMPUP_G9_T19  1
    P_G9_T19  RAMPDN_G9_T19  -1
    P_G9_T19  RAMPUP_G9_T20  -1
    P_G9_T19  RAMPDN_G9_T20  1
    MARK4000  'MARKER'                 'INTORG'
    U_G0_T20  TOTAL_COST  141
    U_G0_T20  RESERVE_T20  235
    U_G0_T20  PMAX_G0_T20  -235
    U_G0_T20  PMIN_G0_T20  -65
    MARK4010  'MARKER'                 'INTEND'
    MARK4020  'MARKER'                 'INTORG'
    U_G1_T20  TOTAL_COST  182
    U_G1_T20  RESERVE_T20  223
    U_G1_T20  PMAX_G1_T20  -223
    U_G1_T20  PMIN_G1_T20  -26
    MARK4030  'MARKER'                 'INTEND'
    MARK4040  'MARKER'                 'INTORG'
    U_G2_T20  TOTAL_COST  291
    U_G2_T20  RESERVE_T20  214
    U_G2_T20  PMAX_G2_T20  -214
    U_G2_T20  PMIN_G2_T20  -21
    MARK4050  'MARKER'                 'INTEND'
    MARK4060  'MARKER'                 'INTORG'
    U_G3_T20  TOTAL_COST  114
    U_G3_T20  RESERVE_T20  256
    U_G3_T20  PMAX_G3_T20  -256
    U_G3_T20  PMIN_G3_T20  -77
    MARK4070  'MARKER'                 'INTEND'
    MARK4080  'MARKER'                 'INTORG'
    U_G4_T20  TOTAL_COST  130
    U_G4_T20  RESERVE_T20  147
    U_G4_T20  PMAX_G4_T20  -147
    U_G4_T20  PMIN_G4_T20  -65
    MARK4090  'MARKER'                 'INTEND'
    MARK4100  'MARKER'                 'INTORG'
    U_G5_T20  TOTAL_COST  332
    U_G5_T20  RESERVE_T20  215
    U_G5_T20  PMAX_G5_T20  -215
    U_G5_T20  PMIN_G5_T20  -26
    MARK4110  'MARKER'                 'INTEND'
    MARK4120  'MARKER'                 'INTORG'
    U_G6_T20  TOTAL_COST  341
    U_G6_T20  RESERVE_T20  178
    U_G6_T20  PMAX_G6_T20  -178
    U_G6_T20  PMIN_G6_T20  -65
    MARK4130  'MARKER'                 'INTEND'
    MARK4140  'MARKER'                 'INTORG'
    U_G7_T20  TOTAL_COST  189
    U_G7_T20  RESERVE_T20  254
    U_G7_T20  PMAX_G7_T20  -254
    U_G7_T20  PMIN_G7_T20  -76
    MARK4150  'MARKER'                 'INTEND'
    MARK4160  'MARKER'                 'INTORG'
    U_G8_T20  TOTAL_COST  247
    U_G8_T20  RESERVE_T20  203
    U_G8_T20  PMAX_G8_T20  -203
    U_G8_T20  PMIN_G8_T20  -62
    MARK4170  'MARKER'                 'INTEND'
    MARK4180  'MARKER'                 'INTORG'
    U_G9_T20  TOTAL_COST  300
    U_G9_T20  RESERVE_T20  209
    U_G9_T20  PMAX_G9_T20  -209
    U_G9_T20  PMIN_G9_T20  -56
    MARK4190  'MARKER'                 'INTEND'
    P_G0_T20  TOTAL_COST  50.1
    P_G0_T20  DEMAND_T20  1
    P_G0_T20  PMAX_G0_T20  1
    P_G0_T20  PMIN_G0_T20  1
    P_G0_T20  RAMPUP_G0_T20  1
    P_G0_T20  RAMPDN_G0_T20  -1
    P_G0_T20  RAMPUP_G0_T21  -1
    P_G0_T20  RAMPDN_G0_T21  1
    P_G1_T20  TOTAL_COST  34.9
    P_G1_T20  DEMAND_T20  1
    P_G1_T20  PMAX_G1_T20  1
    P_G1_T20  PMIN_G1_T20  1
    P_G1_T20  RAMPUP_G1_T20  1
    P_G1_T20  RAMPDN_G1_T20  -1
    P_G1_T20  RAMPUP_G1_T21  -1
    P_G1_T20  RAMPDN_G1_T21  1
    P_G2_T20  TOTAL_COST  47.4
    P_G2_T20  DEMAND_T20  1
    P_G2_T20  PMAX_G2_T20  1
    P_G2_T20  PMIN_G2_T20  1
    P_G2_T20  RAMPUP_G2_T20  1
    P_G2_T20  RAMPDN_G2_T20  -1
    P_G2_T20  RAMPUP_G2_T21  -1
    P_G2_T20  RAMPDN_G2_T21  1
    P_G3_T20  TOTAL_COST  38
    P_G3_T20  DEMAND_T20  1
    P_G3_T20  PMAX_G3_T20  1
    P_G3_T20  PMIN_G3_T20  1
    P_G3_T20  RAMPUP_G3_T20  1
    P_G3_T20  RAMPDN_G3_T20  -1
    P_G3_T20  RAMPUP_G3_T21  -1
    P_G3_T20  RAMPDN_G3_T21  1
    P_G4_T20  TOTAL_COST  37
    P_G4_T20  DEMAND_T20  1
    P_G4_T20  PMAX_G4_T20  1
    P_G4_T20  PMIN_G4_T20  1
    P_G4_T20  RAMPUP_G4_T20  1
    P_G4_T20  RAMPDN_G4_T20  -1
    P_G4_T20  RAMPUP_G4_T21  -1
    P_G4_T20  RAMPDN_G4_T21  1
    P_G5_T20  TOTAL_COST  37.8
    P_G5_T20  DEMAND_T20  1
    P_G5_T20  PMAX_G5_T20  1
    P_G5_T20  PMIN_G5_T20  1
    P_G5_T20  RAMPUP_G5_T20  1
    P_G5_T20  RAMPDN_G5_T20  -1
    P_G5_T20  RAMPUP_G5_T21  -1
    P_G5_T20  RAMPDN_G5_T21  1
    P_G6_T20  TOTAL_COST  50
    P_G6_T20  DEMAND_T20  1
    P_G6_T20  PMAX_G6_T20  1
    P_G6_T20  PMIN_G6_T20  1
    P_G6_T20  RAMPUP_G6_T20  1
    P_G6_T20  RAMPDN_G6_T20  -1
    P_G6_T20  RAMPUP_G6_T21  -1
    P_G6_T20  RAMPDN_G6_T21  1
    P_G7_T20  TOTAL_COST  36.6
    P_G7_T20  DEMAND_T20  1
    P_G7_T20  PMAX_G7_T20  1
    P_G7_T20  PMIN_G7_T20  1
    P_G7_T20  RAMPUP_G7_T20  1
    P_G7_T20  RAMPDN_G7_T20  -1
    P_G7_T20  RAMPUP_G7_T21  -1
    P_G7_T20  RAMPDN_G7_T21  1
    P_G8_T20  TOTAL_COST  41.5
    P_G8_T20  DEMAND_T20  1
    P_G8_T20  PMAX_G8_T20  1
    P_G8_T20  PMIN_G8_T20  1
    P_G8_T20  RAMPUP_G8_T20  1
    P_G8_T20  RAMPDN_G8_T20  -1
    P_G8_T20  RAMPUP_G8_T21  -1
    P_G8_T20  RAMPDN_G8_T21  1
    P_G9_T20  TOTAL_COST  35.4
    P_G9_T20  DEMAND_T20  1
    P_G9_T20  PMAX_G9_T20  1
    P_G9_T20  PMIN_G9_T20  1
    P_G9_T20  RAMPUP_G9_T20  1
    P_G9_T20  RAMPDN_G9_T20  -1
    P_G9_T20  RAMPUP_G9_T21  -1
    P_G9_T20  RAMPDN_G9_T21  1
    MARK4200  'MARKER'                 'INTORG'
    U_G0_T21  TOTAL_COST  141
    U_G0_T21  RESERVE_T21  235
    U_G0_T21  PMAX_G0_T21  -235
    U_G0_T21  PMIN_G0_T21  -65
    MARK4210  'MARKER'                 'INTEND'
    MARK4220  'MARKER'                 'INTORG'
    U_G1_T21  TOTAL_COST  182
    U_G1_T21  RESERVE_T21  223
    U_G1_T21  PMAX_G1_T21  -223
    U_G1_T21  PMIN_G1_T21  -26
    MARK4230  'MARKER'                 'INTEND'
    MARK4240  'MARKER'                 'INTORG'
    U_G2_T21  TOTAL_COST  291
    U_G2_T21  RESERVE_T21  214
    U_G2_T21  PMAX_G2_T21  -214
    U_G2_T21  PMIN_G2_T21  -21
    MARK4250  'MARKER'                 'INTEND'
    MARK4260  'MARKER'                 'INTORG'
    U_G3_T21  TOTAL_COST  114
    U_G3_T21  RESERVE_T21  256
    U_G3_T21  PMAX_G3_T21  -256
    U_G3_T21  PMIN_G3_T21  -77
    MARK4270  'MARKER'                 'INTEND'
    MARK4280  'MARKER'                 'INTORG'
    U_G4_T21  TOTAL_COST  130
    U_G4_T21  RESERVE_T21  147
    U_G4_T21  PMAX_G4_T21  -147
    U_G4_T21  PMIN_G4_T21  -65
    MARK4290  'MARKER'                 'INTEND'
    MARK4300  'MARKER'                 'INTORG'
    U_G5_T21  TOTAL_COST  332
    U_G5_T21  RESERVE_T21  215
    U_G5_T21  PMAX_G5_T21  -215
    U_G5_T21  PMIN_G5_T21  -26
    MARK4310  'MARKER'                 'INTEND'
    MARK4320  'MARKER'                 'INTORG'
    U_G6_T21  TOTAL_COST  341
    U_G6_T21  RESERVE_T21  178
    U_G6_T21  PMAX_G6_T21  -178
    U_G6_T21  PMIN_G6_T21  -65
    MARK4330  'MARKER'                 'INTEND'
    MARK4340  'MARKER'                 'INTORG'
    U_G7_T21  TOTAL_COST  189
    U_G7_T21  RESERVE_T21  254
    U_G7_T21  PMAX_G7_T21  -254
    U_G7_T21  PMIN_G7_T21  -76
    MARK4350  'MARKER'                 'INTEND'
    MARK4360  'MARKER'                 'INTORG'
    U_G8_T21  TOTAL_COST  247
    U_G8_T21  RESERVE_T21  203
    U_G8_T21  PMAX_G8_T21  -203
    U_G8_T21  PMIN_G8_T21  -62
    MARK4370  'MARKER'                 'INTEND'
    MARK4380  'MARKER'                 'INTORG'
    U_G9_T21  TOTAL_COST  300
    U_G9_T21  RESERVE_T21  209
    U_G9_T21  PMAX_G9_T21  -209
    U_G9_T21  PMIN_G9_T21  -56
    MARK4390  'MARKER'                 'INTEND'
    P_G0_T21  TOTAL_COST  50.1
    P_G0_T21  DEMAND_T21  1
    P_G0_T21  PMAX_G0_T21  1
    P_G0_T21  PMIN_G0_T21  1
    P_G0_T21  RAMPUP_G0_T21  1
    P_G0_T21  RAMPDN_G0_T21  -1
    P_G0_T21  RAMPUP_G0_T22  -1
    P_G0_T21  RAMPDN_G0_T22  1
    P_G1_T21  TOTAL_COST  34.9
    P_G1_T21  DEMAND_T21  1
    P_G1_T21  PMAX_G1_T21  1
    P_G1_T21  PMIN_G1_T21  1
    P_G1_T21  RAMPUP_G1_T21  1
    P_G1_T21  RAMPDN_G1_T21  -1
    P_G1_T21  RAMPUP_G1_T22  -1
    P_G1_T21  RAMPDN_G1_T22  1
    P_G2_T21  TOTAL_COST  47.4
    P_G2_T21  DEMAND_T21  1
    P_G2_T21  PMAX_G2_T21  1
    P_G2_T21  PMIN_G2_T21  1
    P_G2_T21  RAMPUP_G2_T21  1
    P_G2_T21  RAMPDN_G2_T21  -1
    P_G2_T21  RAMPUP_G2_T22  -1
    P_G2_T21  RAMPDN_G2_T22  1
    P_G3_T21  TOTAL_COST  38
    P_G3_T21  DEMAND_T21  1
    P_G3_T21  PMAX_G3_T21  1
    P_G3_T21  PMIN_G3_T21  1
    P_G3_T21  RAMPUP_G3_T21  1
    P_G3_T21  RAMPDN_G3_T21  -1
    P_G3_T21  RAMPUP_G3_T22  -1
    P_G3_T21  RAMPDN_G3_T22  1
    P_G4_T21  TOTAL_COST  37
    P_G4_T21  DEMAND_T21  1
    P_G4_T21  PMAX_G4_T21  1
    P_G4_T21  PMIN_G4_T21  1
    P_G4_T21  RAMPUP_G4_T21  1
    P_G4_T21  RAMPDN_G4_T21  -1
    P_G4_T21  RAMPUP_G4_T22  -1
    P_G4_T21  RAMPDN_G4_T22  1
    P_G5_T21  TOTAL_COST  37.8
    P_G5_T21  DEMAND_T21  1
    P_G5_T21  PMAX_G5_T21  1
    P_G5_T21  PMIN_G5_T21  1
    P_G5_T21  RAMPUP_G5_T21  1
    P_G5_T21  RAMPDN_G5_T21  -1
    P_G5_T21  RAMPUP_G5_T22  -1
    P_G5_T21  RAMPDN_G5_T22  1
    P_G6_T21  TOTAL_COST  50
    P_G6_T21  DEMAND_T21  1
    P_G6_T21  PMAX_G6_T21  1
    P_G6_T21  PMIN_G6_T21  1
    P_G6_T21  RAMPUP_G6_T21  1
    P_G6_T21  RAMPDN_G6_T21  -1
    P_G6_T21  RAMPUP_G6_T22  -1
    P_G6_T21  RAMPDN_G6_T22  1
    P_G7_T21  TOTAL_COST  36.6
    P_G7_T21  DEMAND_T21  1
    P_G7_T21  PMAX_G7_T21  1
    P_G7_T21  PMIN_G7_T21  1
    P_G7_T21  RAMPUP_G7_T21  1
    P_G7_T21  RAMPDN_G7_T21  -1
    P_G7_T21  RAMPUP_G7_T22  -1
    P_G7_T21  RAMPDN_G7_T22  1
    P_G8_T21  TOTAL_COST  41.5
    P_G8_T21  DEMAND_T21  1
    P_G8_T21  PMAX_G8_T21  1
    P_G8_T21  PMIN_G8_T21  1
    P_G8_T21  RAMPUP_G8_T21  1
    P_G8_T21  RAMPDN_G8_T21  -1
    P_G8_T21  RAMPUP_G8_T22  -1
    P_G8_T21  RAMPDN_G8_T22  1
    P_G9_T21  TOTAL_COST  35.4
    P_G9_T21  DEMAND_T21  1
    P_G9_T21  PMAX_G9_T21  1
    P_G9_T21  PMIN_G9_T21  1
    P_G9_T21  RAMPUP_G9_T21  1
    P_G9_T21  RAMPDN_G9_T21  -1
    P_G9_T21  RAMPUP_G9_T22  -1
    P_G9_T21  RAMPDN_G9_T22  1
    MARK4400  'MARKER'                 'INTORG'
    U_G0_T22  TOTAL_COST  141
    U_G0_T22  RESERVE_T22  235
    U_G0_T22  PMAX_G0_T22  -235
    U_G0_T22  PMIN_G0_T22  -65
    MARK4410  'MARKER'                 'INTEND'
    MARK4420  'MARKER'                 'INTORG'
    U_G1_T22  TOTAL_COST  182
    U_G1_T22  RESERVE_T22  223
    U_G1_T22  PMAX_G1_T22  -223
    U_G1_T22  PMIN_G1_T22  -26
    MARK4430  'MARKER'                 'INTEND'
    MARK4440  'MARKER'                 'INTORG'
    U_G2_T22  TOTAL_COST  291
    U_G2_T22  RESERVE_T22  214
    U_G2_T22  PMAX_G2_T22  -214
    U_G2_T22  PMIN_G2_T22  -21
    MARK4450  'MARKER'                 'INTEND'
    MARK4460  'MARKER'                 'INTORG'
    U_G3_T22  TOTAL_COST  114
    U_G3_T22  RESERVE_T22  256
    U_G3_T22  PMAX_G3_T22  -256
    U_G3_T22  PMIN_G3_T22  -77
    MARK4470  'MARKER'                 'INTEND'
    MARK4480  'MARKER'                 'INTORG'
    U_G4_T22  TOTAL_COST  130
    U_G4_T22  RESERVE_T22  147
    U_G4_T22  PMAX_G4_T22  -147
    U_G4_T22  PMIN_G4_T22  -65
    MARK4490  'MARKER'                 'INTEND'
    MARK4500  'MARKER'                 'INTORG'
    U_G5_T22  TOTAL_COST  332
    U_G5_T22  RESERVE_T22  215
    U_G5_T22  PMAX_G5_T22  -215
    U_G5_T22  PMIN_G5_T22  -26
    MARK4510  'MARKER'                 'INTEND'
    MARK4520  'MARKER'                 'INTORG'
    U_G6_T22  TOTAL_COST  341
    U_G6_T22  RESERVE_T22  178
    U_G6_T22  PMAX_G6_T22  -178
    U_G6_T22  PMIN_G6_T22  -65
    MARK4530  'MARKER'                 'INTEND'
    MARK4540  'MARKER'                 'INTORG'
    U_G7_T22  TOTAL_COST  189
    U_G7_T22  RESERVE_T22  254
    U_G7_T22  PMAX_G7_T22  -254
    U_G7_T22  PMIN_G7_T22  -76
    MARK4550  'MARKER'                 'INTEND'
    MARK4560  'MARKER'                 'INTORG'
    U_G8_T22  TOTAL_COST  247
    U_G8_T22  RESERVE_T22  203
    U_G8_T22  PMAX_G8_T22  -203
    U_G8_T22  PMIN_G8_T22  -62
    MARK4570  'MARKER'                 'INTEND'
    MARK4580  'MARKER'                 'INTORG'
    U_G9_T22  TOTAL_COST  300
    U_G9_T22  RESERVE_T22  209
    U_G9_T22  PMAX_G9_T22  -209
    U_G9_T22  PMIN_G9_T22  -56
    MARK4590  'MARKER'                 'INTEND'
    P_G0_T22  TOTAL_COST  50.1
    P_G0_T22  DEMAND_T22  1
    P_G0_T22  PMAX_G0_T22  1
    P_G0_T22  PMIN_G0_T22  1
    P_G0_T22  RAMPUP_G0_T22  1
    P_G0_T22  RAMPDN_G0_T22  -1
    P_G0_T22  RAMPUP_G0_T23  -1
    P_G0_T22  RAMPDN_G0_T23  1
    P_G1_T22  TOTAL_COST  34.9
    P_G1_T22  DEMAND_T22  1
    P_G1_T22  PMAX_G1_T22  1
    P_G1_T22  PMIN_G1_T22  1
    P_G1_T22  RAMPUP_G1_T22  1
    P_G1_T22  RAMPDN_G1_T22  -1
    P_G1_T22  RAMPUP_G1_T23  -1
    P_G1_T22  RAMPDN_G1_T23  1
    P_G2_T22  TOTAL_COST  47.4
    P_G2_T22  DEMAND_T22  1
    P_G2_T22  PMAX_G2_T22  1
    P_G2_T22  PMIN_G2_T22  1
    P_G2_T22  RAMPUP_G2_T22  1
    P_G2_T22  RAMPDN_G2_T22  -1
    P_G2_T22  RAMPUP_G2_T23  -1
    P_G2_T22  RAMPDN_G2_T23  1
    P_G3_T22  TOTAL_COST  38
    P_G3_T22  DEMAND_T22  1
    P_G3_T22  PMAX_G3_T22  1
    P_G3_T22  PMIN_G3_T22  1
    P_G3_T22  RAMPUP_G3_T22  1
    P_G3_T22  RAMPDN_G3_T22  -1
    P_G3_T22  RAMPUP_G3_T23  -1
    P_G3_T22  RAMPDN_G3_T23  1
    P_G4_T22  TOTAL_COST  37
    P_G4_T22  DEMAND_T22  1
    P_G4_T22  PMAX_G4_T22  1
    P_G4_T22  PMIN_G4_T22  1
    P_G4_T22  RAMPUP_G4_T22  1
    P_G4_T22  RAMPDN_G4_T22  -1
    P_G4_T22  RAMPUP_G4_T23  -1
    P_G4_T22  RAMPDN_G4_T23  1
    P_G5_T22  TOTAL_COST  37.8
    P_G5_T22  DEMAND_T22  1
    P_G5_T22  PMAX_G5_T22  1
    P_G5_T22  PMIN_G5_T22  1
    P_G5_T22  RAMPUP_G5_T22  1
    P_G5_T22  RAMPDN_G5_T22  -1
    P_G5_T22  RAMPUP_G5_T23  -1
    P_G5_T22  RAMPDN_G5_T23  1
    P_G6_T22  TOTAL_COST  50
    P_G6_T22  DEMAND_T22  1
    P_G6_T22  PMAX_G6_T22  1
    P_G6_T22  PMIN_G6_T22  1
    P_G6_T22  RAMPUP_G6_T22  1
    P_G6_T22  RAMPDN_G6_T22  -1
    P_G6_T22  RAMPUP_G6_T23  -1
    P_G6_T22  RAMPDN_G6_T23  1
    P_G7_T22  TOTAL_COST  36.6
    P_G7_T22  DEMAND_T22  1
    P_G7_T22  PMAX_G7_T22  1
    P_G7_T22  PMIN_G7_T22  1
    P_G7_T22  RAMPUP_G7_T22  1
    P_G7_T22  RAMPDN_G7_T22  -1
    P_G7_T22  RAMPUP_G7_T23  -1
    P_G7_T22  RAMPDN_G7_T23  1
    P_G8_T22  TOTAL_COST  41.5
    P_G8_T22  DEMAND_T22  1
    P_G8_T22  PMAX_G8_T22  1
    P_G8_T22  PMIN_G8_T22  1
    P_G8_T22  RAMPUP_G8_T22  1
    P_G8_T22  RAMPDN_G8_T22  -1
    P_G8_T22  RAMPUP_G8_T23  -1
    P_G8_T22  RAMPDN_G8_T23  1
    P_G9_T22  TOTAL_COST  35.4
    P_G9_T22  DEMAND_T22  1
    P_G9_T22  PMAX_G9_T22  1
    P_G9_T22  PMIN_G9_T22  1
    P_G9_T22  RAMPUP_G9_T22  1
    P_G9_T22  RAMPDN_G9_T22  -1
    P_G9_T22  RAMPUP_G9_T23  -1
    P_G9_T22  RAMPDN_G9_T23  1
    MARK4600  'MARKER'                 'INTORG'
    U_G0_T23  TOTAL_COST  141
    U_G0_T23  RESERVE_T23  235
    U_G0_T23  PMAX_G0_T23  -235
    U_G0_T23  PMIN_G0_T23  -65
    MARK4610  'MARKER'                 'INTEND'
    MARK4620  'MARKER'                 'INTORG'
    U_G1_T23  TOTAL_COST  182
    U_G1_T23  RESERVE_T23  223
    U_G1_T23  PMAX_G1_T23  -223
    U_G1_T23  PMIN_G1_T23  -26
    MARK4630  'MARKER'                 'INTEND'
    MARK4640  'MARKER'                 'INTORG'
    U_G2_T23  TOTAL_COST  291
    U_G2_T23  RESERVE_T23  214
    U_G2_T23  PMAX_G2_T23  -214
    U_G2_T23  PMIN_G2_T23  -21
    MARK4650  'MARKER'                 'INTEND'
    MARK4660  'MARKER'                 'INTORG'
    U_G3_T23  TOTAL_COST  114
    U_G3_T23  RESERVE_T23  256
    U_G3_T23  PMAX_G3_T23  -256
    U_G3_T23  PMIN_G3_T23  -77
    MARK4670  'MARKER'                 'INTEND'
    MARK4680  'MARKER'                 'INTORG'
    U_G4_T23  TOTAL_COST  130
    U_G4_T23  RESERVE_T23  147
    U_G4_T23  PMAX_G4_T23  -147
    U_G4_T23  PMIN_G4_T23  -65
    MARK4690  'MARKER'                 'INTEND'
    MARK4700  'MARKER'                 'INTORG'
    U_G5_T23  TOTAL_COST  332
    U_G5_T23  RESERVE_T23  215
    U_G5_T23  PMAX_G5_T23  -215
    U_G5_T23  PMIN_G5_T23  -26
    MARK4710  'MARKER'                 'INTEND'
    MARK4720  'MARKER'                 'INTORG'
    U_G6_T23  TOTAL_COST  341
    U_G6_T23  RESERVE_T23  178
    U_G6_T23  PMAX_G6_T23  -178
    U_G6_T23  PMIN_G6_T23  -65
    MARK4730  'MARKER'                 'INTEND'
    MARK4740  'MARKER'                 'INTORG'
    U_G7_T23  TOTAL_COST  189
    U_G7_T23  RESERVE_T23  254
    U_G7_T23  PMAX_G7_T23  -254
    U_G7_T23  PMIN_G7_T23  -76
    MARK4750  'MARKER'                 'INTEND'
    MARK4760  'MARKER'                 'INTORG'
    U_G8_T23  TOTAL_COST  247
    U_G8_T23  RESERVE_T23  203
    U_G8_T23  PMAX_G8_T23  -203
    U_G8_T23  PMIN_G8_T23  -62
    MARK4770  'MARKER'                 'INTEND'
    MARK4780  'MARKER'                 'INTORG'
    U_G9_T23  TOTAL_COST  300
    U_G9_T23  RESERVE_T23  209
    U_G9_T23  PMAX_G9_T23  -209
    U_G9_T23  PMIN_G9_T23  -56
    MARK4790  'MARKER'                 'INTEND'
    P_G0_T23  TOTAL_COST  50.1
    P_G0_T23  DEMAND_T23  1
    P_G0_T23  PMAX_G0_T23  1
    P_G0_T23  PMIN_G0_T23  1
    P_G0_T23  RAMPUP_G0_T23  1
    P_G0_T23  RAMPDN_G0_T23  -1
    P_G1_T23  TOTAL_COST  34.9
    P_G1_T23  DEMAND_T23  1
    P_G1_T23  PMAX_G1_T23  1
    P_G1_T23  PMIN_G1_T23  1
    P_G1_T23  RAMPUP_G1_T23  1
    P_G1_T23  RAMPDN_G1_T23  -1
    P_G2_T23  TOTAL_COST  47.4
    P_G2_T23  DEMAND_T23  1
    P_G2_T23  PMAX_G2_T23  1
    P_G2_T23  PMIN_G2_T23  1
    P_G2_T23  RAMPUP_G2_T23  1
    P_G2_T23  RAMPDN_G2_T23  -1
    P_G3_T23  TOTAL_COST  38
    P_G3_T23  DEMAND_T23  1
    P_G3_T23  PMAX_G3_T23  1
    P_G3_T23  PMIN_G3_T23  1
    P_G3_T23  RAMPUP_G3_T23  1
    P_G3_T23  RAMPDN_G3_T23  -1
    P_G4_T23  TOTAL_COST  37
    P_G4_T23  DEMAND_T23  1
    P_G4_T23  PMAX_G4_T23  1
    P_G4_T23  PMIN_G4_T23  1
    P_G4_T23  RAMPUP_G4_T23  1
    P_G4_T23  RAMPDN_G4_T23  -1
    P_G5_T23  TOTAL_COST  37.8
    P_G5_T23  DEMAND_T23  1
    P_G5_T23  PMAX_G5_T23  1
    P_G5_T23  PMIN_G5_T23  1
    P_G5_T23  RAMPUP_G5_T23  1
    P_G5_T23  RAMPDN_G5_T23  -1
    P_G6_T23  TOTAL_COST  50
    P_G6_T23  DEMAND_T23  1
    P_G6_T23  PMAX_G6_T23  1
    P_G6_T23  PMIN_G6_T23  1
    P_G6_T23  RAMPUP_G6_T23  1
    P_G6_T23  RAMPDN_G6_T23  -1
    P_G7_T23  TOTAL_COST  36.6
    P_G7_T23  DEMAND_T23  1
    P_G7_T23  PMAX_G7_T23  1
    P_G7_T23  PMIN_G7_T23  1
    P_G7_T23  RAMPUP_G7_T23  1
    P_G7_T23  RAMPDN_G7_T23  -1
    P_G8_T23  TOTAL_COST  41.5
    P_G8_T23  DEMAND_T23  1
    P_G8_T23  PMAX_G8_T23  1
    P_G8_T23  PMIN_G8_T23  1
    P_G8_T23  RAMPUP_G8_T23  1
    P_G8_T23  RAMPDN_G8_T23  -1
    P_G9_T23  TOTAL_COST  35.4
    P_G9_T23  DEMAND_T23  1
    P_G9_T23  PMAX_G9_T23  1
    P_G9_T23  PMIN_G9_T23  1
    P_G9_T23  RAMPUP_G9_T23  1
    P_G9_T23  RAMPDN_G9_T23  -1
RHS
    RHS1      DEMAND_T0  750
    RHS1      RESERVE_T0  863
    RHS1      DEMAND_T1  818
    RHS1      RESERVE_T1  941
    RHS1      RAMPUP_G0_T1  94
    RHS1      RAMPDN_G0_T1  94
    RHS1      RAMPUP_G1_T1  63
    RHS1      RAMPDN_G1_T1  63
    RHS1      RAMPUP_G2_T1  90
    RHS1      RAMPDN_G2_T1  90
    RHS1      RAMPUP_G3_T1  44
    RHS1      RAMPDN_G3_T1  44
    RHS1      RAMPUP_G4_T1  49
    RHS1      RAMPDN_G4_T1  49
    RHS1      RAMPUP_G5_T1  47
    RHS1      RAMPDN_G5_T1  47
    RHS1      RAMPUP_G6_T1  43
    RHS1      RAMPDN_G6_T1  43
    RHS1      RAMPUP_G7_T1  41
    RHS1      RAMPDN_G7_T1  41
    RHS1      RAMPUP_G8_T1  53
    RHS1      RAMPDN_G8_T1  53
    RHS1      RAMPUP_G9_T1  65
    RHS1      RAMPDN_G9_T1  65
    RHS1      DEMAND_T2  881
    RHS1      RESERVE_T2  1013
    RHS1      RAMPUP_G0_T2  94
    RHS1      RAMPDN_G0_T2  94
    RHS1      RAMPUP_G1_T2  63
    RHS1      RAMPDN_G1_T2  63
    RHS1      RAMPUP_G2_T2  90
    RHS1      RAMPDN_G2_T2  90
    RHS1      RAMPUP_G3_T2  44
    RHS1      RAMPDN_G3_T2  44
    RHS1      RAMPUP_G4_T2  49
    RHS1      RAMPDN_G4_T2  49
    RHS1      RAMPUP_G5_T2  47
    RHS1      RAMPDN_G5_T2  47
    RHS1      RAMPUP_G6_T2  43
    RHS1      RAMPDN_G6_T2  43
    RHS1      RAMPUP_G7_T2  41
    RHS1      RAMPDN_G7_T2  41
    RHS1      RAMPUP_G8_T2  53
    RHS1      RAMPDN_G8_T2  53
    RHS1      RAMPUP_G9_T2  65
    RHS1      RAMPDN_G9_T2  65
    RHS1      DEMAND_T3  936
    RHS1      RESERVE_T3  1076
    RHS1      RAMPUP_G0_T3  94
    RHS1      RAMPDN_G0_T3  94
    RHS1      RAMPUP_G1_T3  63
    RHS1      RAMPDN_G1_T3  63
    RHS1      RAMPUP_G2_T3  90
    RHS1      RAMPDN_G2_T3  90
    RHS1      RAMPUP_G3_T3  44
    RHS1      RAMPDN_G3_T3  44
    RHS1      RAMPUP_G4_T3  49
    RHS1      RAMPDN_G4_T3  49
    RHS1      RAMPUP_G5_T3  47
    RHS1      RAMPDN_G5_T3  47
    RHS1      RAMPUP_G6_T3  43
    RHS1      RAMPDN_G6_T3  43
    RHS1      RAMPUP_G7_T3  41
    RHS1      RAMPDN_G7_T3  41
    RHS1      RAMPUP_G8_T3  53
    RHS1      RAMPDN_G8_T3  53
    RHS1      RAMPUP_G9_T3  65
    RHS1      RAMPDN_G9_T3  65
    RHS1      DEMAND_T4  977
    RHS1      RESERVE_T4  1124
    RHS1      RAMPUP_G0_T4  94
    RHS1      RAMPDN_G0_T4  94
    RHS1      RAMPUP_G1_T4  63
    RHS1      RAMPDN_G1_T4  63
    RHS1      RAMPUP_G2_T4  90
    RHS1      RAMPDN_G2_T4  90
    RHS1      RAMPUP_G3_T4  44
    RHS1      RAMPDN_G3_T4  44
    RHS1      RAMPUP_G4_T4  49
    RHS1      RAMPDN_G4_T4  49
    RHS1      RAMPUP_G5_T4  47
    RHS1      RAMPDN_G5_T4  47
    RHS1      RAMPUP_G6_T4  43
    RHS1      RAMPDN_G6_T4  43
    RHS1      RAMPUP_G7_T4  41
    RHS1      RAMPDN_G7_T4  41
    RHS1      RAMPUP_G8_T4  53
    RHS1      RAMPDN_G8_T4  53
    RHS1      RAMPUP_G9_T4  65
    RHS1      RAMPDN_G9_T4  65
    RHS1      DEMAND_T5  1004
    RHS1      RESERVE_T5  1155
    RHS1      RAMPUP_G0_T5  94
    RHS1      RAMPDN_G0_T5  94
    RHS1      RAMPUP_G1_T5  63
    RHS1      RAMPDN_G1_T5  63
    RHS1      RAMPUP_G2_T5  90
    RHS1      RAMPDN_G2_T5  90
    RHS1      RAMPUP_G3_T5  44
    RHS1      RAMPDN_G3_T5  44
    RHS1      RAMPUP_G4_T5  49
    RHS1      RAMPDN_G4_T5  49
    RHS1      RAMPUP_G5_T5  47
    RHS1      RAMPDN_G5_T5  47
    RHS1      RAMPUP_G6_T5  43
    RHS1      RAMPDN_G6_T5  43
    RHS1      RAMPUP_G7_T5  41
    RHS1      RAMPDN_G7_T5  41
    RHS1      RAMPUP_G8_T5  53
    RHS1      RAMPDN_G8_T5  53
    RHS1      RAMPUP_G9_T5  65
    RHS1      RAMPDN_G9_T5  65
    RHS1      DEMAND_T6  1013
    RHS1      RESERVE_T6  1165
    RHS1      RAMPUP_G0_T6  94
    RHS1      RAMPDN_G0_T6  94
    RHS1      RAMPUP_G1_T6  63
    RHS1      RAMPDN_G1_T6  63
    RHS1      RAMPUP_G2_T6  90
    RHS1      RAMPDN_G2_T6  90
    RHS1      RAMPUP_G3_T6  44
    RHS1      RAMPDN_G3_T6  44
    RHS1      RAMPUP_G4_T6  49
    RHS1      RAMPDN_G4_T6  49
    RHS1      RAMPUP_G5_T6  47
    RHS1      RAMPDN_G5_T6  47
    RHS1      RAMPUP_G6_T6  43
    RHS1      RAMPDN_G6_T6  43
    RHS1      RAMPUP_G7_T6  41
    RHS1      RAMPDN_G7_T6  41
    RHS1      RAMPUP_G8_T6  53
    RHS1      RAMPDN_G8_T6  53
    RHS1      RAMPUP_G9_T6  65
    RHS1      RAMPDN_G9_T6  65
    RHS1      DEMAND_T7  1004
    RHS1      RESERVE_T7  1155
    RHS1      RAMPUP_G0_T7  94
    RHS1      RAMPDN_G0_T7  94
    RHS1      RAMPUP_G1_T7  63
    RHS1      RAMPDN_G1_T7  63
    RHS1      RAMPUP_G2_T7  90
    RHS1      RAMPDN_G2_T7  90
    RHS1      RAMPUP_G3_T7  44
    RHS1      RAMPDN_G3_T7  44
    RHS1      RAMPUP_G4_T7  49
    RHS1      RAMPDN_G4_T7  49
    RHS1      RAMPUP_G5_T7  47
    RHS1      RAMPDN_G5_T7  47
    RHS1      RAMPUP_G6_T7  43
    RHS1      RAMPDN_G6_T7  43
    RHS1      RAMPUP_G7_T7  41
    RHS1      RAMPDN_G7_T7  41
    RHS1      RAMPUP_G8_T7  53
    RHS1      RAMPDN_G8_T7  53
    RHS1      RAMPUP_G9_T7  65
    RHS1      RAMPDN_G9_T7  65
    RHS1      DEMAND_T8  977
    RHS1      RESERVE_T8  1124
    RHS1      RAMPUP_G0_T8  94
    RHS1      RAMPDN_G0_T8  94
    RHS1      RAMPUP_G1_T8  63
    RHS1      RAMPDN_G1_T8  63
    RHS1      RAMPUP_G2_T8  90
    RHS1      RAMPDN_G2_T8  90
    RHS1      RAMPUP_G3_T8  44
    RHS1      RAMPDN_G3_T8  44
    RHS1      RAMPUP_G4_T8  49
    RHS1      RAMPDN_G4_T8  49
    RHS1      RAMPUP_G5_T8  47
    RHS1      RAMPDN_G5_T8  47
    RHS1      RAMPUP_G6_T8  43
    RHS1      RAMPDN_G6_T8  43
    RHS1      RAMPUP_G7_T8  41
    RHS1      RAMPDN_G7_T8  41
    RHS1      RAMPUP_G8_T8  53
    RHS1      RAMPDN_G8_T8  53
    RHS1      RAMPUP_G9_T8  65
    RHS1      RAMPDN_G9_T8  65
    RHS1      DEMAND_T9  936
    RHS1      RESERVE_T9  1076
    RHS1      RAMPUP_G0_T9  94
    RHS1      RAMPDN_G0_T9  94
    RHS1      RAMPUP_G1_T9  63
    RHS1      RAMPDN_G1_T9  63
    RHS1      RAMPUP_G2_T9  90
    RHS1      RAMPDN_G2_T9  90
    RHS1      RAMPUP_G3_T9  44
    RHS1      RAMPDN_G3_T9  44
    RHS1      RAMPUP_G4_T9  49
    RHS1      RAMPDN_G4_T9  49
    RHS1      RAMPUP_G5_T9  47
    RHS1      RAMPDN_G5_T9  47
    RHS1      RAMPUP_G6_T9  43
    RHS1      RAMPDN_G6_T9  43
    RHS1      RAMPUP_G7_T9  41
    RHS1      RAMPDN_G7_T9  41
    RHS1      RAMPUP_G8_T9  53
    RHS1      RAMPDN_G8_T9  53
    RHS1      RAMPUP_G9_T9  65
    RHS1      RAMPDN_G9_T9  65
    RHS1      DEMAND_T10  881
    RHS1      RESERVE_T10  1013
    RHS1      RAMPUP_G0_T10  94
    RHS1      RAMPDN_G0_T10  94
    RHS1      RAMPUP_G1_T10  63
    RHS1      RAMPDN_G1_T10  63
    RHS1      RAMPUP_G2_T10  90
    RHS1      RAMPDN_G2_T10  90
    RHS1      RAMPUP_G3_T10  44
    RHS1      RAMPDN_G3_T10  44
    RHS1      RAMPUP_G4_T10  49
    RHS1      RAMPDN_G4_T10  49
    RHS1      RAMPUP_G5_T10  47
    RHS1      RAMPDN_G5_T10  47
    RHS1      RAMPUP_G6_T10  43
    RHS1      RAMPDN_G6_T10  43
    RHS1      RAMPUP_G7_T10  41
    RHS1      RAMPDN_G7_T10  41
    RHS1      RAMPUP_G8_T10  53
    RHS1      RAMPDN_G8_T10  53
    RHS1      RAMPUP_G9_T10  65
    RHS1      RAMPDN_G9_T10  65
    RHS1      DEMAND_T11  818
    RHS1      RESERVE_T11  941
    RHS1      RAMPUP_G0_T11  94
    RHS1      RAMPDN_G0_T11  94
    RHS1      RAMPUP_G1_T11  63
    RHS1      RAMPDN_G1_T11  63
    RHS1      RAMPUP_G2_T11  90
    RHS1      RAMPDN_G2_T11  90
    RHS1      RAMPUP_G3_T11  44
    RHS1      RAMPDN_G3_T11  44
    RHS1      RAMPUP_G4_T11  49
    RHS1      RAMPDN_G4_T11  49
    RHS1      RAMPUP_G5_T11  47
    RHS1      RAMPDN_G5_T11  47
    RHS1      RAMPUP_G6_T11  43
    RHS1      RAMPDN_G6_T11  43
    RHS1      RAMPUP_G7_T11  41
    RHS1      RAMPDN_G7_T11  41
    RHS1      RAMPUP_G8_T11  53
    RHS1      RAMPDN_G8_T11  53
    RHS1      RAMPUP_G9_T11  65
    RHS1      RAMPDN_G9_T11  65
    RHS1      DEMAND_T12  750
    RHS1      RESERVE_T12  863
    RHS1      RAMPUP_G0_T12  94
    RHS1      RAMPDN_G0_T12  94
    RHS1      RAMPUP_G1_T12  63
    RHS1      RAMPDN_G1_T12  63
    RHS1      RAMPUP_G2_T12  90
    RHS1      RAMPDN_G2_T12  90
    RHS1      RAMPUP_G3_T12  44
    RHS1      RAMPDN_G3_T12  44
    RHS1      RAMPUP_G4_T12  49
    RHS1      RAMPDN_G4_T12  49
    RHS1      RAMPUP_G5_T12  47
    RHS1      RAMPDN_G5_T12  47
    RHS1      RAMPUP_G6_T12  43
    RHS1      RAMPDN_G6_T12  43
    RHS1      RAMPUP_G7_T12  41
    RHS1      RAMPDN_G7_T12  41
    RHS1      RAMPUP_G8_T12  53
    RHS1      RAMPDN_G8_T12  53
    RHS1      RAMPUP_G9_T12  65
    RHS1      RAMPDN_G9_T12  65
    RHS1      DEMAND_T13  682
    RHS1      RESERVE_T13  784
    RHS1      RAMPUP_G0_T13  94
    RHS1      RAMPDN_G0_T13  94
    RHS1      RAMPUP_G1_T13  63
    RHS1      RAMPDN_G1_T13  63
    RHS1      RAMPUP_G2_T13  90
    RHS1      RAMPDN_G2_T13  90
    RHS1      RAMPUP_G3_T13  44
    RHS1      RAMPDN_G3_T13  44
    RHS1      RAMPUP_G4_T13  49
    RHS1      RAMPDN_G4_T13  49
    RHS1      RAMPUP_G5_T13  47
    RHS1      RAMPDN_G5_T13  47
    RHS1      RAMPUP_G6_T13  43
    RHS1      RAMPDN_G6_T13  43
    RHS1      RAMPUP_G7_T13  41
    RHS1      RAMPDN_G7_T13  41
    RHS1      RAMPUP_G8_T13  53
    RHS1      RAMPDN_G8_T13  53
    RHS1      RAMPUP_G9_T13  65
    RHS1      RAMPDN_G9_T13  65
    RHS1      DEMAND_T14  619
    RHS1      RESERVE_T14  712
    RHS1      RAMPUP_G0_T14  94
    RHS1      RAMPDN_G0_T14  94
    RHS1      RAMPUP_G1_T14  63
    RHS1      RAMPDN_G1_T14  63
    RHS1      RAMPUP_G2_T14  90
    RHS1      RAMPDN_G2_T14  90
    RHS1      RAMPUP_G3_T14  44
    RHS1      RAMPDN_G3_T14  44
    RHS1      RAMPUP_G4_T14  49
    RHS1      RAMPDN_G4_T14  49
    RHS1      RAMPUP_G5_T14  47
    RHS1      RAMPDN_G5_T14  47
    RHS1      RAMPUP_G6_T14  43
    RHS1      RAMPDN_G6_T14  43
    RHS1      RAMPUP_G7_T14  41
    RHS1      RAMPDN_G7_T14  41
    RHS1      RAMPUP_G8_T14  53
    RHS1      RAMPDN_G8_T14  53
    RHS1      RAMPUP_G9_T14  65
    RHS1      RAMPDN_G9_T14  65
    RHS1      DEMAND_T15  564
    RHS1      RESERVE_T15  649
    RHS1      RAMPUP_G0_T15  94
    RHS1      RAMPDN_G0_T15  94
    RHS1      RAMPUP_G1_T15  63
    RHS1      RAMPDN_G1_T15  63
    RHS1      RAMPUP_G2_T15  90
    RHS1      RAMPDN_G2_T15  90
    RHS1      RAMPUP_G3_T15  44
    RHS1      RAMPDN_G3_T15  44
    RHS1      RAMPUP_G4_T15  49
    RHS1      RAMPDN_G4_T15  49
    RHS1      RAMPUP_G5_T15  47
    RHS1      RAMPDN_G5_T15  47
    RHS1      RAMPUP_G6_T15  43
    RHS1      RAMPDN_G6_T15  43
    RHS1      RAMPUP_G7_T15  41
    RHS1      RAMPDN_G7_T15  41
    RHS1      RAMPUP_G8_T15  53
    RHS1      RAMPDN_G8_T15  53
    RHS1      RAMPUP_G9_T15  65
    RHS1      RAMPDN_G9_T15  65
    RHS1      DEMAND_T16  523
    RHS1      RESERVE_T16  601
    RHS1      RAMPUP_G0_T16  94
    RHS1      RAMPDN_G0_T16  94
    RHS1      RAMPUP_G1_T16  63
    RHS1      RAMPDN_G1_T16  63
    RHS1      RAMPUP_G2_T16  90
    RHS1      RAMPDN_G2_T16  90
    RHS1      RAMPUP_G3_T16  44
    RHS1      RAMPDN_G3_T16  44
    RHS1      RAMPUP_G4_T16  49
    RHS1      RAMPDN_G4_T16  49
    RHS1      RAMPUP_G5_T16  47
    RHS1      RAMPDN_G5_T16  47
    RHS1      RAMPUP_G6_T16  43
    RHS1      RAMPDN_G6_T16  43
    RHS1      RAMPUP_G7_T16  41
    RHS1      RAMPDN_G7_T16  41
    RHS1      RAMPUP_G8_T16  53
    RHS1      RAMPDN_G8_T16  53
    RHS1      RAMPUP_G9_T16  65
    RHS1      RAMPDN_G9_T16  65
    RHS1      DEMAND_T17  496
    RHS1      RESERVE_T17  570
    RHS1      RAMPUP_G0_T17  94
    RHS1      RAMPDN_G0_T17  94
    RHS1      RAMPUP_G1_T17  63
    RHS1      RAMPDN_G1_T17  63
    RHS1      RAMPUP_G2_T17  90
    RHS1      RAMPDN_G2_T17  90
    RHS1      RAMPUP_G3_T17  44
    RHS1      RAMPDN_G3_T17  44
    RHS1      RAMPUP_G4_T17  49
    RHS1      RAMPDN_G4_T17  49
    RHS1      RAMPUP_G5_T17  47
    RHS1      RAMPDN_G5_T17  47
    RHS1      RAMPUP_G6_T17  43
    RHS1      RAMPDN_G6_T17  43
    RHS1      RAMPUP_G7_T17  41
    RHS1      RAMPDN_G7_T17  41
    RHS1      RAMPUP_G8_T17  53
    RHS1      RAMPDN_G8_T17  53
    RHS1      RAMPUP_G9_T17  65
    RHS1      RAMPDN_G9_T17  65
    RHS1      DEMAND_T18  488
    RHS1      RESERVE_T18  561
    RHS1      RAMPUP_G0_T18  94
    RHS1      RAMPDN_G0_T18  94
    RHS1      RAMPUP_G1_T18  63
    RHS1      RAMPDN_G1_T18  63
    RHS1      RAMPUP_G2_T18  90
    RHS1      RAMPDN_G2_T18  90
    RHS1      RAMPUP_G3_T18  44
    RHS1      RAMPDN_G3_T18  44
    RHS1      RAMPUP_G4_T18  49
    RHS1      RAMPDN_G4_T18  49
    RHS1      RAMPUP_G5_T18  47
    RHS1      RAMPDN_G5_T18  47
    RHS1      RAMPUP_G6_T18  43
    RHS1      RAMPDN_G6_T18  43
    RHS1      RAMPUP_G7_T18  41
    RHS1      RAMPDN_G7_T18  41
    RHS1      RAMPUP_G8_T18  53
    RHS1      RAMPDN_G8_T18  53
    RHS1      RAMPUP_G9_T18  65
    RHS1      RAMPDN_G9_T18  65
    RHS1      DEMAND_T19  496
    RHS1      RESERVE_T19  570
    RHS1      RAMPUP_G0_T19  94
    RHS1      RAMPDN_G0_T19  94
    RHS1      RAMPUP_G1_T19  63
    RHS1      RAMPDN_G1_T19  63
    RHS1      RAMPUP_G2_T19  90
    RHS1      RAMPDN_G2_T19  90
    RHS1      RAMPUP_G3_T19  44
    RHS1      RAMPDN_G3_T19  44
    RHS1      RAMPUP_G4_T19  49
    RHS1      RAMPDN_G4_T19  49
    RHS1      RAMPUP_G5_T19  47
    RHS1      RAMPDN_G5_T19  47
    RHS1      RAMPUP_G6_T19  43
    RHS1      RAMPDN_G6_T19  43
    RHS1      RAMPUP_G7_T19  41
    RHS1      RAMPDN_G7_T19  41
    RHS1      RAMPUP_G8_T19  53
    RHS1      RAMPDN_G8_T19  53
    RHS1      RAMPUP_G9_T19  65
    RHS1      RAMPDN_G9_T19  65
    RHS1      DEMAND_T20  523
    RHS1      RESERVE_T20  601
    RHS1      RAMPUP_G0_T20  94
    RHS1      RAMPDN_G0_T20  94
    RHS1      RAMPUP_G1_T20  63
    RHS1      RAMPDN_G1_T20  63
    RHS1      RAMPUP_G2_T20  90
    RHS1      RAMPDN_G2_T20  90
    RHS1      RAMPUP_G3_T20  44
    RHS1      RAMPDN_G3_T20  44
    RHS1      RAMPUP_G4_T20  49
    RHS1      RAMPDN_G4_T20  49
    RHS1      RAMPUP_G5_T20  47
    RHS1      RAMPDN_G5_T20  47
    RHS1      RAMPUP_G6_T20  43
    RHS1      RAMPDN_G6_T20  43
    RHS1      RAMPUP_G7_T20  41
    RHS1      RAMPDN_G7_T20  41
    RHS1      RAMPUP_G8_T20  53
    RHS1      RAMPDN_G8_T20  53
    RHS1      RAMPUP_G9_T20  65
    RHS1      RAMPDN_G9_T20  65
    RHS1      DEMAND_T21  564
    RHS1      RESERVE_T21  649
    RHS1      RAMPUP_G0_T21  94
    RHS1      RAMPDN_G0_T21  94
    RHS1      RAMPUP_G1_T21  63
    RHS1      RAMPDN_G1_T21  63
    RHS1      RAMPUP_G2_T21  90
    RHS1      RAMPDN_G2_T21  90
    RHS1      RAMPUP_G3_T21  44
    RHS1      RAMPDN_G3_T21  44
    RHS1      RAMPUP_G4_T21  49
    RHS1      RAMPDN_G4_T21  49
    RHS1      RAMPUP_G5_T21  47
    RHS1      RAMPDN_G5_T21  47
    RHS1      RAMPUP_G6_T21  43
    RHS1      RAMPDN_G6_T21  43
    RHS1      RAMPUP_G7_T21  41
    RHS1      RAMPDN_G7_T21  41
    RHS1      RAMPUP_G8_T21  53
    RHS1      RAMPDN_G8_T21  53
    RHS1      RAMPUP_G9_T21  65
    RHS1      RAMPDN_G9_T21  65
    RHS1      DEMAND_T22  619
    RHS1      RESERVE_T22  712
    RHS1      RAMPUP_G0_T22  94
    RHS1      RAMPDN_G0_T22  94
    RHS1      RAMPUP_G1_T22  63
    RHS1      RAMPDN_G1_T22  63
    RHS1      RAMPUP_G2_T22  90
    RHS1      RAMPDN_G2_T22  90
    RHS1      RAMPUP_G3_T22  44
    RHS1      RAMPDN_G3_T22  44
    RHS1      RAMPUP_G4_T22  49
    RHS1      RAMPDN_G4_T22  49
    RHS1      RAMPUP_G5_T22  47
    RHS1      RAMPDN_G5_T22  47
    RHS1      RAMPUP_G6_T22  43
    RHS1      RAMPDN_G6_T22  43
    RHS1      RAMPUP_G7_T22  41
    RHS1      RAMPDN_G7_T22  41
    RHS1      RAMPUP_G8_T22  53
    RHS1      RAMPDN_G8_T22  53
    RHS1      RAMPUP_G9_T22  65
    RHS1      RAMPDN_G9_T22  65
    RHS1      DEMAND_T23  682
    RHS1      RESERVE_T23  784
    RHS1      RAMPUP_G0_T23  94
    RHS1      RAMPDN_G0_T23  94
    RHS1      RAMPUP_G1_T23  63
    RHS1      RAMPDN_G1_T23  63
    RHS1      RAMPUP_G2_T23  90
    RHS1      RAMPDN_G2_T23  90
    RHS1      RAMPUP_G3_T23  44
    RHS1      RAMPDN_G3_T23  44
    RHS1      RAMPUP_G4_T23  49
    RHS1      RAMPDN_G4_T23  49
    RHS1      RAMPUP_G5_T23  47
    RHS1      RAMPDN_G5_T23  47
    RHS1      RAMPUP_G6_T23  43
    RHS1      RAMPDN_G6_T23  43
    RHS1      RAMPUP_G7_T23  41
    RHS1      RAMPDN_G7_T23  41
    RHS1      RAMPUP_G8_T23  53
    RHS1      RAMPDN_G8_T23  53
    RHS1      RAMPUP_G9_T23  65
    RHS1      RAMPDN_G9_T23  65
BOUNDS
 BV BND1      U_G0_T0
 BV BND1      U_G1_T0
 BV BND1      U_G2_T0
 BV BND1      U_G3_T0
 BV BND1      U_G4_T0
 BV BND1      U_G5_T0
 BV BND1      U_G6_T0
 BV BND1      U_G7_T0
 BV BND1      U_G8_T0
 BV BND1      U_G9_T0
 UP BND1      P_G0_T0   235
 UP BND1      P_G1_T0   223
 UP BND1      P_G2_T0   214
 UP BND1      P_G3_T0   256
 UP BND1      P_G4_T0   147
 UP BND1      P_G5_T0   215
 UP BND1      P_G6_T0   178
 UP BND1      P_G7_T0   254
 UP BND1      P_G8_T0   203
 UP BND1      P_G9_T0   209
 BV BND1      U_G0_T1
 BV BND1      U_G1_T1
 BV BND1      U_G2_T1
 BV BND1      U_G3_T1
 BV BND1      U_G4_T1
 BV BND1      U_G5_T1
 BV BND1      U_G6_T1
 BV BND1      U_G7_T1
 BV BND1      U_G8_T1
 BV BND1      U_G9_T1
 UP BND1      P_G0_T1   235
 UP BND1      P_G1_T1   223
 UP BND1      P_G2_T1   214
 UP BND1      P_G3_T1   256
 UP BND1      P_G4_T1   147
 UP BND1      P_G5_T1   215
 UP BND1      P_G6_T1   178
 UP BND1      P_G7_T1   254
 UP BND1      P_G8_T1   203
 UP BND1      P_G9_T1   209
 BV BND1      U_G0_T2
 BV BND1      U_G1_T2
 BV BND1      U_G2_T2
 BV BND1      U_G3_T2
 BV BND1      U_G4_T2
 BV BND1      U_G5_T2
 BV BND1      U_G6_T2
 BV BND1      U_G7_T2
 BV BND1      U_G8_T2
 BV BND1      U_G9_T2
 UP BND1      P_G0_T2   235
 UP BND1      P_G1_T2   223
 UP BND1      P_G2_T2   214
 UP BND1      P_G3_T2   256
 UP BND1      P_G4_T2   147
 UP BND1      P_G5_T2   215
 UP BND1      P_G6_T2   178
 UP BND1      P_G7_T2   254
 UP BND1      P_G8_T2   203
 UP BND1      P_G9_T2   209
 BV BND1      U_G0_T3
 BV BND1      U_G1_T3
 BV BND1      U_G2_T3
 BV BND1      U_G3_T3
 BV BND1      U_G4_T3
 BV BND1      U_G5_T3
 BV BND1      U_G6_T3
 BV BND1      U_G7_T3
 BV BND1      U_G8_T3
 BV BND1      U_G9_T3
 UP BND1      P_G0_T3   235
 UP BND1      P_G1_T3   223
 UP BND1      P_G2_T3   214
 UP BND1      P_G3_T3   256
 UP BND1      P_G4_T3   147
 UP BND1      P_G5_T3   215
 UP BND1      P_G6_T3   178
 UP BND1      P_G7_T3   254
 UP BND1      P_G8_T3   203
 UP BND1      P_G9_T3   209
 BV BND1      U_G0_T4
 BV BND1      U_G1_T4
 BV BND1      U_G2_T4
 BV BND1      U_G3_T4
 BV BND1      U_G4_T4
 BV BND1      U_G5_T4
 BV BND1      U_G6_T4
 BV BND1      U_G7_T4
 BV BND1      U_G8_T4
 BV BND1      U_G9_T4
 UP BND1      P_G0_T4   235
 UP BND1      P_G1_T4   223
 UP BND1      P_G2_T4   214
 UP BND1      P_G3_T4   256
 UP BND1      P_G4_T4   147
 UP BND1      P_G5_T4   215
 UP BND1      P_G6_T4   178
 UP BND1      P_G7_T4   254
 UP BND1      P_G8_T4   203
 UP BND1      P_G9_T4   209
 BV BND1      U_G0_T5
 BV BND1      U_G1_T5
 BV BND1      U_G2_T5
 BV BND1      U_G3_T5
 BV BND1      U_G4_T5
 BV BND1      U_G5_T5
 BV BND1      U_G6_T5
 BV BND1      U_G7_T5
 BV BND1      U_G8_T5
 BV BND1      U_G9_T5
 UP BND1      P_G0_T5   235
 UP BND1      P_G1_T5   223
 UP BND1      P_G2_T5   214
 UP BND1      P_G3_T5   256
 UP BND1      P_G4_T5   147
 UP BND1      P_G5_T5   215
 UP BND1      P_G6_T5   178
 UP BND1      P_G7_T5   254
 UP BND1      P_G8_T5   203
 UP BND1      P_G9_T5   209
 BV BND1      U_G0_T6
 BV BND1      U_G1_T6
 BV BND1      U_G2_T6
 BV BND1      U_G3_T6
 BV BND1      U_G4_T6
 BV BND1      U_G5_T6
 BV BND1      U_G6_T6
 BV BND1      U_G7_T6
 BV BND1      U_G8_T6
 BV BND1      U_G9_T6
 UP BND1      P_G0_T6   235
 UP BND1      P_G1_T6   223
 UP BND1      P_G2_T6   214
 UP BND1      P_G3_T6   256
 UP BND1      P_G4_T6   147
 UP BND1      P_G5_T6   215
 UP BND1      P_G6_T6   178
 UP BND1      P_G7_T6   254
 UP BND1      P_G8_T6   203
 UP BND1      P_G9_T6   209
 BV BND1      U_G0_T7
 BV BND1      U_G1_T7
 BV BND1      U_G2_T7
 BV BND1      U_G3_T7
 BV BND1      U_G4_T7
 BV BND1      U_G5_T7
 BV BND1      U_G6_T7
 BV BND1      U_G7_T7
 BV BND1      U_G8_T7
 BV BND1      U_G9_T7
 UP BND1      P_G0_T7   235
 UP BND1      P_G1_T7   223
 UP BND1      P_G2_T7   214
 UP BND1      P_G3_T7   256
 UP BND1      P_G4_T7   147
 UP BND1      P_G5_T7   215
 UP BND1      P_G6_T7   178
 UP BND1      P_G7_T7   254
 UP BND1      P_G8_T7   203
 UP BND1      P_G9_T7   209
 BV BND1      U_G0_T8
 BV BND1      U_G1_T8
 BV BND1      U_G2_T8
 BV BND1      U_G3_T8
 BV BND1      U_G4_T8
 BV BND1      U_G5_T8
 BV BND1      U_G6_T8
 BV BND1      U_G7_T8
 BV BND1      U_G8_T8
 BV BND1      U_G9_T8
 UP BND1      P_G0_T8   235
 UP BND1      P_G1_T8   223
 UP BND1      P_G2_T8   214
 UP BND1      P_G3_T8   256
 UP BND1      P_G4_T8   147
 UP BND1      P_G5_T8   215
 UP BND1      P_G6_T8   178
 UP BND1      P_G7_T8   254
 UP BND1      P_G8_T8   203
 UP BND1      P_G9_T8   209
 BV BND1      U_G0_T9
 BV BND1      U_G1_T9
 BV BND1      U_G2_T9
 BV BND1      U_G3_T9
 BV BND1      U_G4_T9
 BV BND1      U_G5_T9
 BV BND1      U_G6_T9
 BV BND1      U_G7_T9
 BV BND1      U_G8_T9
 BV BND1      U_G9_T9
 UP BND1      P_G0_T9   235
 UP BND1      P_G1_T9   223
 UP BND1      P_G2_T9   214
 UP BND1      P_G3_T9   256
 UP BND1      P_G4_T9   147
 UP BND1      P_G5_T9   215
 UP BND1      P_G6_T9   178
 UP BND1      P_G7_T9   254
 UP BND1      P_G8_T9   203
 UP BND1      P_G9_T9   209
 BV BND1      U_G0_T10
 BV BND1      U_G1_T10
 BV BND1      U_G2_T10
 BV BND1      U_G3_T10
 BV BND1      U_G4_T10
 BV BND1      U_G5_T10
 BV BND1      U_G6_T10
 BV BND1      U_G7_T10
 BV BND1      U_G8_T10
 BV BND1      U_G9_T10
 UP BND1      P_G0_T10  235
 UP BND1      P_G1_T10  223
 UP BND1      P_G2_T10  214
 UP BND1      P_G3_T10  256
 UP BND1      P_G4_T10  147
 UP BND1      P_G5_T10  215
 UP BND1      P_G6_T10  178
 UP BND1      P_G7_T10  254
 UP BND1      P_G8_T10  203
 UP BND1      P_G9_T10  209
 BV BND1      U_G0_T11
 BV BND1      U_G1_T11
 BV BND1      U_G2_T11
 BV BND1      U_G3_T11
 BV BND1      U_G4_T11
 BV BND1      U_G5_T11
 BV BND1      U_G6_T11
 BV BND1      U_G7_T11
 BV BND1      U_G8_T11
 BV BND1      U_G9_T11
 UP BND1      P_G0_T11  235
 UP BND1      P_G1_T11  223
 UP BND1      P_G2_T11  214
 UP BND1      P_G3_T11  256
 UP BND1      P_G4_T11  147
 UP BND1      P_G5_T11  215
 UP BND1      P_G6_T11  178
 UP BND1      P_G7_T11  254
 UP BND1      P_G8_T11  203
 UP BND1      P_G9_T11  209
 BV BND1      U_G0_T12
 BV BND1      U_G1_T12
 BV BND1      U_G2_T12
 BV BND1      U_G3_T12
 BV BND1      U_G4_T12
 BV BND1      U_G5_T12
 BV BND1      U_G6_T12
 BV BND1      U_G7_T12
 BV BND1      U_G8_T12
 BV BND1      U_G9_T12
 UP BND1      P_G0_T12  235
 UP BND1      P_G1_T12  223
 UP BND1      P_G2_T12  214
 UP BND1      P_G3_T12  256
 UP BND1      P_G4_T12  147
 UP BND1      P_G5_T12  215
 UP BND1      P_G6_T12  178
 UP BND1      P_G7_T12  254
 UP BND1      P_G8_T12  203
 UP BND1      P_G9_T12  209
 BV BND1      U_G0_T13
 BV BND1      U_G1_T13
 BV BND1      U_G2_T13
 BV BND1      U_G3_T13
 BV BND1      U_G4_T13
 BV BND1      U_G5_T13
 BV BND1      U_G6_T13
 BV BND1      U_G7_T13
 BV BND1      U_G8_T13
 BV BND1      U_G9_T13
 UP BND1      P_G0_T13  235
 UP BND1      P_G1_T13  223
 UP BND1      P_G2_T13  214
 UP BND1      P_G3_T13  256
 UP BND1      P_G4_T13  147
 UP BND1      P_G5_T13  215
 UP BND1      P_G6_T13  178
 UP BND1      P_G7_T13  254
 UP BND1      P_G8_T13  203
 UP BND1      P_G9_T13  209
 BV BND1      U_G0_T14
 BV BND1      U_G1_T14
 BV BND1      U_G2_T14
 BV BND1      U_G3_T14
 BV BND1      U_G4_T14
 BV BND1      U_G5_T14
 BV BND1      U_G6_T14
 BV BND1      U_G7_T14
 BV BND1      U_G8_T14
 BV BND1      U_G9_T14
 UP BND1      P_G0_T14  235
 UP BND1      P_G1_T14  223
 UP BND1      P_G2_T14  214
 UP BND1      P_G3_T14  256
 UP BND1      P_G4_T14  147
 UP BND1      P_G5_T14  215
 UP BND1      P_G6_T14  178
 UP BND1      P_G7_T14  254
 UP BND1      P_G8_T14  203
 UP BND1      P_G9_T14  209
 BV BND1      U_G0_T15
 BV BND1      U_G1_T15
 BV BND1      U_G2_T15
 BV BND1      U_G3_T15
 BV BND1      U_G4_T15
 BV BND1      U_G5_T15
 BV BND1      U_G6_T15
 BV BND1      U_G7_T15
 BV BND1      U_G8_T15
 BV BND1      U_G9_T15
 UP BND1      P_G0_T15  235
 UP BND1      P_G1_T15  223
 UP BND1      P_G2_T15  214
 UP BND1      P_G3_T15  256
 UP BND1      P_G4_T15  147
 UP BND1      P_G5_T15  215
 UP BND1      P_G6_T15  178
 UP BND1      P_G7_T15  254
 UP BND1      P_G8_T15  203
 UP BND1      P_G9_T15  209
 BV BND1      U_G0_T16
 BV BND1      U_G1_T16
 BV BND1      U_G2_T16
 BV BND1      U_G3_T16
 BV BND1      U_G4_T16
 BV BND1      U_G5_T16
 BV BND1      U_G6_T16
 BV BND1      U_G7_T16
 BV BND1      U_G8_T16
 BV BND1      U_G9_T16
 UP BND1      P_G0_T16  235
 UP BND1      P_G1_T16  223
 UP BND1      P_G2_T16  214
 UP BND1      P_G3_T16  256
 UP BND1      P_G4_T16  147
 UP BND1      P_G5_T16  215
 UP BND1      P_G6_T16  178
 UP BND1      P_G7_T16  254
 UP BND1      P_G8_T16  203
 UP BND1      P_G9_T16  209
 BV BND1      U_G0_T17
 BV BND1      U_G1_T17
 BV BND1      U_G2_T17
 BV BND1      U_G3_T17
 BV BND1      U_G4_T17
 BV BND1      U_G5_T17
 BV BND1      U_G6_T17
 BV BND1      U_G7_T17
 BV BND1      U_G8_T17
 BV BND1      U_G9_T17
 UP BND1      P_G0_T17  235
 UP BND1      P_G1_T17  223
 UP BND1      P_G2_T17  214
 UP BND1      P_G3_T17  256
 UP BND1      P_G4_T17  147
 UP BND1      P_G5_T17  215
 UP BND1      P_G6_T17  178
 UP BND1      P_G7_T17  254
 UP BND1      P_G8_T17  203
 UP BND1      P_G9_T17  209
 BV BND1      U_G0_T18
 BV BND1      U_G1_T18
 BV BND1      U_G2_T18
 BV BND1      U_G3_T18
 BV BND1      U_G4_T18
 BV BND1      U_G5_T18
 BV BND1      U_G6_T18
 BV BND1      U_G7_T18
 BV BND1      U_G8_T18
 BV BND1      U_G9_T18
 UP BND1      P_G0_T18  235
 UP BND1      P_G1_T18  223
 UP BND1      P_G2_T18  214
 UP BND1      P_G3_T18  256
 UP BND1      P_G4_T18  147
 UP BND1      P_G5_T18  215
 UP BND1      P_G6_T18  178
 UP BND1      P_G7_T18  254
 UP BND1      P_G8_T18  203
 UP BND1      P_G9_T18  209
 BV BND1      U_G0_T19
 BV BND1      U_G1_T19
 BV BND1      U_G2_T19
 BV BND1      U_G3_T19
 BV BND1      U_G4_T19
 BV BND1      U_G5_T19
 BV BND1      U_G6_T19
 BV BND1      U_G7_T19
 BV BND1      U_G8_T19
 BV BND1      U_G9_T19
 UP BND1      P_G0_T19  235
 UP BND1      P_G1_T19  223
 UP BND1      P_G2_T19  214
 UP BND1      P_G3_T19  256
 UP BND1      P_G4_T19  147
 UP BND1      P_G5_T19  215
 UP BND1      P_G6_T19  178
 UP BND1      P_G7_T19  254
 UP BND1      P_G8_T19  203
 UP BND1      P_G9_T19  209
 BV BND1      U_G0_T20
 BV BND1      U_G1_T20
 BV BND1      U_G2_T20
 BV BND1      U_G3_T20
 BV BND1      U_G4_T20
 BV BND1      U_G5_T20
 BV BND1      U_G6_T20
 BV BND1      U_G7_T20
 BV BND1      U_G8_T20
 BV BND1      U_G9_T20
 UP BND1      P_G0_T20  235
 UP BND1      P_G1_T20  223
 UP BND1      P_G2_T20  214
 UP BND1      P_G3_T20  256
 UP BND1      P_G4_T20  147
 UP BND1      P_G5_T20  215
 UP BND1      P_G6_T20  178
 UP BND1      P_G7_T20  254
 UP BND1      P_G8_T20  203
 UP BND1      P_G9_T20  209
 BV BND1      U_G0_T21
 BV BND1      U_G1_T21
 BV BND1      U_G2_T21
 BV BND1      U_G3_T21
 BV BND1      U_G4_T21
 BV BND1      U_G5_T21
 BV BND1      U_G6_T21
 BV BND1      U_G7_T21
 BV BND1      U_G8_T21
 BV BND1      U_G9_T21
 UP BND1      P_G0_T21  235
 UP BND1      P_G1_T21  223
 UP BND1      P_G2_T21  214
 UP BND1      P_G3_T21  256
 UP BND1      P_G4_T21  147
 UP BND1      P_G5_T21  215
 UP BND1      P_G6_T21  178
 UP BND1      P_G7_T21  254
 UP BND1      P_G8_T21  203
 UP BND1      P_G9_T21  209
 BV BND1      U_G0_T22
 BV BND1      U_G1_T22
 BV BND1      U_G2_T22
 BV BND1      U_G3_T22
 BV BND1      U_G4_T22
 BV BND1      U_G5_T22
 BV BND1      U_G6_T22
 BV BND1      U_G7_T22
 BV BND1      U_G8_T22
 BV BND1      U_G9_T22
 UP BND1      P_G0_T22  235
 UP BND1      P_G1_T22  223
 UP BND1      P_G2_T22  214
 UP BND1      P_G3_T22  256
 UP BND1      P_G4_T22  147
 UP BND1      P_G5_T22  215
 UP BND1      P_G6_T22  178
 UP BND1      P_G7_T22  254
 UP BND1      P_G8_T22  203
 UP BND1      P_G9_T22  209
 BV BND1      U_G0_T23
 BV BND1      U_G1_T23
 BV BND1      U_G2_T23
 BV BND1      U_G3_T23
 BV BND1      U_G4_T23
 BV BND1      U_G5_T23
 BV BND1      U_G6_T23
 BV BND1      U_G7_T23
 BV BND1      U_G8_T23
 BV BND1      U_G9_T23
 UP BND1      P_G0_T23  235
 UP BND1      P_G1_T23  223
 UP BND1      P_G2_T23  214
 UP BND1      P_G3_T23  256
 UP BND1      P_G4_T23  147
 UP BND1      P_G5_T23  215
 UP BND1      P_G6_T23  178
 UP BND1      P_G7_T23  254
 UP BND1      P_G8_T23  203
 UP BND1      P_G9_T23  209
ENDATA
