NAME          UNIT_COMMIT_Small
OBJSENSE
  MIN
ROWS
 N  TOTAL_COST
 E  DEMAND_T0
 G  RESERVE_T0
 L  PMAX_G0_T0
 G  PMIN_G0_T0
 L  PMAX_G1_T0
 G  PMIN_G1_T0
 L  PMAX_G2_T0
 G  PMIN_G2_T0
 L  PMAX_G3_T0
 G  PMIN_G3_T0
 L  PMAX_G4_T0
 G  PMIN_G4_T0
 E  DEMAND_T1
 G  RESERVE_T1
 L  PMAX_G0_T1
 G  PMIN_G0_T1
 L  PMAX_G1_T1
 G  PMIN_G1_T1
 L  PMAX_G2_T1
 G  PMIN_G2_T1
 L  PMAX_G3_T1
 G  PMIN_G3_T1
 L  PMAX_G4_T1
 G  PMIN_G4_T1
 L  RAMPUP_G0_T1
 L  RAMPDN_G0_T1
 L  RAMPUP_G1_T1
 L  RAMPDN_G1_T1
 L  RAMPUP_G2_T1
 L  RAMPDN_G2_T1
 L  RAMPUP_G3_T1
 L  RAMPDN_G3_T1
 L  RAMPUP_G4_T1
 L  RAMPDN_G4_T1
 E  DEMAND_T2
 G  RESERVE_T2
 L  PMAX_G0_T2
 G  PMIN_G0_T2
 L  PMAX_G1_T2
 G  PMIN_G1_T2
 L  PMAX_G2_T2
 G  PMIN_G2_T2
 L  PMAX_G3_T2
 G  PMIN_G3_T2
 L  PMAX_G4_T2
 G  PMIN_G4_T2
 L  RAMPUP_G0_T2
 L  RAMPDN_G0_T2
 L  RAMPUP_G1_T2
 L  RAMPDN_G1_T2
 L  RAMPUP_G2_T2
 L  RAMPDN_G2_T2
 L  RAMPUP_G3_T2
 L  RAMPDN_G3_T2
 L  RAMPUP_G4_T2
 L  RAMPDN_G4_T2
 E  DEMAND_T3
 G  RESERVE_T3
 L  PMAX_G0_T3
 G  PMIN_G0_T3
 L  PMAX_G1_T3
 G  PMIN_G1_T3
 L  PMAX_G2_T3
 G  PMIN_G2_T3
 L  PMAX_G3_T3
 G  PMIN_G3_T3
 L  PMAX_G4_T3
 G  PMIN_G4_T3
 L  RAMPUP_G0_T3
 L  RAMPDN_G0_T3
 L  RAMPUP_G1_T3
 L  RAMPDN_G1_T3
 L  RAMPUP_G2_T3
 L  RAMPDN_G2_T3
 L  RAMPUP_G3_T3
 L  RAMPDN_G3_T3
 L  RAMPUP_G4_T3
 L  RAMPDN_G4_T3
 E  DEMAND_T4
 G  RESERVE_T4
 L  PMAX_G0_T4
 G  PMIN_G0_T4
 L  PMAX_G1_T4
 G  PMIN_G1_T4
 L  PMAX_G2_T4
 G  PMIN_G2_T4
 L  PMAX_G3_T4
 G  PMIN_G3_T4
 L  PMAX_G4_T4
 G  PMIN_G4_T4
 L  RAMPUP_G0_T4
 L  RAMPDN_G0_T4
 L  RAMPUP_G1_T4
 L  RAMPDN_G1_T4
 L  RAMPUP_G2_T4
 L  RAMPDN_G2_T4
 L  RAMPUP_G3_T4
 L  RAMPDN_G3_T4
 L  RAMPUP_G4_T4
 L  RAMPDN_G4_T4
 E  DEMAND_T5
 G  RESERVE_T5
 L  PMAX_G0_T5
 G  PMIN_G0_T5
 L  PMAX_G1_T5
 G  PMIN_G1_T5
 L  PMAX_G2_T5
 G  PMIN_G2_T5
 L  PMAX_G3_T5
 G  PMIN_G3_T5
 L  PMAX_G4_T5
 G  PMIN_G4_T5
 L  RAMPUP_G0_T5
 L  RAMPDN_G0_T5
 L  RAMPUP_G1_T5
 L  RAMPDN_G1_T5
 L  RAMPUP_G2_T5
 L  RAMPDN_G2_T5
 L  RAMPUP_G3_T5
 L  RAMPDN_G3_T5
 L  RAMPUP_G4_T5
 L  RAMPDN_G4_T5
 E  DEMAND_T6
 G  RESERVE_T6
 L  PMAX_G0_T6
 G  PMIN_G0_T6
 L  PMAX_G1_T6
 G  PMIN_G1_T6
 L  PMAX_G2_T6
 G  PMIN_G2_T6
 L  PMAX_G3_T6
 G  PMIN_G3_T6
 L  PMAX_G4_T6
 G  PMIN_G4_T6
 L  RAMPUP_G0_T6
 L  RAMPDN_G0_T6
 L  RAMPUP_G1_T6
 L  RAMPDN_G1_T6
 L  RAMPUP_G2_T6
 L  RAMPDN_G2_T6
 L  RAMPUP_G3_T6
 L  RAMPDN_G3_T6
 L  RAMPUP_G4_T6
 L  RAMPDN_G4_T6
 E  DEMAND_T7
 G  RESERVE_T7
 L  PMAX_G0_T7
 G  PMIN_G0_T7
 L  PMAX_G1_T7
 G  PMIN_G1_T7
 L  PMAX_G2_T7
 G  PMIN_G2_T7
 L  PMAX_G3_T7
 G  PMIN_G3_T7
 L  PMAX_G4_T7
 G  PMIN_G4_T7
 L  RAMPUP_G0_T7
 L  RAMPDN_G0_T7
 L  RAMPUP_G1_T7
 L  RAMPDN_G1_T7
 L  RAMPUP_G2_T7
 L  RAMPDN_G2_T7
 L  RAMPUP_G3_T7
 L  RAMPDN_G3_T7
 L  RAMPUP_G4_T7
 L  RAMPDN_G4_T7
 E  DEMAND_T8
 G  RESERVE_T8
 L  PMAX_G0_T8
 G  PMIN_G0_T8
 L  PMAX_G1_T8
 G  PMIN_G1_T8
 L  PMAX_G2_T8
 G  PMIN_G2_T8
 L  PMAX_G3_T8
 G  PMIN_G3_T8
 L  PMAX_G4_T8
 G  PMIN_G4_T8
 L  RAMPUP_G0_T8
 L  RAMPDN_G0_T8
 L  RAMPUP_G1_T8
 L  RAMPDN_G1_T8
 L  RAMPUP_G2_T8
 L  RAMPDN_G2_T8
 L  RAMPUP_G3_T8
 L  RAMPDN_G3_T8
 L  RAMPUP_G4_T8
 L  RAMPDN_G4_T8
 E  DEMAND_T9
 G  RESERVE_T9
 L  PMAX_G0_T9
 G  PMIN_G0_T9
 L  PMAX_G1_T9
 G  PMIN_G1_T9
 L  PMAX_G2_T9
 G  PMIN_G2_T9
 L  PMAX_G3_T9
 G  PMIN_G3_T9
 L  PMAX_G4_T9
 G  PMIN_G4_T9
 L  RAMPUP_G0_T9
 L  RAMPDN_G0_T9
 L  RAMPUP_G1_T9
 L  RAMPDN_G1_T9
 L  RAMPUP_G2_T9
 L  RAMPDN_G2_T9
 L  RAMPUP_G3_T9
 L  RAMPDN_G3_T9
 L  RAMPUP_G4_T9
 L  RAMPDN_G4_T9
 E  DEMAND_T10
 G  RESERVE_T10
 L  PMAX_G0_T10
 G  PMIN_G0_T10
 L  PMAX_G1_T10
 G  PMIN_G1_T10
 L  PMAX_G2_T10
 G  PMIN_G2_T10
 L  PMAX_G3_T10
 G  PMIN_G3_T10
 L  PMAX_G4_T10
 G  PMIN_G4_T10
 L  RAMPUP_G0_T10
 L  RAMPDN_G0_T10
 L  RAMPUP_G1_T10
 L  RAMPDN_G1_T10
 L  RAMPUP_G2_T10
 L  RAMPDN_G2_T10
 L  RAMPUP_G3_T10
 L  RAMPDN_G3_T10
 L  RAMPUP_G4_T10
 L  RAMPDN_G4_T10
 E  DEMAND_T11
 G  RESERVE_T11
 L  PMAX_G0_T11
 G  PMIN_G0_T11
 L  PMAX_G1_T11
 G  PMIN_G1_T11
 L  PMAX_G2_T11
 G  PMIN_G2_T11
 L  PMAX_G3_T11
 G  PMIN_G3_T11
 L  PMAX_G4_T11
 G  PMIN_G4_T11
 L  RAMPUP_G0_T11
 L  RAMPDN_G0_T11
 L  RAMPUP_G1_T11
 L  RAMPDN_G1_T11
 L  RAMPUP_G2_T11
 L  RAMPDN_G2_T11
 L  RAMPUP_G3_T11
 L  RAMPDN_G3_T11
 L  RAMPUP_G4_T11
 L  RAMPDN_G4_T11
COLUMNS
    MARK0000  'MARKER'                 'INTORG'
    U_G0_T0   TOTAL_COST  141
    U_G0_T0   RESERVE_T0  235
    U_G0_T0   PMAX_G0_T0  -235
    U_G0_T0   PMIN_G0_T0  -65
    MARK1000  'MARKER'                 'INTEND'
    MARK2000  'MARKER'                 'INTORG'
    U_G1_T0   TOTAL_COST  182
    U_G1_T0   RESERVE_T0  223
    U_G1_T0   PMAX_G1_T0  -223
    U_G1_T0   PMIN_G1_T0  -26
    MARK3000  'MARKER'                 'INTEND'
    MARK4000  'MARKER'                 'INTORG'
    U_G2_T0   TOTAL_COST  291
    U_G2_T0   RESERVE_T0  214
    U_G2_T0   PMAX_G2_T0  -214
    U_G2_T0   PMIN_G2_T0  -21
    MARK5000  'MARKER'                 'INTEND'
    MARK6000  'MARKER'                 'INTORG'
    U_G3_T0   TOTAL_COST  114
    U_G3_T0   RESERVE_T0  256
    U_G3_T0   PMAX_G3_T0  -256
    U_G3_T0   PMIN_G3_T0  -77
    MARK7000  'MARKER'                 'INTEND'
    MARK8000  'MARKER'                 'INTORG'
    U_G4_T0   TOTAL_COST  130
    U_G4_T0   RESERVE_T0  147
    U_G4_T0   PMAX_G4_T0  -147
    U_G4_T0   PMIN_G4_T0  -65
    MARK9000  'MARKER'                 'INTEND'
    P_G0_T0   TOTAL_COST  50.1
    P_G0_T0   DEMAND_T0  1
    P_G0_T0   PMAX_G0_T0  1
    P_G0_T0   PMIN_G0_T0  1
    P_G0_T0   RAMPUP_G0_T1  -1
    P_G0_T0   RAMPDN_G0_T1  1
    P_G1_T0   TOTAL_COST  34.9
    P_G1_T0   DEMAND_T0  1
    P_G1_T0   PMAX_G1_T0  1
    P_G1_T0   PMIN_G1_T0  1
    P_G1_T0   RAMPUP_G1_T1  -1
    P_G1_T0   RAMPDN_G1_T1  1
    P_G2_T0   TOTAL_COST  47.4
    P_G2_T0   DEMAND_T0  1
    P_G2_T0   PMAX_G2_T0  1
    P_G2_T0   PMIN_G2_T0  1
    P_G2_T0   RAMPUP_G2_T1  -1
    P_G2_T0   RAMPDN_G2_T1  1
    P_G3_T0   TOTAL_COST  38
    P_G3_T0   DEMAND_T0  1
    P_G3_T0   PMAX_G3_T0  1
    P_G3_T0   PMIN_G3_T0  1
    P_G3_T0   RAMPUP_G3_T1  -1
    P_G3_T0   RAMPDN_G3_T1  1
    P_G4_T0   TOTAL_COST  37
    P_G4_T0   DEMAND_T0  1
    P_G4_T0   PMAX_G4_T0  1
    P_G4_T0   PMIN_G4_T0  1
    P_G4_T0   RAMPUP_G4_T1  -1
    P_G4_T0   RAMPDN_G4_T1  1
    MARK1000  'MARKER'                 'INTORG'
    U_G0_T1   TOTAL_COST  141
    U_G0_T1   RESERVE_T1  235
    U_G0_T1   PMAX_G0_T1  -235
    U_G0_T1   PMIN_G0_T1  -65
    MARK1100  'MARKER'                 'INTEND'
    MARK1200  'MARKER'                 'INTORG'
    U_G1_T1   TOTAL_COST  182
    U_G1_T1   RESERVE_T1  223
    U_G1_T1   PMAX_G1_T1  -223
    U_G1_T1   PMIN_G1_T1  -26
    MARK1300  'MARKER'                 'INTEND'
    MARK1400  'MARKER'                 'INTORG'
    U_G2_T1   TOTAL_COST  291
    U_G2_T1   RESERVE_T1  214
    U_G2_T1   PMAX_G2_T1  -214
    U_G2_T1   PMIN_G2_T1  -21
    MARK1500  'MARKER'                 'INTEND'
    MARK1600  'MARKER'                 'INTORG'
    U_G3_T1   TOTAL_COST  114
    U_G3_T1   RESERVE_T1  256
    U_G3_T1   PMAX_G3_T1  -256
    U_G3_T1   PMIN_G3_T1  -77
    MARK1700  'MARKER'                 'INTEND'
    MARK1800  'MARKER'                 'INTORG'
    U_G4_T1   TOTAL_COST  130
    U_G4_T1   RESERVE_T1  147
    U_G4_T1   PMAX_G4_T1  -147
    U_G4_T1   PMIN_G4_T1  -65
    MARK1900  'MARKER'                 'INTEND'
    P_G0_T1   TOTAL_COST  50.1
    P_G0_T1   DEMAND_T1  1
    P_G0_T1   PMAX_G0_T1  1
    P_G0_T1   PMIN_G0_T1  1
    P_G0_T1   RAMPUP_G0_T1  1
    P_G0_T1   RAMPDN_G0_T1  -1
    P_G0_T1   RAMPUP_G0_T2  -1
    P_G0_T1   RAMPDN_G0_T2  1
    P_G1_T1   TOTAL_COST  34.9
    P_G1_T1   DEMAND_T1  1
    P_G1_T1   PMAX_G1_T1  1
    P_G1_T1   PMIN_G1_T1  1
    P_G1_T1   RAMPUP_G1_T1  1
    P_G1_T1   RAMPDN_G1_T1  -1
    P_G1_T1   RAMPUP_G1_T2  -1
    P_G1_T1   RAMPDN_G1_T2  1
    P_G2_T1   TOTAL_COST  47.4
    P_G2_T1   DEMAND_T1  1
    P_G2_T1   PMAX_G2_T1  1
    P_G2_T1   PMIN_G2_T1  1
    P_G2_T1   RAMPUP_G2_T1  1
    P_G2_T1   RAMPDN_G2_T1  -1
    P_G2_T1   RAMPUP_G2_T2  -1
    P_G2_T1   RAMPDN_G2_T2  1
    P_G3_T1   TOTAL_COST  38
    P_G3_T1   DEMAND_T1  1
    P_G3_T1   PMAX_G3_T1  1
    P_G3_T1   PMIN_G3_T1  1
    P_G3_T1   RAMPUP_G3_T1  1
    P_G3_T1   RAMPDN_G3_T1  -1
    P_G3_T1   RAMPUP_G3_T2  -1
    P_G3_T1   RAMPDN_G3_T2  1
    P_G4_T1   TOTAL_COST  37
    P_G4_T1   DEMAND_T1  1
    P_G4_T1   PMAX_G4_T1  1
    P_G4_T1   PMIN_G4_T1  1
    P_G4_T1   RAMPUP_G4_T1  1
    P_G4_T1   RAMPDN_G4_T1  -1
    P_G4_T1   RAMPUP_G4_T2  -1
    P_G4_T1   RAMPDN_G4_T2  1
    MARK2000  'MARKER'                 'INTORG'
    U_G0_T2   TOTAL_COST  141
    U_G0_T2   RESERVE_T2  235
    U_G0_T2   PMAX_G0_T2  -235
    U_G0_T2   PMIN_G0_T2  -65
    MARK2100  'MARKER'                 'INTEND'
    MARK2200  'MARKER'                 'INTORG'
    U_G1_T2   TOTAL_COST  182
    U_G1_T2   RESERVE_T2  223
    U_G1_T2   PMAX_G1_T2  -223
    U_G1_T2   PMIN_G1_T2  -26
    MARK2300  'MARKER'                 'INTEND'
    MARK2400  'MARKER'                 'INTORG'
    U_G2_T2   TOTAL_COST  291
    U_G2_T2   RESERVE_T2  214
    U_G2_T2   PMAX_G2_T2  -214
    U_G2_T2   PMIN_G2_T2  -21
    MARK2500  'MARKER'                 'INTEND'
    MARK2600  'MARKER'                 'INTORG'
    U_G3_T2   TOTAL_COST  114
    U_G3_T2   RESERVE_T2  256
    U_G3_T2   PMAX_G3_T2  -256
    U_G3_T2   PMIN_G3_T2  -77
    MARK2700  'MARKER'                 'INTEND'
    MARK2800  'MARKER'                 'INTORG'
    U_G4_T2   TOTAL_COST  130
    U_G4_T2   RESERVE_T2  147
    U_G4_T2   PMAX_G4_T2  -147
    U_G4_T2   PMIN_G4_T2  -65
    MARK2900  'MARKER'                 'INTEND'
    P_G0_T2   TOTAL_COST  50.1
    P_G0_T2   DEMAND_T2  1
    P_G0_T2   PMAX_G0_T2  1
    P_G0_T2   PMIN_G0_T2  1
    P_G0_T2   RAMPUP_G0_T2  1
    P_G0_T2   RAMPDN_G0_T2  -1
    P_G0_T2   RAMPUP_G0_T3  -1
    P_G0_T2   RAMPDN_G0_T3  1
    P_G1_T2   TOTAL_COST  34.9
    P_G1_T2   DEMAND_T2  1
    P_G1_T2   PMAX_G1_T2  1
    P_G1_T2   PMIN_G1_T2  1
    P_G1_T2   RAMPUP_G1_T2  1
    P_G1_T2   RAMPDN_G1_T2  -1
    P_G1_T2   RAMPUP_G1_T3  -1
    P_G1_T2   RAMPDN_G1_T3  1
    P_G2_T2   TOTAL_COST  47.4
    P_G2_T2   DEMAND_T2  1
    P_G2_T2   PMAX_G2_T2  1
    P_G2_T2   PMIN_G2_T2  1
    P_G2_T2   RAMPUP_G2_T2  1
    P_G2_T2   RAMPDN_G2_T2  -1
    P_G2_T2   RAMPUP_G2_T3  -1
    P_G2_T2   RAMPDN_G2_T3  1
    P_G3_T2   TOTAL_COST  38
    P_G3_T2   DEMAND_T2  1
    P_G3_T2   PMAX_G3_T2  1
    P_G3_T2   PMIN_G3_T2  1
    P_G3_T2   RAMPUP_G3_T2  1
    P_G3_T2   RAMPDN_G3_T2  -1
    P_G3_T2   RAMPUP_G3_T3  -1
    P_G3_T2   RAMPDN_G3_T3  1
    P_G4_T2   TOTAL_COST  37
    P_G4_T2   DEMAND_T2  1
    P_G4_T2   PMAX_G4_T2  1
    P_G4_T2   PMIN_G4_T2  1
    P_G4_T2   RAMPUP_G4_T2  1
    P_G4_T2   RAMPDN_G4_T2  -1
    P_G4_T2   RAMPUP_G4_T3  -1
    P_G4_T2   RAMPDN_G4_T3  1
    MARK3000  'MARKER'                 'INTORG'
    U_G0_T3   TOTAL_COST  141
    U_G0_T3   RESERVE_T3  235
    U_G0_T3   PMAX_G0_T3  -235
    U_G0_T3   PMIN_G0_T3  -65
    MARK3100  'MARKER'                 'INTEND'
    MARK3200  'MARKER'                 'INTORG'
    U_G1_T3   TOTAL_COST  182
    U_G1_T3   RESERVE_T3  223
    U_G1_T3   PMAX_G1_T3  -223
    U_G1_T3   PMIN_G1_T3  -26
    MARK3300  'MARKER'                 'INTEND'
    MARK3400  'MARKER'                 'INTORG'
    U_G2_T3   TOTAL_COST  291
    U_G2_T3   RESERVE_T3  214
    U_G2_T3   PMAX_G2_T3  -214
    U_G2_T3   PMIN_G2_T3  -21
    MARK3500  'MARKER'                 'INTEND'
    MARK3600  'MARKER'                 'INTORG'
    U_G3_T3   TOTAL_COST  114
    U_G3_T3   RESERVE_T3  256
    U_G3_T3   PMAX_G3_T3  -256
    U_G3_T3   PMIN_G3_T3  -77
    MARK3700  'MARKER'                 'INTEND'
    MARK3800  'MARKER'                 'INTORG'
    U_G4_T3   TOTAL_COST  130
    U_G4_T3   RESERVE_T3  147
    U_G4_T3   PMAX_G4_T3  -147
    U_G4_T3   PMIN_G4_T3  -65
    MARK3900  'MARKER'                 'INTEND'
    P_G0_T3   TOTAL_COST  50.1
    P_G0_T3   DEMAND_T3  1
    P_G0_T3   PMAX_G0_T3  1
    P_G0_T3   PMIN_G0_T3  1
    P_G0_T3   RAMPUP_G0_T3  1
    P_G0_T3   RAMPDN_G0_T3  -1
    P_G0_T3   RAMPUP_G0_T4  -1
    P_G0_T3   RAMPDN_G0_T4  1
    P_G1_T3   TOTAL_COST  34.9
    P_G1_T3   DEMAND_T3  1
    P_G1_T3   PMAX_G1_T3  1
    P_G1_T3   PMIN_G1_T3  1
    P_G1_T3   RAMPUP_G1_T3  1
    P_G1_T3   RAMPDN_G1_T3  -1
    P_G1_T3   RAMPUP_G1_T4  -1
    P_G1_T3   RAMPDN_G1_T4  1
    P_G2_T3   TOTAL_COST  47.4
    P_G2_T3   DEMAND_T3  1
    P_G2_T3   PMAX_G2_T3  1
    P_G2_T3   PMIN_G2_T3  1
    P_G2_T3   RAMPUP_G2_T3  1
    P_G2_T3   RAMPDN_G2_T3  -1
    P_G2_T3   RAMPUP_G2_T4  -1
    P_G2_T3   RAMPDN_G2_T4  1
    P_G3_T3   TOTAL_COST  38
    P_G3_T3   DEMAND_T3  1
    P_G3_T3   PMAX_G3_T3  1
    P_G3_T3   PMIN_G3_T3  1
    P_G3_T3   RAMPUP_G3_T3  1
    P_G3_T3   RAMPDN_G3_T3  -1
    P_G3_T3   RAMPUP_G3_T4  -1
    P_G3_T3   RAMPDN_G3_T4  1
    P_G4_T3   TOTAL_COST  37
    P_G4_T3   DEMAND_T3  1
    P_G4_T3   PMAX_G4_T3  1
    P_G4_T3   PMIN_G4_T3  1
    P_G4_T3   RAMPUP_G4_T3  1
    P_G4_T3   RAMPDN_G4_T3  -1
    P_G4_T3   RAMPUP_G4_T4  -1
    P_G4_T3   RAMPDN_G4_T4  1
    MARK4000  'MARKER'                 'INTORG'
    U_G0_T4   TOTAL_COST  141
    U_G0_T4   RESERVE_T4  235
    U_G0_T4   PMAX_G0_T4  -235
    U_G0_T4   PMIN_G0_T4  -65
    MARK4100  'MARKER'                 'INTEND'
    MARK4200  'MARKER'                 'INTORG'
    U_G1_T4   TOTAL_COST  182
    U_G1_T4   RESERVE_T4  223
    U_G1_T4   PMAX_G1_T4  -223
    U_G1_T4   PMIN_G1_T4  -26
    MARK4300  'MARKER'                 'INTEND'
    MARK4400  'MARKER'                 'INTORG'
    U_G2_T4   TOTAL_COST  291
    U_G2_T4   RESERVE_T4  214
    U_G2_T4   PMAX_G2_T4  -214
    U_G2_T4   PMIN_G2_T4  -21
    MARK4500  'MARKER'                 'INTEND'
    MARK4600  'MARKER'                 'INTORG'
    U_G3_T4   TOTAL_COST  114
    U_G3_T4   RESERVE_T4  256
    U_G3_T4   PMAX_G3_T4  -256
    U_G3_T4   PMIN_G3_T4  -77
    MARK4700  'MARKER'                 'INTEND'
    MARK4800  'MARKER'                 'INTORG'
    U_G4_T4   TOTAL_COST  130
    U_G4_T4   RESERVE_T4  147
    U_G4_T4   PMAX_G4_T4  -147
    U_G4_T4   PMIN_G4_T4  -65
    MARK4900  'MARKER'                 'INTEND'
    P_G0_T4   TOTAL_COST  50.1
    P_G0_T4   DEMAND_T4  1
    P_G0_T4   PMAX_G0_T4  1
    P_G0_T4   PMIN_G0_T4  1
    P_G0_T4   RAMPUP_G0_T4  1
    P_G0_T4   RAMPDN_G0_T4  -1
    P_G0_T4   RAMPUP_G0_T5  -1
    P_G0_T4   RAMPDN_G0_T5  1
    P_G1_T4   TOTAL_COST  34.9
    P_G1_T4   DEMAND_T4  1
    P_G1_T4   PMAX_G1_T4  1
    P_G1_T4   PMIN_G1_T4  1
    P_G1_T4   RAMPUP_G1_T4  1
    P_G1_T4   RAMPDN_G1_T4  -1
    P_G1_T4   RAMPUP_G1_T5  -1
    P_G1_T4   RAMPDN_G1_T5  1
    P_G2_T4   TOTAL_COST  47.4
    P_G2_T4   DEMAND_T4  1
    P_G2_T4   PMAX_G2_T4  1
    P_G2_T4   PMIN_G2_T4  1
    P_G2_T4   RAMPUP_G2_T4  1
    P_G2_T4   RAMPDN_G2_T4  -1
    P_G2_T4   RAMPUP_G2_T5  -1
    P_G2_T4   RAMPDN_G2_T5  1
    P_G3_T4   TOTAL_COST  38
    P_G3_T4   DEMAND_T4  1
    P_G3_T4   PMAX_G3_T4  1
    P_G3_T4   PMIN_G3_T4  1
    P_G3_T4   RAMPUP_G3_T4  1
    P_G3_T4   RAMPDN_G3_T4  -1
    P_G3_T4   RAMPUP_G3_T5  -1
    P_G3_T4   RAMPDN_G3_T5  1
    P_G4_T4   TOTAL_COST  37
    P_G4_T4   DEMAND_T4  1
    P_G4_T4   PMAX_G4_T4  1
    P_G4_T4   PMIN_G4_T4  1
    P_G4_T4   RAMPUP_G4_T4  1
    P_G4_T4   RAMPDN_G4_T4  -1
    P_G4_T4   RAMPUP_G4_T5  -1
    P_G4_T4   RAMPDN_G4_T5  1
    MARK5000  'MARKER'                 'INTORG'
    U_G0_T5   TOTAL_COST  141
    U_G0_T5   RESERVE_T5  235
    U_G0_T5   PMAX_G0_T5  -235
    U_G0_T5   PMIN_G0_T5  -65
    MARK5100  'MARKER'                 'INTEND'
    MARK5200  'MARKER'                 'INTORG'
    U_G1_T5   TOTAL_COST  182
    U_G1_T5   RESERVE_T5  223
    U_G1_T5   PMAX_G1_T5  -223
    U_G1_T5   PMIN_G1_T5  -26
    MARK5300  'MARKER'                 'INTEND'
    MARK5400  'MARKER'                 'INTORG'
    U_G2_T5   TOTAL_COST  291
    U_G2_T5   RESERVE_T5  214
    U_G2_T5   PMAX_G2_T5  -214
    U_G2_T5   PMIN_G2_T5  -21
    MARK5500  'MARKER'                 'INTEND'
    MARK5600  'MARKER'                 'INTORG'
    U_G3_T5   TOTAL_COST  114
    U_G3_T5   RESERVE_T5  256
    U_G3_T5   PMAX_G3_T5  -256
    U_G3_T5   PMIN_G3_T5  -77
    MARK5700  'MARKER'                 'INTEND'
    MARK5800  'MARKER'                 'INTORG'
    U_G4_T5   TOTAL_COST  130
    U_G4_T5   RESERVE_T5  147
    U_G4_T5   PMAX_G4_T5  -147
    U_G4_T5   PMIN_G4_T5  -65
    MARK5900  'MARKER'                 'INTEND'
    P_G0_T5   TOTAL_COST  50.1
    P_G0_T5   DEMAND_T5  1
    P_G0_T5   PMAX_G0_T5  1
    P_G0_T5   PMIN_G0_T5  1
    P_G0_T5   RAMPUP_G0_T5  1
    P_G0_T5   RAMPDN_G0_T5  -1
    P_G0_T5   RAMPUP_G0_T6  -1
    P_G0_T5   RAMPDN_G0_T6  1
    P_G1_T5   TOTAL_COST  34.9
    P_G1_T5   DEMAND_T5  1
    P_G1_T5   PMAX_G1_T5  1
    P_G1_T5   PMIN_G1_T5  1
    P_G1_T5   RAMPUP_G1_T5  1
    P_G1_T5   RAMPDN_G1_T5  -1
    P_G1_T5   RAMPUP_G1_T6  -1
    P_G1_T5   RAMPDN_G1_T6  1
    P_G2_T5   TOTAL_COST  47.4
    P_G2_T5   DEMAND_T5  1
    P_G2_T5   PMAX_G2_T5  1
    P_G2_T5   PMIN_G2_T5  1
    P_G2_T5   RAMPUP_G2_T5  1
    P_G2_T5   RAMPDN_G2_T5  -1
    P_G2_T5   RAMPUP_G2_T6  -1
    P_G2_T5   RAMPDN_G2_T6  1
    P_G3_T5   TOTAL_COST  38
    P_G3_T5   DEMAND_T5  1
    P_G3_T5   PMAX_G3_T5  1
    P_G3_T5   PMIN_G3_T5  1
    P_G3_T5   RAMPUP_G3_T5  1
    P_G3_T5   RAMPDN_G3_T5  -1
    P_G3_T5   RAMPUP_G3_T6  -1
    P_G3_T5   RAMPDN_G3_T6  1
    P_G4_T5   TOTAL_COST  37
    P_G4_T5   DEMAND_T5  1
    P_G4_T5   PMAX_G4_T5  1
    P_G4_T5   PMIN_G4_T5  1
    P_G4_T5   RAMPUP_G4_T5  1
    P_G4_T5   RAMPDN_G4_T5  -1
    P_G4_T5   RAMPUP_G4_T6  -1
    P_G4_T5   RAMPDN_G4_T6  1
    MARK6000  'MARKER'                 'INTORG'
    U_G0_T6   TOTAL_COST  141
    U_G0_T6   RESERVE_T6  235
    U_G0_T6   PMAX_G0_T6  -235
    U_G0_T6   PMIN_G0_T6  -65
    MARK6100  'MARKER'                 'INTEND'
    MARK6200  'MARKER'                 'INTORG'
    U_G1_T6   TOTAL_COST  182
    U_G1_T6   RESERVE_T6  223
    U_G1_T6   PMAX_G1_T6  -223
    U_G1_T6   PMIN_G1_T6  -26
    MARK6300  'MARKER'                 'INTEND'
    MARK6400  'MARKER'                 'INTORG'
    U_G2_T6   TOTAL_COST  291
    U_G2_T6   RESERVE_T6  214
    U_G2_T6   PMAX_G2_T6  -214
    U_G2_T6   PMIN_G2_T6  -21
    MARK6500  'MARKER'                 'INTEND'
    MARK6600  'MARKER'                 'INTORG'
    U_G3_T6   TOTAL_COST  114
    U_G3_T6   RESERVE_T6  256
    U_G3_T6   PMAX_G3_T6  -256
    U_G3_T6   PMIN_G3_T6  -77
    MARK6700  'MARKER'                 'INTEND'
    MARK6800  'MARKER'                 'INTORG'
    U_G4_T6   TOTAL_COST  130
    U_G4_T6   RESERVE_T6  147
    U_G4_T6   PMAX_G4_T6  -147
    U_G4_T6   PMIN_G4_T6  -65
    MARK6900  'MARKER'                 'INTEND'
    P_G0_T6   TOTAL_COST  50.1
    P_G0_T6   DEMAND_T6  1
    P_G0_T6   PMAX_G0_T6  1
    P_G0_T6   PMIN_G0_T6  1
    P_G0_T6   RAMPUP_G0_T6  1
    P_G0_T6   RAMPDN_G0_T6  -1
    P_G0_T6   RAMPUP_G0_T7  -1
    P_G0_T6   RAMPDN_G0_T7  1
    P_G1_T6   TOTAL_COST  34.9
    P_G1_T6   DEMAND_T6  1
    P_G1_T6   PMAX_G1_T6  1
    P_G1_T6   PMIN_G1_T6  1
    P_G1_T6   RAMPUP_G1_T6  1
    P_G1_T6   RAMPDN_G1_T6  -1
    P_G1_T6   RAMPUP_G1_T7  -1
    P_G1_T6   RAMPDN_G1_T7  1
    P_G2_T6   TOTAL_COST  47.4
    P_G2_T6   DEMAND_T6  1
    P_G2_T6   PMAX_G2_T6  1
    P_G2_T6   PMIN_G2_T6  1
    P_G2_T6   RAMPUP_G2_T6  1
    P_G2_T6   RAMPDN_G2_T6  -1
    P_G2_T6   RAMPUP_G2_T7  -1
    P_G2_T6   RAMPDN_G2_T7  1
    P_G3_T6   TOTAL_COST  38
    P_G3_T6   DEMAND_T6  1
    P_G3_T6   PMAX_G3_T6  1
    P_G3_T6   PMIN_G3_T6  1
    P_G3_T6   RAMPUP_G3_T6  1
    P_G3_T6   RAMPDN_G3_T6  -1
    P_G3_T6   RAMPUP_G3_T7  -1
    P_G3_T6   RAMPDN_G3_T7  1
    P_G4_T6   TOTAL_COST  37
    P_G4_T6   DEMAND_T6  1
    P_G4_T6   PMAX_G4_T6  1
    P_G4_T6   PMIN_G4_T6  1
    P_G4_T6   RAMPUP_G4_T6  1
    P_G4_T6   RAMPDN_G4_T6  -1
    P_G4_T6   RAMPUP_G4_T7  -1
    P_G4_T6   RAMPDN_G4_T7  1
    MARK7000  'MARKER'                 'INTORG'
    U_G0_T7   TOTAL_COST  141
    U_G0_T7   RESERVE_T7  235
    U_G0_T7   PMAX_G0_T7  -235
    U_G0_T7   PMIN_G0_T7  -65
    MARK7100  'MARKER'                 'INTEND'
    MARK7200  'MARKER'                 'INTORG'
    U_G1_T7   TOTAL_COST  182
    U_G1_T7   RESERVE_T7  223
    U_G1_T7   PMAX_G1_T7  -223
    U_G1_T7   PMIN_G1_T7  -26
    MARK7300  'MARKER'                 'INTEND'
    MARK7400  'MARKER'                 'INTORG'
    U_G2_T7   TOTAL_COST  291
    U_G2_T7   RESERVE_T7  214
    U_G2_T7   PMAX_G2_T7  -214
    U_G2_T7   PMIN_G2_T7  -21
    MARK7500  'MARKER'                 'INTEND'
    MARK7600  'MARKER'                 'INTORG'
    U_G3_T7   TOTAL_COST  114
    U_G3_T7   RESERVE_T7  256
    U_G3_T7   PMAX_G3_T7  -256
    U_G3_T7   PMIN_G3_T7  -77
    MARK7700  'MARKER'                 'INTEND'
    MARK7800  'MARKER'                 'INTORG'
    U_G4_T7   TOTAL_COST  130
    U_G4_T7   RESERVE_T7  147
    U_G4_T7   PMAX_G4_T7  -147
    U_G4_T7   PMIN_G4_T7  -65
    MARK7900  'MARKER'                 'INTEND'
    P_G0_T7   TOTAL_COST  50.1
    P_G0_T7   DEMAND_T7  1
    P_G0_T7   PMAX_G0_T7  1
    P_G0_T7   PMIN_G0_T7  1
    P_G0_T7   RAMPUP_G0_T7  1
    P_G0_T7   RAMPDN_G0_T7  -1
    P_G0_T7   RAMPUP_G0_T8  -1
    P_G0_T7   RAMPDN_G0_T8  1
    P_G1_T7   TOTAL_COST  34.9
    P_G1_T7   DEMAND_T7  1
    P_G1_T7   PMAX_G1_T7  1
    P_G1_T7   PMIN_G1_T7  1
    P_G1_T7   RAMPUP_G1_T7  1
    P_G1_T7   RAMPDN_G1_T7  -1
    P_G1_T7   RAMPUP_G1_T8  -1
    P_G1_T7   RAMPDN_G1_T8  1
    P_G2_T7   TOTAL_COST  47.4
    P_G2_T7   DEMAND_T7  1
    P_G2_T7   PMAX_G2_T7  1
    P_G2_T7   PMIN_G2_T7  1
    P_G2_T7   RAMPUP_G2_T7  1
    P_G2_T7   RAMPDN_G2_T7  -1
    P_G2_T7   RAMPUP_G2_T8  -1
    P_G2_T7   RAMPDN_G2_T8  1
    P_G3_T7   TOTAL_COST  38
    P_G3_T7   DEMAND_T7  1
    P_G3_T7   PMAX_G3_T7  1
    P_G3_T7   PMIN_G3_T7  1
    P_G3_T7   RAMPUP_G3_T7  1
    P_G3_T7   RAMPDN_G3_T7  -1
    P_G3_T7   RAMPUP_G3_T8  -1
    P_G3_T7   RAMPDN_G3_T8  1
    P_G4_T7   TOTAL_COST  37
    P_G4_T7   DEMAND_T7  1
    P_G4_T7   PMAX_G4_T7  1
    P_G4_T7   PMIN_G4_T7  1
    P_G4_T7   RAMPUP_G4_T7  1
    P_G4_T7   RAMPDN_G4_T7  -1
    P_G4_T7   RAMPUP_G4_T8  -1
    P_G4_T7   RAMPDN_G4_T8  1
    MARK8000  'MARKER'                 'INTORG'
    U_G0_T8   TOTAL_COST  141
    U_G0_T8   RESERVE_T8  235
    U_G0_T8   PMAX_G0_T8  -235
    U_G0_T8   PMIN_G0_T8  -65
    MARK8100  'MARKER'                 'INTEND'
    MARK8200  'MARKER'                 'INTORG'
    U_G1_T8   TOTAL_COST  182
    U_G1_T8   RESERVE_T8  223
    U_G1_T8   PMAX_G1_T8  -223
    U_G1_T8   PMIN_G1_T8  -26
    MARK8300  'MARKER'                 'INTEND'
    MARK8400  'MARKER'                 'INTORG'
    U_G2_T8   TOTAL_COST  291
    U_G2_T8   RESERVE_T8  214
    U_G2_T8   PMAX_G2_T8  -214
    U_G2_T8   PMIN_G2_T8  -21
    MARK8500  'MARKER'                 'INTEND'
    MARK8600  'MARKER'                 'INTORG'
    U_G3_T8   TOTAL_COST  114
    U_G3_T8   RESERVE_T8  256
    U_G3_T8   PMAX_G3_T8  -256
    U_G3_T8   PMIN_G3_T8  -77
    MARK8700  'MARKER'                 'INTEND'
    MARK8800  'MARKER'                 'INTORG'
    U_G4_T8   TOTAL_COST  130
    U_G4_T8   RESERVE_T8  147
    U_G4_T8   PMAX_G4_T8  -147
    U_G4_T8   PMIN_G4_T8  -65
    MARK8900  'MARKER'                 'INTEND'
    P_G0_T8   TOTAL_COST  50.1
    P_G0_T8   DEMAND_T8  1
    P_G0_T8   PMAX_G0_T8  1
    P_G0_T8   PMIN_G0_T8  1
    P_G0_T8   RAMPUP_G0_T8  1
    P_G0_T8   RAMPDN_G0_T8  -1
    P_G0_T8   RAMPUP_G0_T9  -1
    P_G0_T8   RAMPDN_G0_T9  1
    P_G1_T8   TOTAL_COST  34.9
    P_G1_T8   DEMAND_T8  1
    P_G1_T8   PMAX_G1_T8  1
    P_G1_T8   PMIN_G1_T8  1
    P_G1_T8   RAMPUP_G1_T8  1
    P_G1_T8   RAMPDN_G1_T8  -1
    P_G1_T8   RAMPUP_G1_T9  -1
    P_G1_T8   RAMPDN_G1_T9  1
    P_G2_T8   TOTAL_COST  47.4
    P_G2_T8   DEMAND_T8  1
    P_G2_T8   PMAX_G2_T8  1
    P_G2_T8   PMIN_G2_T8  1
    P_G2_T8   RAMPUP_G2_T8  1
    P_G2_T8   RAMPDN_G2_T8  -1
    P_G2_T8   RAMPUP_G2_T9  -1
    P_G2_T8   RAMPDN_G2_T9  1
    P_G3_T8   TOTAL_COST  38
    P_G3_T8   DEMAND_T8  1
    P_G3_T8   PMAX_G3_T8  1
    P_G3_T8   PMIN_G3_T8  1
    P_G3_T8   RAMPUP_G3_T8  1
    P_G3_T8   RAMPDN_G3_T8  -1
    P_G3_T8   RAMPUP_G3_T9  -1
    P_G3_T8   RAMPDN_G3_T9  1
    P_G4_T8   TOTAL_COST  37
    P_G4_T8   DEMAND_T8  1
    P_G4_T8   PMAX_G4_T8  1
    P_G4_T8   PMIN_G4_T8  1
    P_G4_T8   RAMPUP_G4_T8  1
    P_G4_T8   RAMPDN_G4_T8  -1
    P_G4_T8   RAMPUP_G4_T9  -1
    P_G4_T8   RAMPDN_G4_T9  1
    MARK9000  'MARKER'                 'INTORG'
    U_G0_T9   TOTAL_COST  141
    U_G0_T9   RESERVE_T9  235
    U_G0_T9   PMAX_G0_T9  -235
    U_G0_T9   PMIN_G0_T9  -65
    MARK9100  'MARKER'                 'INTEND'
    MARK9200  'MARKER'                 'INTORG'
    U_G1_T9   TOTAL_COST  182
    U_G1_T9   RESERVE_T9  223
    U_G1_T9   PMAX_G1_T9  -223
    U_G1_T9   PMIN_G1_T9  -26
    MARK9300  'MARKER'                 'INTEND'
    MARK9400  'MARKER'                 'INTORG'
    U_G2_T9   TOTAL_COST  291
    U_G2_T9   RESERVE_T9  214
    U_G2_T9   PMAX_G2_T9  -214
    U_G2_T9   PMIN_G2_T9  -21
    MARK9500  'MARKER'                 'INTEND'
    MARK9600  'MARKER'                 'INTORG'
    U_G3_T9   TOTAL_COST  114
    U_G3_T9   RESERVE_T9  256
    U_G3_T9   PMAX_G3_T9  -256
    U_G3_T9   PMIN_G3_T9  -77
    MARK9700  'MARKER'                 'INTEND'
    MARK9800  'MARKER'                 'INTORG'
    U_G4_T9   TOTAL_COST  130
    U_G4_T9   RESERVE_T9  147
    U_G4_T9   PMAX_G4_T9  -147
    U_G4_T9   PMIN_G4_T9  -65
    MARK9900  'MARKER'                 'INTEND'
    P_G0_T9   TOTAL_COST  50.1
    P_G0_T9   DEMAND_T9  1
    P_G0_T9   PMAX_G0_T9  1
    P_G0_T9   PMIN_G0_T9  1
    P_G0_T9   RAMPUP_G0_T9  1
    P_G0_T9   RAMPDN_G0_T9  -1
    P_G0_T9   RAMPUP_G0_T10  -1
    P_G0_T9   RAMPDN_G0_T10  1
    P_G1_T9   TOTAL_COST  34.9
    P_G1_T9   DEMAND_T9  1
    P_G1_T9   PMAX_G1_T9  1
    P_G1_T9   PMIN_G1_T9  1
    P_G1_T9   RAMPUP_G1_T9  1
    P_G1_T9   RAMPDN_G1_T9  -1
    P_G1_T9   RAMPUP_G1_T10  -1
    P_G1_T9   RAMPDN_G1_T10  1
    P_G2_T9   TOTAL_COST  47.4
    P_G2_T9   DEMAND_T9  1
    P_G2_T9   PMAX_G2_T9  1
    P_G2_T9   PMIN_G2_T9  1
    P_G2_T9   RAMPUP_G2_T9  1
    P_G2_T9   RAMPDN_G2_T9  -1
    P_G2_T9   RAMPUP_G2_T10  -1
    P_G2_T9   RAMPDN_G2_T10  1
    P_G3_T9   TOTAL_COST  38
    P_G3_T9   DEMAND_T9  1
    P_G3_T9   PMAX_G3_T9  1
    P_G3_T9   PMIN_G3_T9  1
    P_G3_T9   RAMPUP_G3_T9  1
    P_G3_T9   RAMPDN_G3_T9  -1
    P_G3_T9   RAMPUP_G3_T10  -1
    P_G3_T9   RAMPDN_G3_T10  1
    P_G4_T9   TOTAL_COST  37
    P_G4_T9   DEMAND_T9  1
    P_G4_T9   PMAX_G4_T9  1
    P_G4_T9   PMIN_G4_T9  1
    P_G4_T9   RAMPUP_G4_T9  1
    P_G4_T9   RAMPDN_G4_T9  -1
    P_G4_T9   RAMPUP_G4_T10  -1
    P_G4_T9   RAMPDN_G4_T10  1
    MARK1000  'MARKER'                 'INTORG'
    U_G0_T10  TOTAL_COST  141
    U_G0_T10  RESERVE_T10  235
    U_G0_T10  PMAX_G0_T10  -235
    U_G0_T10  PMIN_G0_T10  -65
    MARK1010  'MARKER'                 'INTEND'
    MARK1020  'MARKER'                 'INTORG'
    U_G1_T10  TOTAL_COST  182
    U_G1_T10  RESERVE_T10  223
    U_G1_T10  PMAX_G1_T10  -223
    U_G1_T10  PMIN_G1_T10  -26
    MARK1030  'MARKER'                 'INTEND'
    MARK1040  'MARKER'                 'INTORG'
    U_G2_T10  TOTAL_COST  291
    U_G2_T10  RESERVE_T10  214
    U_G2_T10  PMAX_G2_T10  -214
    U_G2_T10  PMIN_G2_T10  -21
    MARK1050  'MARKER'                 'INTEND'
    MARK1060  'MARKER'                 'INTORG'
    U_G3_T10  TOTAL_COST  114
    U_G3_T10  RESERVE_T10  256
    U_G3_T10  PMAX_G3_T10  -256
    U_G3_T10  PMIN_G3_T10  -77
    MARK1070  'MARKER'                 'INTEND'
    MARK1080  'MARKER'                 'INTORG'
    U_G4_T10  TOTAL_COST  130
    U_G4_T10  RESERVE_T10  147
    U_G4_T10  PMAX_G4_T10  -147
    U_G4_T10  PMIN_G4_T10  -65
    MARK1090  'MARKER'                 'INTEND'
    P_G0_T10  TOTAL_COST  50.1
    P_G0_T10  DEMAND_T10  1
    P_G0_T10  PMAX_G0_T10  1
    P_G0_T10  PMIN_G0_T10  1
    P_G0_T10  RAMPUP_G0_T10  1
    P_G0_T10  RAMPDN_G0_T10  -1
    P_G0_T10  RAMPUP_G0_T11  -1
    P_G0_T10  RAMPDN_G0_T11  1
    P_G1_T10  TOTAL_COST  34.9
    P_G1_T10  DEMAND_T10  1
    P_G1_T10  PMAX_G1_T10  1
    P_G1_T10  PMIN_G1_T10  1
    P_G1_T10  RAMPUP_G1_T10  1
    P_G1_T10  RAMPDN_G1_T10  -1
    P_G1_T10  RAMPUP_G1_T11  -1
    P_G1_T10  RAMPDN_G1_T11  1
    P_G2_T10  TOTAL_COST  47.4
    P_G2_T10  DEMAND_T10  1
    P_G2_T10  PMAX_G2_T10  1
    P_G2_T10  PMIN_G2_T10  1
    P_G2_T10  RAMPUP_G2_T10  1
    P_G2_T10  RAMPDN_G2_T10  -1
    P_G2_T10  RAMPUP_G2_T11  -1
    P_G2_T10  RAMPDN_G2_T11  1
    P_G3_T10  TOTAL_COST  38
    P_G3_T10  DEMAND_T10  1
    P_G3_T10  PMAX_G3_T10  1
    P_G3_T10  PMIN_G3_T10  1
    P_G3_T10  RAMPUP_G3_T10  1
    P_G3_T10  RAMPDN_G3_T10  -1
    P_G3_T10  RAMPUP_G3_T11  -1
    P_G3_T10  RAMPDN_G3_T11  1
    P_G4_T10  TOTAL_COST  37
    P_G4_T10  DEMAND_T10  1
    P_G4_T10  PMAX_G4_T10  1
    P_G4_T10  PMIN_G4_T10  1
    P_G4_T10  RAMPUP_G4_T10  1
    P_G4_T10  RAMPDN_G4_T10  -1
    P_G4_T10  RAMPUP_G4_T11  -1
    P_G4_T10  RAMPDN_G4_T11  1
    MARK1100  'MARKER'                 'INTORG'
    U_G0_T11  TOTAL_COST  141
    U_G0_T11  RESERVE_T11  235
    U_G0_T11  PMAX_G0_T11  -235
    U_G0_T11  PMIN_G0_T11  -65
    MARK1110  'MARKER'                 'INTEND'
    MARK1120  'MARKER'                 'INTORG'
    U_G1_T11  TOTAL_COST  182
    U_G1_T11  RESERVE_T11  223
    U_G1_T11  PMAX_G1_T11  -223
    U_G1_T11  PMIN_G1_T11  -26
    MARK1130  'MARKER'                 'INTEND'
    MARK1140  'MARKER'                 'INTORG'
    U_G2_T11  TOTAL_COST  291
    U_G2_T11  RESERVE_T11  214
    U_G2_T11  PMAX_G2_T11  -214
    U_G2_T11  PMIN_G2_T11  -21
    MARK1150  'MARKER'                 'INTEND'
    MARK1160  'MARKER'                 'INTORG'
    U_G3_T11  TOTAL_COST  114
    U_G3_T11  RESERVE_T11  256
    U_G3_T11  PMAX_G3_T11  -256
    U_G3_T11  PMIN_G3_T11  -77
    MARK1170  'MARKER'                 'INTEND'
    MARK1180  'MARKER'                 'INTORG'
    U_G4_T11  TOTAL_COST  130
    U_G4_T11  RESERVE_T11  147
    U_G4_T11  PMAX_G4_T11  -147
    U_G4_T11  PMIN_G4_T11  -65
    MARK1190  'MARKER'                 'INTEND'
    P_G0_T11  TOTAL_COST  50.1
    P_G0_T11  DEMAND_T11  1
    P_G0_T11  PMAX_G0_T11  1
    P_G0_T11  PMIN_G0_T11  1
    P_G0_T11  RAMPUP_G0_T11  1
    P_G0_T11  RAMPDN_G0_T11  -1
    P_G1_T11  TOTAL_COST  34.9
    P_G1_T11  DEMAND_T11  1
    P_G1_T11  PMAX_G1_T11  1
    P_G1_T11  PMIN_G1_T11  1
    P_G1_T11  RAMPUP_G1_T11  1
    P_G1_T11  RAMPDN_G1_T11  -1
    P_G2_T11  TOTAL_COST  47.4
    P_G2_T11  DEMAND_T11  1
    P_G2_T11  PMAX_G2_T11  1
    P_G2_T11  PMIN_G2_T11  1
    P_G2_T11  RAMPUP_G2_T11  1
    P_G2_T11  RAMPDN_G2_T11  -1
    P_G3_T11  TOTAL_COST  38
    P_G3_T11  DEMAND_T11  1
    P_G3_T11  PMAX_G3_T11  1
    P_G3_T11  PMIN_G3_T11  1
    P_G3_T11  RAMPUP_G3_T11  1
    P_G3_T11  RAMPDN_G3_T11  -1
    P_G4_T11  TOTAL_COST  37
    P_G4_T11  DEMAND_T11  1
    P_G4_T11  PMAX_G4_T11  1
    P_G4_T11  PMIN_G4_T11  1
    P_G4_T11  RAMPUP_G4_T11  1
    P_G4_T11  RAMPDN_G4_T11  -1
RHS
    RHS1      DEMAND_T0  375
    RHS1      RESERVE_T0  431
    RHS1      DEMAND_T1  409
    RHS1      RESERVE_T1  470
    RHS1      RAMPUP_G0_T1  94
    RHS1      RAMPDN_G0_T1  94
    RHS1      RAMPUP_G1_T1  63
    RHS1      RAMPDN_G1_T1  63
    RHS1      RAMPUP_G2_T1  90
    RHS1      RAMPDN_G2_T1  90
    RHS1      RAMPUP_G3_T1  44
    RHS1      RAMPDN_G3_T1  44
    RHS1      RAMPUP_G4_T1  49
    RHS1      RAMPDN_G4_T1  49
    RHS1      DEMAND_T2  441
    RHS1      RESERVE_T2  507
    RHS1      RAMPUP_G0_T2  94
    RHS1      RAMPDN_G0_T2  94
    RHS1      RAMPUP_G1_T2  63
    RHS1      RAMPDN_G1_T2  63
    RHS1      RAMPUP_G2_T2  90
    RHS1      RAMPDN_G2_T2  90
    RHS1      RAMPUP_G3_T2  44
    RHS1      RAMPDN_G3_T2  44
    RHS1      RAMPUP_G4_T2  49
    RHS1      RAMPDN_G4_T2  49
    RHS1      DEMAND_T3  468
    RHS1      RESERVE_T3  538
    RHS1      RAMPUP_G0_T3  94
    RHS1      RAMPDN_G0_T3  94
    RHS1      RAMPUP_G1_T3  63
    RHS1      RAMPDN_G1_T3  63
    RHS1      RAMPUP_G2_T3  90
    RHS1      RAMPDN_G2_T3  90
    RHS1      RAMPUP_G3_T3  44
    RHS1      RAMPDN_G3_T3  44
    RHS1      RAMPUP_G4_T3  49
    RHS1      RAMPDN_G4_T3  49
    RHS1      DEMAND_T4  489
    RHS1      RESERVE_T4  562
    RHS1      RAMPUP_G0_T4  94
    RHS1      RAMPDN_G0_T4  94
    RHS1      RAMPUP_G1_T4  63
    RHS1      RAMPDN_G1_T4  63
    RHS1      RAMPUP_G2_T4  90
    RHS1      RAMPDN_G2_T4  90
    RHS1      RAMPUP_G3_T4  44
    RHS1      RAMPDN_G3_T4  44
    RHS1      RAMPUP_G4_T4  49
    RHS1      RAMPDN_G4_T4  49
    RHS1      DEMAND_T5  502
    RHS1      RESERVE_T5  577
    RHS1      RAMPUP_G0_T5  94
    RHS1      RAMPDN_G0_T5  94
    RHS1      RAMPUP_G1_T5  63
    RHS1      RAMPDN_G1_T5  63
    RHS1      RAMPUP_G2_T5  90
    RHS1      RAMPDN_G2_T5  90
    RHS1      RAMPUP_G3_T5  44
    RHS1      RAMPDN_G3_T5  44
    RHS1      RAMPUP_G4_T5  49
    RHS1      RAMPDN_G4_T5  49
    RHS1      DEMAND_T6  506
    RHS1      RESERVE_T6  582
    RHS1      RAMPUP_G0_T6  94
    RHS1      RAMPDN_G0_T6  94
    RHS1      RAMPUP_G1_T6  63
    RHS1      RAMPDN_G1_T6  63
    RHS1      RAMPUP_G2_T6  90
    RHS1      RAMPDN_G2_T6  90
    RHS1      RAMPUP_G3_T6  44
    RHS1      RAMPDN_G3_T6  44
    RHS1      RAMPUP_G4_T6  49
    RHS1      RAMPDN_G4_T6  49
    RHS1      DEMAND_T7  502
    RHS1      RESERVE_T7  577
    RHS1      RAMPUP_G0_T7  94
    RHS1      RAMPDN_G0_T7  94
    RHS1      RAMPUP_G1_T7  63
    RHS1      RAMPDN_G1_T7  63
    RHS1      RAMPUP_G2_T7  90
    RHS1      RAMPDN_G2_T7  90
    RHS1      RAMPUP_G3_T7  44
    RHS1      RAMPDN_G3_T7  44
    RHS1      RAMPUP_G4_T7  49
    RHS1      RAMPDN_G4_T7  49
    RHS1      DEMAND_T8  489
    RHS1      RESERVE_T8  562
    RHS1      RAMPUP_G0_T8  94
    RHS1      RAMPDN_G0_T8  94
    RHS1      RAMPUP_G1_T8  63
    RHS1      RAMPDN_G1_T8  63
    RHS1      RAMPUP_G2_T8  90
    RHS1      RAMPDN_G2_T8  90
    RHS1      RAMPUP_G3_T8  44
    RHS1      RAMPDN_G3_T8  44
    RHS1      RAMPUP_G4_T8  49
    RHS1      RAMPDN_G4_T8  49
    RHS1      DEMAND_T9  468
    RHS1      RESERVE_T9  538
    RHS1      RAMPUP_G0_T9  94
    RHS1      RAMPDN_G0_T9  94
    RHS1      RAMPUP_G1_T9  63
    RHS1      RAMPDN_G1_T9  63
    RHS1      RAMPUP_G2_T9  90
    RHS1      RAMPDN_G2_T9  90
    RHS1      RAMPUP_G3_T9  44
    RHS1      RAMPDN_G3_T9  44
    RHS1      RAMPUP_G4_T9  49
    RHS1      RAMPDN_G4_T9  49
    RHS1      DEMAND_T10  441
    RHS1      RESERVE_T10  507
    RHS1      RAMPUP_G0_T10  94
    RHS1      RAMPDN_G0_T10  94
    RHS1      RAMPUP_G1_T10  63
    RHS1      RAMPDN_G1_T10  63
    RHS1      RAMPUP_G2_T10  90
    RHS1      RAMPDN_G2_T10  90
    RHS1      RAMPUP_G3_T10  44
    RHS1      RAMPDN_G3_T10  44
    RHS1      RAMPUP_G4_T10  49
    RHS1      RAMPDN_G4_T10  49
    RHS1      DEMAND_T11  409
    RHS1      RESERVE_T11  470
    RHS1      RAMPUP_G0_T11  94
    RHS1      RAMPDN_G0_T11  94
    RHS1      RAMPUP_G1_T11  63
    RHS1      RAMPDN_G1_T11  63
    RHS1      RAMPUP_G2_T11  90
    RHS1      RAMPDN_G2_T11  90
    RHS1      RAMPUP_G3_T11  44
    RHS1      RAMPDN_G3_T11  44
    RHS1      RAMPUP_G4_T11  49
    RHS1      RAMPDN_G4_T11  49
BOUNDS
 BV BND1      U_G0_T0
 BV BND1      U_G1_T0
 BV BND1      U_G2_T0
 BV BND1      U_G3_T0
 BV BND1      U_G4_T0
 UP BND1      P_G0_T0   235
 UP BND1      P_G1_T0   223
 UP BND1      P_G2_T0   214
 UP BND1      P_G3_T0   256
 UP BND1      P_G4_T0   147
 BV BND1      U_G0_T1
 BV BND1      U_G1_T1
 BV BND1      U_G2_T1
 BV BND1      U_G3_T1
 BV BND1      U_G4_T1
 UP BND1      P_G0_T1   235
 UP BND1      P_G1_T1   223
 UP BND1      P_G2_T1   214
 UP BND1      P_G3_T1   256
 UP BND1      P_G4_T1   147
 BV BND1      U_G0_T2
 BV BND1      U_G1_T2
 BV BND1      U_G2_T2
 BV BND1      U_G3_T2
 BV BND1      U_G4_T2
 UP BND1      P_G0_T2   235
 UP BND1      P_G1_T2   223
 UP BND1      P_G2_T2   214
 UP BND1      P_G3_T2   256
 UP BND1      P_G4_T2   147
 BV BND1      U_G0_T3
 BV BND1      U_G1_T3
 BV BND1      U_G2_T3
 BV BND1      U_G3_T3
 BV BND1      U_G4_T3
 UP BND1      P_G0_T3   235
 UP BND1      P_G1_T3   223
 UP BND1      P_G2_T3   214
 UP BND1      P_G3_T3   256
 UP BND1      P_G4_T3   147
 BV BND1      U_G0_T4
 BV BND1      U_G1_T4
 BV BND1      U_G2_T4
 BV BND1      U_G3_T4
 BV BND1      U_G4_T4
 UP BND1      P_G0_T4   235
 UP BND1      P_G1_T4   223
 UP BND1      P_G2_T4   214
 UP BND1      P_G3_T4   256
 UP BND1      P_G4_T4   147
 BV BND1      U_G0_T5
 BV BND1      U_G1_T5
 BV BND1      U_G2_T5
 BV BND1      U_G3_T5
 BV BND1      U_G4_T5
 UP BND1      P_G0_T5   235
 UP BND1      P_G1_T5   223
 UP BND1      P_G2_T5   214
 UP BND1      P_G3_T5   256
 UP BND1      P_G4_T5   147
 BV BND1      U_G0_T6
 BV BND1      U_G1_T6
 BV BND1      U_G2_T6
 BV BND1      U_G3_T6
 BV BND1      U_G4_T6
 UP BND1      P_G0_T6   235
 UP BND1      P_G1_T6   223
 UP BND1      P_G2_T6   214
 UP BND1      P_G3_T6   256
 UP BND1      P_G4_T6   147
 BV BND1      U_G0_T7
 BV BND1      U_G1_T7
 BV BND1      U_G2_T7
 BV BND1      U_G3_T7
 BV BND1      U_G4_T7
 UP BND1      P_G0_T7   235
 UP BND1      P_G1_T7   223
 UP BND1      P_G2_T7   214
 UP BND1      P_G3_T7   256
 UP BND1      P_G4_T7   147
 BV BND1      U_G0_T8
 BV BND1      U_G1_T8
 BV BND1      U_G2_T8
 BV BND1      U_G3_T8
 BV BND1      U_G4_T8
 UP BND1      P_G0_T8   235
 UP BND1      P_G1_T8   223
 UP BND1      P_G2_T8   214
 UP BND1      P_G3_T8   256
 UP BND1      P_G4_T8   147
 BV BND1      U_G0_T9
 BV BND1      U_G1_T9
 BV BND1      U_G2_T9
 BV BND1      U_G3_T9
 BV BND1      U_G4_T9
 UP BND1      P_G0_T9   235
 UP BND1      P_G1_T9   223
 UP BND1      P_G2_T9   214
 UP BND1      P_G3_T9   256
 UP BND1      P_G4_T9   147
 BV BND1      U_G0_T10
 BV BND1      U_G1_T10
 BV BND1      U_G2_T10
 BV BND1      U_G3_T10
 BV BND1      U_G4_T10
 UP BND1      P_G0_T10  235
 UP BND1      P_G1_T10  223
 UP BND1      P_G2_T10  214
 UP BND1      P_G3_T10  256
 UP BND1      P_G4_T10  147
 BV BND1      U_G0_T11
 BV BND1      U_G1_T11
 BV BND1      U_G2_T11
 BV BND1      U_G3_T11
 BV BND1      U_G4_T11
 UP BND1      P_G0_T11  235
 UP BND1      P_G1_T11  223
 UP BND1      P_G2_T11  214
 UP BND1      P_G3_T11  256
 UP BND1      P_G4_T11  147
ENDATA
