NAME          PLANNING_T50_Medium
OBJSENSE
  MIN
ROWS
 N  COST
 E  BAL_P0_T0
 E  BAL_P1_T0
 E  BAL_P2_T0
 E  BAL_P3_T0
 E  BAL_P4_T0
 E  BAL_P5_T0
 E  BAL_P6_T0
 E  BAL_P7_T0
 E  BAL_P8_T0
 E  BAL_P9_T0
 E  BAL_P10_T0
 E  BAL_P11_T0
 E  BAL_P12_T0
 E  BAL_P13_T0
 E  BAL_P14_T0
 E  BAL_P15_T0
 E  BAL_P16_T0
 E  BAL_P17_T0
 E  BAL_P18_T0
 E  BAL_P19_T0
 E  BAL_P20_T0
 E  BAL_P21_T0
 E  BAL_P22_T0
 E  BAL_P23_T0
 E  BAL_P24_T0
 L  CAP_M0_T0
 L  CAP_M1_T0
 L  CAP_M2_T0
 L  CAP_M3_T0
 L  CAP_M4_T0
 L  CAP_M5_T0
 L  CAP_M6_T0
 L  CAP_M7_T0
 L  CAP_M8_T0
 L  CAP_M9_T0
 L  CAP_M10_T0
 L  CAP_M11_T0
 L  STORAGE_T0
 E  BAL_P0_T1
 E  BAL_P1_T1
 E  BAL_P2_T1
 E  BAL_P3_T1
 E  BAL_P4_T1
 E  BAL_P5_T1
 E  BAL_P6_T1
 E  BAL_P7_T1
 E  BAL_P8_T1
 E  BAL_P9_T1
 E  BAL_P10_T1
 E  BAL_P11_T1
 E  BAL_P12_T1
 E  BAL_P13_T1
 E  BAL_P14_T1
 E  BAL_P15_T1
 E  BAL_P16_T1
 E  BAL_P17_T1
 E  BAL_P18_T1
 E  BAL_P19_T1
 E  BAL_P20_T1
 E  BAL_P21_T1
 E  BAL_P22_T1
 E  BAL_P23_T1
 E  BAL_P24_T1
 L  CAP_M0_T1
 L  CAP_M1_T1
 L  CAP_M2_T1
 L  CAP_M3_T1
 L  CAP_M4_T1
 L  CAP_M5_T1
 L  CAP_M6_T1
 L  CAP_M7_T1
 L  CAP_M8_T1
 L  CAP_M9_T1
 L  CAP_M10_T1
 L  CAP_M11_T1
 L  STORAGE_T1
 E  BAL_P0_T2
 E  BAL_P1_T2
 E  BAL_P2_T2
 E  BAL_P3_T2
 E  BAL_P4_T2
 E  BAL_P5_T2
 E  BAL_P6_T2
 E  BAL_P7_T2
 E  BAL_P8_T2
 E  BAL_P9_T2
 E  BAL_P10_T2
 E  BAL_P11_T2
 E  BAL_P12_T2
 E  BAL_P13_T2
 E  BAL_P14_T2
 E  BAL_P15_T2
 E  BAL_P16_T2
 E  BAL_P17_T2
 E  BAL_P18_T2
 E  BAL_P19_T2
 E  BAL_P20_T2
 E  BAL_P21_T2
 E  BAL_P22_T2
 E  BAL_P23_T2
 E  BAL_P24_T2
 L  CAP_M0_T2
 L  CAP_M1_T2
 L  CAP_M2_T2
 L  CAP_M3_T2
 L  CAP_M4_T2
 L  CAP_M5_T2
 L  CAP_M6_T2
 L  CAP_M7_T2
 L  CAP_M8_T2
 L  CAP_M9_T2
 L  CAP_M10_T2
 L  CAP_M11_T2
 L  STORAGE_T2
 E  BAL_P0_T3
 E  BAL_P1_T3
 E  BAL_P2_T3
 E  BAL_P3_T3
 E  BAL_P4_T3
 E  BAL_P5_T3
 E  BAL_P6_T3
 E  BAL_P7_T3
 E  BAL_P8_T3
 E  BAL_P9_T3
 E  BAL_P10_T3
 E  BAL_P11_T3
 E  BAL_P12_T3
 E  BAL_P13_T3
 E  BAL_P14_T3
 E  BAL_P15_T3
 E  BAL_P16_T3
 E  BAL_P17_T3
 E  BAL_P18_T3
 E  BAL_P19_T3
 E  BAL_P20_T3
 E  BAL_P21_T3
 E  BAL_P22_T3
 E  BAL_P23_T3
 E  BAL_P24_T3
 L  CAP_M0_T3
 L  CAP_M1_T3
 L  CAP_M2_T3
 L  CAP_M3_T3
 L  CAP_M4_T3
 L  CAP_M5_T3
 L  CAP_M6_T3
 L  CAP_M7_T3
 L  CAP_M8_T3
 L  CAP_M9_T3
 L  CAP_M10_T3
 L  CAP_M11_T3
 L  STORAGE_T3
 E  BAL_P0_T4
 E  BAL_P1_T4
 E  BAL_P2_T4
 E  BAL_P3_T4
 E  BAL_P4_T4
 E  BAL_P5_T4
 E  BAL_P6_T4
 E  BAL_P7_T4
 E  BAL_P8_T4
 E  BAL_P9_T4
 E  BAL_P10_T4
 E  BAL_P11_T4
 E  BAL_P12_T4
 E  BAL_P13_T4
 E  BAL_P14_T4
 E  BAL_P15_T4
 E  BAL_P16_T4
 E  BAL_P17_T4
 E  BAL_P18_T4
 E  BAL_P19_T4
 E  BAL_P20_T4
 E  BAL_P21_T4
 E  BAL_P22_T4
 E  BAL_P23_T4
 E  BAL_P24_T4
 L  CAP_M0_T4
 L  CAP_M1_T4
 L  CAP_M2_T4
 L  CAP_M3_T4
 L  CAP_M4_T4
 L  CAP_M5_T4
 L  CAP_M6_T4
 L  CAP_M7_T4
 L  CAP_M8_T4
 L  CAP_M9_T4
 L  CAP_M10_T4
 L  CAP_M11_T4
 L  STORAGE_T4
 E  BAL_P0_T5
 E  BAL_P1_T5
 E  BAL_P2_T5
 E  BAL_P3_T5
 E  BAL_P4_T5
 E  BAL_P5_T5
 E  BAL_P6_T5
 E  BAL_P7_T5
 E  BAL_P8_T5
 E  BAL_P9_T5
 E  BAL_P10_T5
 E  BAL_P11_T5
 E  BAL_P12_T5
 E  BAL_P13_T5
 E  BAL_P14_T5
 E  BAL_P15_T5
 E  BAL_P16_T5
 E  BAL_P17_T5
 E  BAL_P18_T5
 E  BAL_P19_T5
 E  BAL_P20_T5
 E  BAL_P21_T5
 E  BAL_P22_T5
 E  BAL_P23_T5
 E  BAL_P24_T5
 L  CAP_M0_T5
 L  CAP_M1_T5
 L  CAP_M2_T5
 L  CAP_M3_T5
 L  CAP_M4_T5
 L  CAP_M5_T5
 L  CAP_M6_T5
 L  CAP_M7_T5
 L  CAP_M8_T5
 L  CAP_M9_T5
 L  CAP_M10_T5
 L  CAP_M11_T5
 L  STORAGE_T5
 E  BAL_P0_T6
 E  BAL_P1_T6
 E  BAL_P2_T6
 E  BAL_P3_T6
 E  BAL_P4_T6
 E  BAL_P5_T6
 E  BAL_P6_T6
 E  BAL_P7_T6
 E  BAL_P8_T6
 E  BAL_P9_T6
 E  BAL_P10_T6
 E  BAL_P11_T6
 E  BAL_P12_T6
 E  BAL_P13_T6
 E  BAL_P14_T6
 E  BAL_P15_T6
 E  BAL_P16_T6
 E  BAL_P17_T6
 E  BAL_P18_T6
 E  BAL_P19_T6
 E  BAL_P20_T6
 E  BAL_P21_T6
 E  BAL_P22_T6
 E  BAL_P23_T6
 E  BAL_P24_T6
 L  CAP_M0_T6
 L  CAP_M1_T6
 L  CAP_M2_T6
 L  CAP_M3_T6
 L  CAP_M4_T6
 L  CAP_M5_T6
 L  CAP_M6_T6
 L  CAP_M7_T6
 L  CAP_M8_T6
 L  CAP_M9_T6
 L  CAP_M10_T6
 L  CAP_M11_T6
 L  STORAGE_T6
 E  BAL_P0_T7
 E  BAL_P1_T7
 E  BAL_P2_T7
 E  BAL_P3_T7
 E  BAL_P4_T7
 E  BAL_P5_T7
 E  BAL_P6_T7
 E  BAL_P7_T7
 E  BAL_P8_T7
 E  BAL_P9_T7
 E  BAL_P10_T7
 E  BAL_P11_T7
 E  BAL_P12_T7
 E  BAL_P13_T7
 E  BAL_P14_T7
 E  BAL_P15_T7
 E  BAL_P16_T7
 E  BAL_P17_T7
 E  BAL_P18_T7
 E  BAL_P19_T7
 E  BAL_P20_T7
 E  BAL_P21_T7
 E  BAL_P22_T7
 E  BAL_P23_T7
 E  BAL_P24_T7
 L  CAP_M0_T7
 L  CAP_M1_T7
 L  CAP_M2_T7
 L  CAP_M3_T7
 L  CAP_M4_T7
 L  CAP_M5_T7
 L  CAP_M6_T7
 L  CAP_M7_T7
 L  CAP_M8_T7
 L  CAP_M9_T7
 L  CAP_M10_T7
 L  CAP_M11_T7
 L  STORAGE_T7
 E  BAL_P0_T8
 E  BAL_P1_T8
 E  BAL_P2_T8
 E  BAL_P3_T8
 E  BAL_P4_T8
 E  BAL_P5_T8
 E  BAL_P6_T8
 E  BAL_P7_T8
 E  BAL_P8_T8
 E  BAL_P9_T8
 E  BAL_P10_T8
 E  BAL_P11_T8
 E  BAL_P12_T8
 E  BAL_P13_T8
 E  BAL_P14_T8
 E  BAL_P15_T8
 E  BAL_P16_T8
 E  BAL_P17_T8
 E  BAL_P18_T8
 E  BAL_P19_T8
 E  BAL_P20_T8
 E  BAL_P21_T8
 E  BAL_P22_T8
 E  BAL_P23_T8
 E  BAL_P24_T8
 L  CAP_M0_T8
 L  CAP_M1_T8
 L  CAP_M2_T8
 L  CAP_M3_T8
 L  CAP_M4_T8
 L  CAP_M5_T8
 L  CAP_M6_T8
 L  CAP_M7_T8
 L  CAP_M8_T8
 L  CAP_M9_T8
 L  CAP_M10_T8
 L  CAP_M11_T8
 L  STORAGE_T8
 E  BAL_P0_T9
 E  BAL_P1_T9
 E  BAL_P2_T9
 E  BAL_P3_T9
 E  BAL_P4_T9
 E  BAL_P5_T9
 E  BAL_P6_T9
 E  BAL_P7_T9
 E  BAL_P8_T9
 E  BAL_P9_T9
 E  BAL_P10_T9
 E  BAL_P11_T9
 E  BAL_P12_T9
 E  BAL_P13_T9
 E  BAL_P14_T9
 E  BAL_P15_T9
 E  BAL_P16_T9
 E  BAL_P17_T9
 E  BAL_P18_T9
 E  BAL_P19_T9
 E  BAL_P20_T9
 E  BAL_P21_T9
 E  BAL_P22_T9
 E  BAL_P23_T9
 E  BAL_P24_T9
 L  CAP_M0_T9
 L  CAP_M1_T9
 L  CAP_M2_T9
 L  CAP_M3_T9
 L  CAP_M4_T9
 L  CAP_M5_T9
 L  CAP_M6_T9
 L  CAP_M7_T9
 L  CAP_M8_T9
 L  CAP_M9_T9
 L  CAP_M10_T9
 L  CAP_M11_T9
 L  STORAGE_T9
 E  BAL_P0_T10
 E  BAL_P1_T10
 E  BAL_P2_T10
 E  BAL_P3_T10
 E  BAL_P4_T10
 E  BAL_P5_T10
 E  BAL_P6_T10
 E  BAL_P7_T10
 E  BAL_P8_T10
 E  BAL_P9_T10
 E  BAL_P10_T10
 E  BAL_P11_T10
 E  BAL_P12_T10
 E  BAL_P13_T10
 E  BAL_P14_T10
 E  BAL_P15_T10
 E  BAL_P16_T10
 E  BAL_P17_T10
 E  BAL_P18_T10
 E  BAL_P19_T10
 E  BAL_P20_T10
 E  BAL_P21_T10
 E  BAL_P22_T10
 E  BAL_P23_T10
 E  BAL_P24_T10
 L  CAP_M0_T10
 L  CAP_M1_T10
 L  CAP_M2_T10
 L  CAP_M3_T10
 L  CAP_M4_T10
 L  CAP_M5_T10
 L  CAP_M6_T10
 L  CAP_M7_T10
 L  CAP_M8_T10
 L  CAP_M9_T10
 L  CAP_M10_T10
 L  CAP_M11_T10
 L  STORAGE_T10
 E  BAL_P0_T11
 E  BAL_P1_T11
 E  BAL_P2_T11
 E  BAL_P3_T11
 E  BAL_P4_T11
 E  BAL_P5_T11
 E  BAL_P6_T11
 E  BAL_P7_T11
 E  BAL_P8_T11
 E  BAL_P9_T11
 E  BAL_P10_T11
 E  BAL_P11_T11
 E  BAL_P12_T11
 E  BAL_P13_T11
 E  BAL_P14_T11
 E  BAL_P15_T11
 E  BAL_P16_T11
 E  BAL_P17_T11
 E  BAL_P18_T11
 E  BAL_P19_T11
 E  BAL_P20_T11
 E  BAL_P21_T11
 E  BAL_P22_T11
 E  BAL_P23_T11
 E  BAL_P24_T11
 L  CAP_M0_T11
 L  CAP_M1_T11
 L  CAP_M2_T11
 L  CAP_M3_T11
 L  CAP_M4_T11
 L  CAP_M5_T11
 L  CAP_M6_T11
 L  CAP_M7_T11
 L  CAP_M8_T11
 L  CAP_M9_T11
 L  CAP_M10_T11
 L  CAP_M11_T11
 L  STORAGE_T11
 E  BAL_P0_T12
 E  BAL_P1_T12
 E  BAL_P2_T12
 E  BAL_P3_T12
 E  BAL_P4_T12
 E  BAL_P5_T12
 E  BAL_P6_T12
 E  BAL_P7_T12
 E  BAL_P8_T12
 E  BAL_P9_T12
 E  BAL_P10_T12
 E  BAL_P11_T12
 E  BAL_P12_T12
 E  BAL_P13_T12
 E  BAL_P14_T12
 E  BAL_P15_T12
 E  BAL_P16_T12
 E  BAL_P17_T12
 E  BAL_P18_T12
 E  BAL_P19_T12
 E  BAL_P20_T12
 E  BAL_P21_T12
 E  BAL_P22_T12
 E  BAL_P23_T12
 E  BAL_P24_T12
 L  CAP_M0_T12
 L  CAP_M1_T12
 L  CAP_M2_T12
 L  CAP_M3_T12
 L  CAP_M4_T12
 L  CAP_M5_T12
 L  CAP_M6_T12
 L  CAP_M7_T12
 L  CAP_M8_T12
 L  CAP_M9_T12
 L  CAP_M10_T12
 L  CAP_M11_T12
 L  STORAGE_T12
 E  BAL_P0_T13
 E  BAL_P1_T13
 E  BAL_P2_T13
 E  BAL_P3_T13
 E  BAL_P4_T13
 E  BAL_P5_T13
 E  BAL_P6_T13
 E  BAL_P7_T13
 E  BAL_P8_T13
 E  BAL_P9_T13
 E  BAL_P10_T13
 E  BAL_P11_T13
 E  BAL_P12_T13
 E  BAL_P13_T13
 E  BAL_P14_T13
 E  BAL_P15_T13
 E  BAL_P16_T13
 E  BAL_P17_T13
 E  BAL_P18_T13
 E  BAL_P19_T13
 E  BAL_P20_T13
 E  BAL_P21_T13
 E  BAL_P22_T13
 E  BAL_P23_T13
 E  BAL_P24_T13
 L  CAP_M0_T13
 L  CAP_M1_T13
 L  CAP_M2_T13
 L  CAP_M3_T13
 L  CAP_M4_T13
 L  CAP_M5_T13
 L  CAP_M6_T13
 L  CAP_M7_T13
 L  CAP_M8_T13
 L  CAP_M9_T13
 L  CAP_M10_T13
 L  CAP_M11_T13
 L  STORAGE_T13
 E  BAL_P0_T14
 E  BAL_P1_T14
 E  BAL_P2_T14
 E  BAL_P3_T14
 E  BAL_P4_T14
 E  BAL_P5_T14
 E  BAL_P6_T14
 E  BAL_P7_T14
 E  BAL_P8_T14
 E  BAL_P9_T14
 E  BAL_P10_T14
 E  BAL_P11_T14
 E  BAL_P12_T14
 E  BAL_P13_T14
 E  BAL_P14_T14
 E  BAL_P15_T14
 E  BAL_P16_T14
 E  BAL_P17_T14
 E  BAL_P18_T14
 E  BAL_P19_T14
 E  BAL_P20_T14
 E  BAL_P21_T14
 E  BAL_P22_T14
 E  BAL_P23_T14
 E  BAL_P24_T14
 L  CAP_M0_T14
 L  CAP_M1_T14
 L  CAP_M2_T14
 L  CAP_M3_T14
 L  CAP_M4_T14
 L  CAP_M5_T14
 L  CAP_M6_T14
 L  CAP_M7_T14
 L  CAP_M8_T14
 L  CAP_M9_T14
 L  CAP_M10_T14
 L  CAP_M11_T14
 L  STORAGE_T14
 E  BAL_P0_T15
 E  BAL_P1_T15
 E  BAL_P2_T15
 E  BAL_P3_T15
 E  BAL_P4_T15
 E  BAL_P5_T15
 E  BAL_P6_T15
 E  BAL_P7_T15
 E  BAL_P8_T15
 E  BAL_P9_T15
 E  BAL_P10_T15
 E  BAL_P11_T15
 E  BAL_P12_T15
 E  BAL_P13_T15
 E  BAL_P14_T15
 E  BAL_P15_T15
 E  BAL_P16_T15
 E  BAL_P17_T15
 E  BAL_P18_T15
 E  BAL_P19_T15
 E  BAL_P20_T15
 E  BAL_P21_T15
 E  BAL_P22_T15
 E  BAL_P23_T15
 E  BAL_P24_T15
 L  CAP_M0_T15
 L  CAP_M1_T15
 L  CAP_M2_T15
 L  CAP_M3_T15
 L  CAP_M4_T15
 L  CAP_M5_T15
 L  CAP_M6_T15
 L  CAP_M7_T15
 L  CAP_M8_T15
 L  CAP_M9_T15
 L  CAP_M10_T15
 L  CAP_M11_T15
 L  STORAGE_T15
 E  BAL_P0_T16
 E  BAL_P1_T16
 E  BAL_P2_T16
 E  BAL_P3_T16
 E  BAL_P4_T16
 E  BAL_P5_T16
 E  BAL_P6_T16
 E  BAL_P7_T16
 E  BAL_P8_T16
 E  BAL_P9_T16
 E  BAL_P10_T16
 E  BAL_P11_T16
 E  BAL_P12_T16
 E  BAL_P13_T16
 E  BAL_P14_T16
 E  BAL_P15_T16
 E  BAL_P16_T16
 E  BAL_P17_T16
 E  BAL_P18_T16
 E  BAL_P19_T16
 E  BAL_P20_T16
 E  BAL_P21_T16
 E  BAL_P22_T16
 E  BAL_P23_T16
 E  BAL_P24_T16
 L  CAP_M0_T16
 L  CAP_M1_T16
 L  CAP_M2_T16
 L  CAP_M3_T16
 L  CAP_M4_T16
 L  CAP_M5_T16
 L  CAP_M6_T16
 L  CAP_M7_T16
 L  CAP_M8_T16
 L  CAP_M9_T16
 L  CAP_M10_T16
 L  CAP_M11_T16
 L  STORAGE_T16
 E  BAL_P0_T17
 E  BAL_P1_T17
 E  BAL_P2_T17
 E  BAL_P3_T17
 E  BAL_P4_T17
 E  BAL_P5_T17
 E  BAL_P6_T17
 E  BAL_P7_T17
 E  BAL_P8_T17
 E  BAL_P9_T17
 E  BAL_P10_T17
 E  BAL_P11_T17
 E  BAL_P12_T17
 E  BAL_P13_T17
 E  BAL_P14_T17
 E  BAL_P15_T17
 E  BAL_P16_T17
 E  BAL_P17_T17
 E  BAL_P18_T17
 E  BAL_P19_T17
 E  BAL_P20_T17
 E  BAL_P21_T17
 E  BAL_P22_T17
 E  BAL_P23_T17
 E  BAL_P24_T17
 L  CAP_M0_T17
 L  CAP_M1_T17
 L  CAP_M2_T17
 L  CAP_M3_T17
 L  CAP_M4_T17
 L  CAP_M5_T17
 L  CAP_M6_T17
 L  CAP_M7_T17
 L  CAP_M8_T17
 L  CAP_M9_T17
 L  CAP_M10_T17
 L  CAP_M11_T17
 L  STORAGE_T17
 E  BAL_P0_T18
 E  BAL_P1_T18
 E  BAL_P2_T18
 E  BAL_P3_T18
 E  BAL_P4_T18
 E  BAL_P5_T18
 E  BAL_P6_T18
 E  BAL_P7_T18
 E  BAL_P8_T18
 E  BAL_P9_T18
 E  BAL_P10_T18
 E  BAL_P11_T18
 E  BAL_P12_T18
 E  BAL_P13_T18
 E  BAL_P14_T18
 E  BAL_P15_T18
 E  BAL_P16_T18
 E  BAL_P17_T18
 E  BAL_P18_T18
 E  BAL_P19_T18
 E  BAL_P20_T18
 E  BAL_P21_T18
 E  BAL_P22_T18
 E  BAL_P23_T18
 E  BAL_P24_T18
 L  CAP_M0_T18
 L  CAP_M1_T18
 L  CAP_M2_T18
 L  CAP_M3_T18
 L  CAP_M4_T18
 L  CAP_M5_T18
 L  CAP_M6_T18
 L  CAP_M7_T18
 L  CAP_M8_T18
 L  CAP_M9_T18
 L  CAP_M10_T18
 L  CAP_M11_T18
 L  STORAGE_T18
 E  BAL_P0_T19
 E  BAL_P1_T19
 E  BAL_P2_T19
 E  BAL_P3_T19
 E  BAL_P4_T19
 E  BAL_P5_T19
 E  BAL_P6_T19
 E  BAL_P7_T19
 E  BAL_P8_T19
 E  BAL_P9_T19
 E  BAL_P10_T19
 E  BAL_P11_T19
 E  BAL_P12_T19
 E  BAL_P13_T19
 E  BAL_P14_T19
 E  BAL_P15_T19
 E  BAL_P16_T19
 E  BAL_P17_T19
 E  BAL_P18_T19
 E  BAL_P19_T19
 E  BAL_P20_T19
 E  BAL_P21_T19
 E  BAL_P22_T19
 E  BAL_P23_T19
 E  BAL_P24_T19
 L  CAP_M0_T19
 L  CAP_M1_T19
 L  CAP_M2_T19
 L  CAP_M3_T19
 L  CAP_M4_T19
 L  CAP_M5_T19
 L  CAP_M6_T19
 L  CAP_M7_T19
 L  CAP_M8_T19
 L  CAP_M9_T19
 L  CAP_M10_T19
 L  CAP_M11_T19
 L  STORAGE_T19
 E  BAL_P0_T20
 E  BAL_P1_T20
 E  BAL_P2_T20
 E  BAL_P3_T20
 E  BAL_P4_T20
 E  BAL_P5_T20
 E  BAL_P6_T20
 E  BAL_P7_T20
 E  BAL_P8_T20
 E  BAL_P9_T20
 E  BAL_P10_T20
 E  BAL_P11_T20
 E  BAL_P12_T20
 E  BAL_P13_T20
 E  BAL_P14_T20
 E  BAL_P15_T20
 E  BAL_P16_T20
 E  BAL_P17_T20
 E  BAL_P18_T20
 E  BAL_P19_T20
 E  BAL_P20_T20
 E  BAL_P21_T20
 E  BAL_P22_T20
 E  BAL_P23_T20
 E  BAL_P24_T20
 L  CAP_M0_T20
 L  CAP_M1_T20
 L  CAP_M2_T20
 L  CAP_M3_T20
 L  CAP_M4_T20
 L  CAP_M5_T20
 L  CAP_M6_T20
 L  CAP_M7_T20
 L  CAP_M8_T20
 L  CAP_M9_T20
 L  CAP_M10_T20
 L  CAP_M11_T20
 L  STORAGE_T20
 E  BAL_P0_T21
 E  BAL_P1_T21
 E  BAL_P2_T21
 E  BAL_P3_T21
 E  BAL_P4_T21
 E  BAL_P5_T21
 E  BAL_P6_T21
 E  BAL_P7_T21
 E  BAL_P8_T21
 E  BAL_P9_T21
 E  BAL_P10_T21
 E  BAL_P11_T21
 E  BAL_P12_T21
 E  BAL_P13_T21
 E  BAL_P14_T21
 E  BAL_P15_T21
 E  BAL_P16_T21
 E  BAL_P17_T21
 E  BAL_P18_T21
 E  BAL_P19_T21
 E  BAL_P20_T21
 E  BAL_P21_T21
 E  BAL_P22_T21
 E  BAL_P23_T21
 E  BAL_P24_T21
 L  CAP_M0_T21
 L  CAP_M1_T21
 L  CAP_M2_T21
 L  CAP_M3_T21
 L  CAP_M4_T21
 L  CAP_M5_T21
 L  CAP_M6_T21
 L  CAP_M7_T21
 L  CAP_M8_T21
 L  CAP_M9_T21
 L  CAP_M10_T21
 L  CAP_M11_T21
 L  STORAGE_T21
 E  BAL_P0_T22
 E  BAL_P1_T22
 E  BAL_P2_T22
 E  BAL_P3_T22
 E  BAL_P4_T22
 E  BAL_P5_T22
 E  BAL_P6_T22
 E  BAL_P7_T22
 E  BAL_P8_T22
 E  BAL_P9_T22
 E  BAL_P10_T22
 E  BAL_P11_T22
 E  BAL_P12_T22
 E  BAL_P13_T22
 E  BAL_P14_T22
 E  BAL_P15_T22
 E  BAL_P16_T22
 E  BAL_P17_T22
 E  BAL_P18_T22
 E  BAL_P19_T22
 E  BAL_P20_T22
 E  BAL_P21_T22
 E  BAL_P22_T22
 E  BAL_P23_T22
 E  BAL_P24_T22
 L  CAP_M0_T22
 L  CAP_M1_T22
 L  CAP_M2_T22
 L  CAP_M3_T22
 L  CAP_M4_T22
 L  CAP_M5_T22
 L  CAP_M6_T22
 L  CAP_M7_T22
 L  CAP_M8_T22
 L  CAP_M9_T22
 L  CAP_M10_T22
 L  CAP_M11_T22
 L  STORAGE_T22
 E  BAL_P0_T23
 E  BAL_P1_T23
 E  BAL_P2_T23
 E  BAL_P3_T23
 E  BAL_P4_T23
 E  BAL_P5_T23
 E  BAL_P6_T23
 E  BAL_P7_T23
 E  BAL_P8_T23
 E  BAL_P9_T23
 E  BAL_P10_T23
 E  BAL_P11_T23
 E  BAL_P12_T23
 E  BAL_P13_T23
 E  BAL_P14_T23
 E  BAL_P15_T23
 E  BAL_P16_T23
 E  BAL_P17_T23
 E  BAL_P18_T23
 E  BAL_P19_T23
 E  BAL_P20_T23
 E  BAL_P21_T23
 E  BAL_P22_T23
 E  BAL_P23_T23
 E  BAL_P24_T23
 L  CAP_M0_T23
 L  CAP_M1_T23
 L  CAP_M2_T23
 L  CAP_M3_T23
 L  CAP_M4_T23
 L  CAP_M5_T23
 L  CAP_M6_T23
 L  CAP_M7_T23
 L  CAP_M8_T23
 L  CAP_M9_T23
 L  CAP_M10_T23
 L  CAP_M11_T23
 L  STORAGE_T23
 E  BAL_P0_T24
 E  BAL_P1_T24
 E  BAL_P2_T24
 E  BAL_P3_T24
 E  BAL_P4_T24
 E  BAL_P5_T24
 E  BAL_P6_T24
 E  BAL_P7_T24
 E  BAL_P8_T24
 E  BAL_P9_T24
 E  BAL_P10_T24
 E  BAL_P11_T24
 E  BAL_P12_T24
 E  BAL_P13_T24
 E  BAL_P14_T24
 E  BAL_P15_T24
 E  BAL_P16_T24
 E  BAL_P17_T24
 E  BAL_P18_T24
 E  BAL_P19_T24
 E  BAL_P20_T24
 E  BAL_P21_T24
 E  BAL_P22_T24
 E  BAL_P23_T24
 E  BAL_P24_T24
 L  CAP_M0_T24
 L  CAP_M1_T24
 L  CAP_M2_T24
 L  CAP_M3_T24
 L  CAP_M4_T24
 L  CAP_M5_T24
 L  CAP_M6_T24
 L  CAP_M7_T24
 L  CAP_M8_T24
 L  CAP_M9_T24
 L  CAP_M10_T24
 L  CAP_M11_T24
 L  STORAGE_T24
 E  BAL_P0_T25
 E  BAL_P1_T25
 E  BAL_P2_T25
 E  BAL_P3_T25
 E  BAL_P4_T25
 E  BAL_P5_T25
 E  BAL_P6_T25
 E  BAL_P7_T25
 E  BAL_P8_T25
 E  BAL_P9_T25
 E  BAL_P10_T25
 E  BAL_P11_T25
 E  BAL_P12_T25
 E  BAL_P13_T25
 E  BAL_P14_T25
 E  BAL_P15_T25
 E  BAL_P16_T25
 E  BAL_P17_T25
 E  BAL_P18_T25
 E  BAL_P19_T25
 E  BAL_P20_T25
 E  BAL_P21_T25
 E  BAL_P22_T25
 E  BAL_P23_T25
 E  BAL_P24_T25
 L  CAP_M0_T25
 L  CAP_M1_T25
 L  CAP_M2_T25
 L  CAP_M3_T25
 L  CAP_M4_T25
 L  CAP_M5_T25
 L  CAP_M6_T25
 L  CAP_M7_T25
 L  CAP_M8_T25
 L  CAP_M9_T25
 L  CAP_M10_T25
 L  CAP_M11_T25
 L  STORAGE_T25
 E  BAL_P0_T26
 E  BAL_P1_T26
 E  BAL_P2_T26
 E  BAL_P3_T26
 E  BAL_P4_T26
 E  BAL_P5_T26
 E  BAL_P6_T26
 E  BAL_P7_T26
 E  BAL_P8_T26
 E  BAL_P9_T26
 E  BAL_P10_T26
 E  BAL_P11_T26
 E  BAL_P12_T26
 E  BAL_P13_T26
 E  BAL_P14_T26
 E  BAL_P15_T26
 E  BAL_P16_T26
 E  BAL_P17_T26
 E  BAL_P18_T26
 E  BAL_P19_T26
 E  BAL_P20_T26
 E  BAL_P21_T26
 E  BAL_P22_T26
 E  BAL_P23_T26
 E  BAL_P24_T26
 L  CAP_M0_T26
 L  CAP_M1_T26
 L  CAP_M2_T26
 L  CAP_M3_T26
 L  CAP_M4_T26
 L  CAP_M5_T26
 L  CAP_M6_T26
 L  CAP_M7_T26
 L  CAP_M8_T26
 L  CAP_M9_T26
 L  CAP_M10_T26
 L  CAP_M11_T26
 L  STORAGE_T26
 E  BAL_P0_T27
 E  BAL_P1_T27
 E  BAL_P2_T27
 E  BAL_P3_T27
 E  BAL_P4_T27
 E  BAL_P5_T27
 E  BAL_P6_T27
 E  BAL_P7_T27
 E  BAL_P8_T27
 E  BAL_P9_T27
 E  BAL_P10_T27
 E  BAL_P11_T27
 E  BAL_P12_T27
 E  BAL_P13_T27
 E  BAL_P14_T27
 E  BAL_P15_T27
 E  BAL_P16_T27
 E  BAL_P17_T27
 E  BAL_P18_T27
 E  BAL_P19_T27
 E  BAL_P20_T27
 E  BAL_P21_T27
 E  BAL_P22_T27
 E  BAL_P23_T27
 E  BAL_P24_T27
 L  CAP_M0_T27
 L  CAP_M1_T27
 L  CAP_M2_T27
 L  CAP_M3_T27
 L  CAP_M4_T27
 L  CAP_M5_T27
 L  CAP_M6_T27
 L  CAP_M7_T27
 L  CAP_M8_T27
 L  CAP_M9_T27
 L  CAP_M10_T27
 L  CAP_M11_T27
 L  STORAGE_T27
 E  BAL_P0_T28
 E  BAL_P1_T28
 E  BAL_P2_T28
 E  BAL_P3_T28
 E  BAL_P4_T28
 E  BAL_P5_T28
 E  BAL_P6_T28
 E  BAL_P7_T28
 E  BAL_P8_T28
 E  BAL_P9_T28
 E  BAL_P10_T28
 E  BAL_P11_T28
 E  BAL_P12_T28
 E  BAL_P13_T28
 E  BAL_P14_T28
 E  BAL_P15_T28
 E  BAL_P16_T28
 E  BAL_P17_T28
 E  BAL_P18_T28
 E  BAL_P19_T28
 E  BAL_P20_T28
 E  BAL_P21_T28
 E  BAL_P22_T28
 E  BAL_P23_T28
 E  BAL_P24_T28
 L  CAP_M0_T28
 L  CAP_M1_T28
 L  CAP_M2_T28
 L  CAP_M3_T28
 L  CAP_M4_T28
 L  CAP_M5_T28
 L  CAP_M6_T28
 L  CAP_M7_T28
 L  CAP_M8_T28
 L  CAP_M9_T28
 L  CAP_M10_T28
 L  CAP_M11_T28
 L  STORAGE_T28
 E  BAL_P0_T29
 E  BAL_P1_T29
 E  BAL_P2_T29
 E  BAL_P3_T29
 E  BAL_P4_T29
 E  BAL_P5_T29
 E  BAL_P6_T29
 E  BAL_P7_T29
 E  BAL_P8_T29
 E  BAL_P9_T29
 E  BAL_P10_T29
 E  BAL_P11_T29
 E  BAL_P12_T29
 E  BAL_P13_T29
 E  BAL_P14_T29
 E  BAL_P15_T29
 E  BAL_P16_T29
 E  BAL_P17_T29
 E  BAL_P18_T29
 E  BAL_P19_T29
 E  BAL_P20_T29
 E  BAL_P21_T29
 E  BAL_P22_T29
 E  BAL_P23_T29
 E  BAL_P24_T29
 L  CAP_M0_T29
 L  CAP_M1_T29
 L  CAP_M2_T29
 L  CAP_M3_T29
 L  CAP_M4_T29
 L  CAP_M5_T29
 L  CAP_M6_T29
 L  CAP_M7_T29
 L  CAP_M8_T29
 L  CAP_M9_T29
 L  CAP_M10_T29
 L  CAP_M11_T29
 L  STORAGE_T29
 E  BAL_P0_T30
 E  BAL_P1_T30
 E  BAL_P2_T30
 E  BAL_P3_T30
 E  BAL_P4_T30
 E  BAL_P5_T30
 E  BAL_P6_T30
 E  BAL_P7_T30
 E  BAL_P8_T30
 E  BAL_P9_T30
 E  BAL_P10_T30
 E  BAL_P11_T30
 E  BAL_P12_T30
 E  BAL_P13_T30
 E  BAL_P14_T30
 E  BAL_P15_T30
 E  BAL_P16_T30
 E  BAL_P17_T30
 E  BAL_P18_T30
 E  BAL_P19_T30
 E  BAL_P20_T30
 E  BAL_P21_T30
 E  BAL_P22_T30
 E  BAL_P23_T30
 E  BAL_P24_T30
 L  CAP_M0_T30
 L  CAP_M1_T30
 L  CAP_M2_T30
 L  CAP_M3_T30
 L  CAP_M4_T30
 L  CAP_M5_T30
 L  CAP_M6_T30
 L  CAP_M7_T30
 L  CAP_M8_T30
 L  CAP_M9_T30
 L  CAP_M10_T30
 L  CAP_M11_T30
 L  STORAGE_T30
 E  BAL_P0_T31
 E  BAL_P1_T31
 E  BAL_P2_T31
 E  BAL_P3_T31
 E  BAL_P4_T31
 E  BAL_P5_T31
 E  BAL_P6_T31
 E  BAL_P7_T31
 E  BAL_P8_T31
 E  BAL_P9_T31
 E  BAL_P10_T31
 E  BAL_P11_T31
 E  BAL_P12_T31
 E  BAL_P13_T31
 E  BAL_P14_T31
 E  BAL_P15_T31
 E  BAL_P16_T31
 E  BAL_P17_T31
 E  BAL_P18_T31
 E  BAL_P19_T31
 E  BAL_P20_T31
 E  BAL_P21_T31
 E  BAL_P22_T31
 E  BAL_P23_T31
 E  BAL_P24_T31
 L  CAP_M0_T31
 L  CAP_M1_T31
 L  CAP_M2_T31
 L  CAP_M3_T31
 L  CAP_M4_T31
 L  CAP_M5_T31
 L  CAP_M6_T31
 L  CAP_M7_T31
 L  CAP_M8_T31
 L  CAP_M9_T31
 L  CAP_M10_T31
 L  CAP_M11_T31
 L  STORAGE_T31
 E  BAL_P0_T32
 E  BAL_P1_T32
 E  BAL_P2_T32
 E  BAL_P3_T32
 E  BAL_P4_T32
 E  BAL_P5_T32
 E  BAL_P6_T32
 E  BAL_P7_T32
 E  BAL_P8_T32
 E  BAL_P9_T32
 E  BAL_P10_T32
 E  BAL_P11_T32
 E  BAL_P12_T32
 E  BAL_P13_T32
 E  BAL_P14_T32
 E  BAL_P15_T32
 E  BAL_P16_T32
 E  BAL_P17_T32
 E  BAL_P18_T32
 E  BAL_P19_T32
 E  BAL_P20_T32
 E  BAL_P21_T32
 E  BAL_P22_T32
 E  BAL_P23_T32
 E  BAL_P24_T32
 L  CAP_M0_T32
 L  CAP_M1_T32
 L  CAP_M2_T32
 L  CAP_M3_T32
 L  CAP_M4_T32
 L  CAP_M5_T32
 L  CAP_M6_T32
 L  CAP_M7_T32
 L  CAP_M8_T32
 L  CAP_M9_T32
 L  CAP_M10_T32
 L  CAP_M11_T32
 L  STORAGE_T32
 E  BAL_P0_T33
 E  BAL_P1_T33
 E  BAL_P2_T33
 E  BAL_P3_T33
 E  BAL_P4_T33
 E  BAL_P5_T33
 E  BAL_P6_T33
 E  BAL_P7_T33
 E  BAL_P8_T33
 E  BAL_P9_T33
 E  BAL_P10_T33
 E  BAL_P11_T33
 E  BAL_P12_T33
 E  BAL_P13_T33
 E  BAL_P14_T33
 E  BAL_P15_T33
 E  BAL_P16_T33
 E  BAL_P17_T33
 E  BAL_P18_T33
 E  BAL_P19_T33
 E  BAL_P20_T33
 E  BAL_P21_T33
 E  BAL_P22_T33
 E  BAL_P23_T33
 E  BAL_P24_T33
 L  CAP_M0_T33
 L  CAP_M1_T33
 L  CAP_M2_T33
 L  CAP_M3_T33
 L  CAP_M4_T33
 L  CAP_M5_T33
 L  CAP_M6_T33
 L  CAP_M7_T33
 L  CAP_M8_T33
 L  CAP_M9_T33
 L  CAP_M10_T33
 L  CAP_M11_T33
 L  STORAGE_T33
 E  BAL_P0_T34
 E  BAL_P1_T34
 E  BAL_P2_T34
 E  BAL_P3_T34
 E  BAL_P4_T34
 E  BAL_P5_T34
 E  BAL_P6_T34
 E  BAL_P7_T34
 E  BAL_P8_T34
 E  BAL_P9_T34
 E  BAL_P10_T34
 E  BAL_P11_T34
 E  BAL_P12_T34
 E  BAL_P13_T34
 E  BAL_P14_T34
 E  BAL_P15_T34
 E  BAL_P16_T34
 E  BAL_P17_T34
 E  BAL_P18_T34
 E  BAL_P19_T34
 E  BAL_P20_T34
 E  BAL_P21_T34
 E  BAL_P22_T34
 E  BAL_P23_T34
 E  BAL_P24_T34
 L  CAP_M0_T34
 L  CAP_M1_T34
 L  CAP_M2_T34
 L  CAP_M3_T34
 L  CAP_M4_T34
 L  CAP_M5_T34
 L  CAP_M6_T34
 L  CAP_M7_T34
 L  CAP_M8_T34
 L  CAP_M9_T34
 L  CAP_M10_T34
 L  CAP_M11_T34
 L  STORAGE_T34
 E  BAL_P0_T35
 E  BAL_P1_T35
 E  BAL_P2_T35
 E  BAL_P3_T35
 E  BAL_P4_T35
 E  BAL_P5_T35
 E  BAL_P6_T35
 E  BAL_P7_T35
 E  BAL_P8_T35
 E  BAL_P9_T35
 E  BAL_P10_T35
 E  BAL_P11_T35
 E  BAL_P12_T35
 E  BAL_P13_T35
 E  BAL_P14_T35
 E  BAL_P15_T35
 E  BAL_P16_T35
 E  BAL_P17_T35
 E  BAL_P18_T35
 E  BAL_P19_T35
 E  BAL_P20_T35
 E  BAL_P21_T35
 E  BAL_P22_T35
 E  BAL_P23_T35
 E  BAL_P24_T35
 L  CAP_M0_T35
 L  CAP_M1_T35
 L  CAP_M2_T35
 L  CAP_M3_T35
 L  CAP_M4_T35
 L  CAP_M5_T35
 L  CAP_M6_T35
 L  CAP_M7_T35
 L  CAP_M8_T35
 L  CAP_M9_T35
 L  CAP_M10_T35
 L  CAP_M11_T35
 L  STORAGE_T35
 E  BAL_P0_T36
 E  BAL_P1_T36
 E  BAL_P2_T36
 E  BAL_P3_T36
 E  BAL_P4_T36
 E  BAL_P5_T36
 E  BAL_P6_T36
 E  BAL_P7_T36
 E  BAL_P8_T36
 E  BAL_P9_T36
 E  BAL_P10_T36
 E  BAL_P11_T36
 E  BAL_P12_T36
 E  BAL_P13_T36
 E  BAL_P14_T36
 E  BAL_P15_T36
 E  BAL_P16_T36
 E  BAL_P17_T36
 E  BAL_P18_T36
 E  BAL_P19_T36
 E  BAL_P20_T36
 E  BAL_P21_T36
 E  BAL_P22_T36
 E  BAL_P23_T36
 E  BAL_P24_T36
 L  CAP_M0_T36
 L  CAP_M1_T36
 L  CAP_M2_T36
 L  CAP_M3_T36
 L  CAP_M4_T36
 L  CAP_M5_T36
 L  CAP_M6_T36
 L  CAP_M7_T36
 L  CAP_M8_T36
 L  CAP_M9_T36
 L  CAP_M10_T36
 L  CAP_M11_T36
 L  STORAGE_T36
 E  BAL_P0_T37
 E  BAL_P1_T37
 E  BAL_P2_T37
 E  BAL_P3_T37
 E  BAL_P4_T37
 E  BAL_P5_T37
 E  BAL_P6_T37
 E  BAL_P7_T37
 E  BAL_P8_T37
 E  BAL_P9_T37
 E  BAL_P10_T37
 E  BAL_P11_T37
 E  BAL_P12_T37
 E  BAL_P13_T37
 E  BAL_P14_T37
 E  BAL_P15_T37
 E  BAL_P16_T37
 E  BAL_P17_T37
 E  BAL_P18_T37
 E  BAL_P19_T37
 E  BAL_P20_T37
 E  BAL_P21_T37
 E  BAL_P22_T37
 E  BAL_P23_T37
 E  BAL_P24_T37
 L  CAP_M0_T37
 L  CAP_M1_T37
 L  CAP_M2_T37
 L  CAP_M3_T37
 L  CAP_M4_T37
 L  CAP_M5_T37
 L  CAP_M6_T37
 L  CAP_M7_T37
 L  CAP_M8_T37
 L  CAP_M9_T37
 L  CAP_M10_T37
 L  CAP_M11_T37
 L  STORAGE_T37
 E  BAL_P0_T38
 E  BAL_P1_T38
 E  BAL_P2_T38
 E  BAL_P3_T38
 E  BAL_P4_T38
 E  BAL_P5_T38
 E  BAL_P6_T38
 E  BAL_P7_T38
 E  BAL_P8_T38
 E  BAL_P9_T38
 E  BAL_P10_T38
 E  BAL_P11_T38
 E  BAL_P12_T38
 E  BAL_P13_T38
 E  BAL_P14_T38
 E  BAL_P15_T38
 E  BAL_P16_T38
 E  BAL_P17_T38
 E  BAL_P18_T38
 E  BAL_P19_T38
 E  BAL_P20_T38
 E  BAL_P21_T38
 E  BAL_P22_T38
 E  BAL_P23_T38
 E  BAL_P24_T38
 L  CAP_M0_T38
 L  CAP_M1_T38
 L  CAP_M2_T38
 L  CAP_M3_T38
 L  CAP_M4_T38
 L  CAP_M5_T38
 L  CAP_M6_T38
 L  CAP_M7_T38
 L  CAP_M8_T38
 L  CAP_M9_T38
 L  CAP_M10_T38
 L  CAP_M11_T38
 L  STORAGE_T38
 E  BAL_P0_T39
 E  BAL_P1_T39
 E  BAL_P2_T39
 E  BAL_P3_T39
 E  BAL_P4_T39
 E  BAL_P5_T39
 E  BAL_P6_T39
 E  BAL_P7_T39
 E  BAL_P8_T39
 E  BAL_P9_T39
 E  BAL_P10_T39
 E  BAL_P11_T39
 E  BAL_P12_T39
 E  BAL_P13_T39
 E  BAL_P14_T39
 E  BAL_P15_T39
 E  BAL_P16_T39
 E  BAL_P17_T39
 E  BAL_P18_T39
 E  BAL_P19_T39
 E  BAL_P20_T39
 E  BAL_P21_T39
 E  BAL_P22_T39
 E  BAL_P23_T39
 E  BAL_P24_T39
 L  CAP_M0_T39
 L  CAP_M1_T39
 L  CAP_M2_T39
 L  CAP_M3_T39
 L  CAP_M4_T39
 L  CAP_M5_T39
 L  CAP_M6_T39
 L  CAP_M7_T39
 L  CAP_M8_T39
 L  CAP_M9_T39
 L  CAP_M10_T39
 L  CAP_M11_T39
 L  STORAGE_T39
 E  BAL_P0_T40
 E  BAL_P1_T40
 E  BAL_P2_T40
 E  BAL_P3_T40
 E  BAL_P4_T40
 E  BAL_P5_T40
 E  BAL_P6_T40
 E  BAL_P7_T40
 E  BAL_P8_T40
 E  BAL_P9_T40
 E  BAL_P10_T40
 E  BAL_P11_T40
 E  BAL_P12_T40
 E  BAL_P13_T40
 E  BAL_P14_T40
 E  BAL_P15_T40
 E  BAL_P16_T40
 E  BAL_P17_T40
 E  BAL_P18_T40
 E  BAL_P19_T40
 E  BAL_P20_T40
 E  BAL_P21_T40
 E  BAL_P22_T40
 E  BAL_P23_T40
 E  BAL_P24_T40
 L  CAP_M0_T40
 L  CAP_M1_T40
 L  CAP_M2_T40
 L  CAP_M3_T40
 L  CAP_M4_T40
 L  CAP_M5_T40
 L  CAP_M6_T40
 L  CAP_M7_T40
 L  CAP_M8_T40
 L  CAP_M9_T40
 L  CAP_M10_T40
 L  CAP_M11_T40
 L  STORAGE_T40
 E  BAL_P0_T41
 E  BAL_P1_T41
 E  BAL_P2_T41
 E  BAL_P3_T41
 E  BAL_P4_T41
 E  BAL_P5_T41
 E  BAL_P6_T41
 E  BAL_P7_T41
 E  BAL_P8_T41
 E  BAL_P9_T41
 E  BAL_P10_T41
 E  BAL_P11_T41
 E  BAL_P12_T41
 E  BAL_P13_T41
 E  BAL_P14_T41
 E  BAL_P15_T41
 E  BAL_P16_T41
 E  BAL_P17_T41
 E  BAL_P18_T41
 E  BAL_P19_T41
 E  BAL_P20_T41
 E  BAL_P21_T41
 E  BAL_P22_T41
 E  BAL_P23_T41
 E  BAL_P24_T41
 L  CAP_M0_T41
 L  CAP_M1_T41
 L  CAP_M2_T41
 L  CAP_M3_T41
 L  CAP_M4_T41
 L  CAP_M5_T41
 L  CAP_M6_T41
 L  CAP_M7_T41
 L  CAP_M8_T41
 L  CAP_M9_T41
 L  CAP_M10_T41
 L  CAP_M11_T41
 L  STORAGE_T41
 E  BAL_P0_T42
 E  BAL_P1_T42
 E  BAL_P2_T42
 E  BAL_P3_T42
 E  BAL_P4_T42
 E  BAL_P5_T42
 E  BAL_P6_T42
 E  BAL_P7_T42
 E  BAL_P8_T42
 E  BAL_P9_T42
 E  BAL_P10_T42
 E  BAL_P11_T42
 E  BAL_P12_T42
 E  BAL_P13_T42
 E  BAL_P14_T42
 E  BAL_P15_T42
 E  BAL_P16_T42
 E  BAL_P17_T42
 E  BAL_P18_T42
 E  BAL_P19_T42
 E  BAL_P20_T42
 E  BAL_P21_T42
 E  BAL_P22_T42
 E  BAL_P23_T42
 E  BAL_P24_T42
 L  CAP_M0_T42
 L  CAP_M1_T42
 L  CAP_M2_T42
 L  CAP_M3_T42
 L  CAP_M4_T42
 L  CAP_M5_T42
 L  CAP_M6_T42
 L  CAP_M7_T42
 L  CAP_M8_T42
 L  CAP_M9_T42
 L  CAP_M10_T42
 L  CAP_M11_T42
 L  STORAGE_T42
 E  BAL_P0_T43
 E  BAL_P1_T43
 E  BAL_P2_T43
 E  BAL_P3_T43
 E  BAL_P4_T43
 E  BAL_P5_T43
 E  BAL_P6_T43
 E  BAL_P7_T43
 E  BAL_P8_T43
 E  BAL_P9_T43
 E  BAL_P10_T43
 E  BAL_P11_T43
 E  BAL_P12_T43
 E  BAL_P13_T43
 E  BAL_P14_T43
 E  BAL_P15_T43
 E  BAL_P16_T43
 E  BAL_P17_T43
 E  BAL_P18_T43
 E  BAL_P19_T43
 E  BAL_P20_T43
 E  BAL_P21_T43
 E  BAL_P22_T43
 E  BAL_P23_T43
 E  BAL_P24_T43
 L  CAP_M0_T43
 L  CAP_M1_T43
 L  CAP_M2_T43
 L  CAP_M3_T43
 L  CAP_M4_T43
 L  CAP_M5_T43
 L  CAP_M6_T43
 L  CAP_M7_T43
 L  CAP_M8_T43
 L  CAP_M9_T43
 L  CAP_M10_T43
 L  CAP_M11_T43
 L  STORAGE_T43
 E  BAL_P0_T44
 E  BAL_P1_T44
 E  BAL_P2_T44
 E  BAL_P3_T44
 E  BAL_P4_T44
 E  BAL_P5_T44
 E  BAL_P6_T44
 E  BAL_P7_T44
 E  BAL_P8_T44
 E  BAL_P9_T44
 E  BAL_P10_T44
 E  BAL_P11_T44
 E  BAL_P12_T44
 E  BAL_P13_T44
 E  BAL_P14_T44
 E  BAL_P15_T44
 E  BAL_P16_T44
 E  BAL_P17_T44
 E  BAL_P18_T44
 E  BAL_P19_T44
 E  BAL_P20_T44
 E  BAL_P21_T44
 E  BAL_P22_T44
 E  BAL_P23_T44
 E  BAL_P24_T44
 L  CAP_M0_T44
 L  CAP_M1_T44
 L  CAP_M2_T44
 L  CAP_M3_T44
 L  CAP_M4_T44
 L  CAP_M5_T44
 L  CAP_M6_T44
 L  CAP_M7_T44
 L  CAP_M8_T44
 L  CAP_M9_T44
 L  CAP_M10_T44
 L  CAP_M11_T44
 L  STORAGE_T44
 E  BAL_P0_T45
 E  BAL_P1_T45
 E  BAL_P2_T45
 E  BAL_P3_T45
 E  BAL_P4_T45
 E  BAL_P5_T45
 E  BAL_P6_T45
 E  BAL_P7_T45
 E  BAL_P8_T45
 E  BAL_P9_T45
 E  BAL_P10_T45
 E  BAL_P11_T45
 E  BAL_P12_T45
 E  BAL_P13_T45
 E  BAL_P14_T45
 E  BAL_P15_T45
 E  BAL_P16_T45
 E  BAL_P17_T45
 E  BAL_P18_T45
 E  BAL_P19_T45
 E  BAL_P20_T45
 E  BAL_P21_T45
 E  BAL_P22_T45
 E  BAL_P23_T45
 E  BAL_P24_T45
 L  CAP_M0_T45
 L  CAP_M1_T45
 L  CAP_M2_T45
 L  CAP_M3_T45
 L  CAP_M4_T45
 L  CAP_M5_T45
 L  CAP_M6_T45
 L  CAP_M7_T45
 L  CAP_M8_T45
 L  CAP_M9_T45
 L  CAP_M10_T45
 L  CAP_M11_T45
 L  STORAGE_T45
 E  BAL_P0_T46
 E  BAL_P1_T46
 E  BAL_P2_T46
 E  BAL_P3_T46
 E  BAL_P4_T46
 E  BAL_P5_T46
 E  BAL_P6_T46
 E  BAL_P7_T46
 E  BAL_P8_T46
 E  BAL_P9_T46
 E  BAL_P10_T46
 E  BAL_P11_T46
 E  BAL_P12_T46
 E  BAL_P13_T46
 E  BAL_P14_T46
 E  BAL_P15_T46
 E  BAL_P16_T46
 E  BAL_P17_T46
 E  BAL_P18_T46
 E  BAL_P19_T46
 E  BAL_P20_T46
 E  BAL_P21_T46
 E  BAL_P22_T46
 E  BAL_P23_T46
 E  BAL_P24_T46
 L  CAP_M0_T46
 L  CAP_M1_T46
 L  CAP_M2_T46
 L  CAP_M3_T46
 L  CAP_M4_T46
 L  CAP_M5_T46
 L  CAP_M6_T46
 L  CAP_M7_T46
 L  CAP_M8_T46
 L  CAP_M9_T46
 L  CAP_M10_T46
 L  CAP_M11_T46
 L  STORAGE_T46
 E  BAL_P0_T47
 E  BAL_P1_T47
 E  BAL_P2_T47
 E  BAL_P3_T47
 E  BAL_P4_T47
 E  BAL_P5_T47
 E  BAL_P6_T47
 E  BAL_P7_T47
 E  BAL_P8_T47
 E  BAL_P9_T47
 E  BAL_P10_T47
 E  BAL_P11_T47
 E  BAL_P12_T47
 E  BAL_P13_T47
 E  BAL_P14_T47
 E  BAL_P15_T47
 E  BAL_P16_T47
 E  BAL_P17_T47
 E  BAL_P18_T47
 E  BAL_P19_T47
 E  BAL_P20_T47
 E  BAL_P21_T47
 E  BAL_P22_T47
 E  BAL_P23_T47
 E  BAL_P24_T47
 L  CAP_M0_T47
 L  CAP_M1_T47
 L  CAP_M2_T47
 L  CAP_M3_T47
 L  CAP_M4_T47
 L  CAP_M5_T47
 L  CAP_M6_T47
 L  CAP_M7_T47
 L  CAP_M8_T47
 L  CAP_M9_T47
 L  CAP_M10_T47
 L  CAP_M11_T47
 L  STORAGE_T47
 E  BAL_P0_T48
 E  BAL_P1_T48
 E  BAL_P2_T48
 E  BAL_P3_T48
 E  BAL_P4_T48
 E  BAL_P5_T48
 E  BAL_P6_T48
 E  BAL_P7_T48
 E  BAL_P8_T48
 E  BAL_P9_T48
 E  BAL_P10_T48
 E  BAL_P11_T48
 E  BAL_P12_T48
 E  BAL_P13_T48
 E  BAL_P14_T48
 E  BAL_P15_T48
 E  BAL_P16_T48
 E  BAL_P17_T48
 E  BAL_P18_T48
 E  BAL_P19_T48
 E  BAL_P20_T48
 E  BAL_P21_T48
 E  BAL_P22_T48
 E  BAL_P23_T48
 E  BAL_P24_T48
 L  CAP_M0_T48
 L  CAP_M1_T48
 L  CAP_M2_T48
 L  CAP_M3_T48
 L  CAP_M4_T48
 L  CAP_M5_T48
 L  CAP_M6_T48
 L  CAP_M7_T48
 L  CAP_M8_T48
 L  CAP_M9_T48
 L  CAP_M10_T48
 L  CAP_M11_T48
 L  STORAGE_T48
 E  BAL_P0_T49
 E  BAL_P1_T49
 E  BAL_P2_T49
 E  BAL_P3_T49
 E  BAL_P4_T49
 E  BAL_P5_T49
 E  BAL_P6_T49
 E  BAL_P7_T49
 E  BAL_P8_T49
 E  BAL_P9_T49
 E  BAL_P10_T49
 E  BAL_P11_T49
 E  BAL_P12_T49
 E  BAL_P13_T49
 E  BAL_P14_T49
 E  BAL_P15_T49
 E  BAL_P16_T49
 E  BAL_P17_T49
 E  BAL_P18_T49
 E  BAL_P19_T49
 E  BAL_P20_T49
 E  BAL_P21_T49
 E  BAL_P22_T49
 E  BAL_P23_T49
 E  BAL_P24_T49
 L  CAP_M0_T49
 L  CAP_M1_T49
 L  CAP_M2_T49
 L  CAP_M3_T49
 L  CAP_M4_T49
 L  CAP_M5_T49
 L  CAP_M6_T49
 L  CAP_M7_T49
 L  CAP_M8_T49
 L  CAP_M9_T49
 L  CAP_M10_T49
 L  CAP_M11_T49
 L  STORAGE_T49
COLUMNS
    X_P0_T0   COST      40.2
    X_P0_T0   BAL_P0_T0  1
    X_P0_T0   CAP_M0_T0  1.4
    X_P0_T0   CAP_M1_T0  2.4
    X_P0_T0   CAP_M2_T0  0.5
    X_P0_T0   CAP_M3_T0  1
    X_P0_T0   CAP_M4_T0  1.3
    X_P0_T0   CAP_M5_T0  0.8
    X_P0_T0   CAP_M6_T0  1
    X_P0_T0   CAP_M7_T0  1.7
    X_P0_T0   CAP_M8_T0  0.7
    X_P0_T0   CAP_M9_T0  1.5
    X_P0_T0   CAP_M10_T0  2.4
    X_P0_T0   CAP_M11_T0  0.9
    X_P1_T0   COST      15.5
    X_P1_T0   BAL_P1_T0  1
    X_P1_T0   CAP_M0_T0  1
    X_P1_T0   CAP_M1_T0  2.2
    X_P1_T0   CAP_M2_T0  1
    X_P1_T0   CAP_M3_T0  2.4
    X_P1_T0   CAP_M4_T0  3
    X_P1_T0   CAP_M5_T0  2.2
    X_P1_T0   CAP_M6_T0  2.7
    X_P1_T0   CAP_M7_T0  1.4
    X_P1_T0   CAP_M8_T0  1.9
    X_P1_T0   CAP_M9_T0  0.9
    X_P1_T0   CAP_M10_T0  2.9
    X_P1_T0   CAP_M11_T0  2.2
    X_P2_T0   COST      33
    X_P2_T0   BAL_P2_T0  1
    X_P2_T0   CAP_M0_T0  2.6
    X_P2_T0   CAP_M1_T0  1.4
    X_P2_T0   CAP_M2_T0  0.8
    X_P2_T0   CAP_M3_T0  2.3
    X_P2_T0   CAP_M4_T0  2.5
    X_P2_T0   CAP_M5_T0  1
    X_P2_T0   CAP_M6_T0  1.2
    X_P2_T0   CAP_M7_T0  1
    X_P2_T0   CAP_M8_T0  1.1
    X_P2_T0   CAP_M9_T0  1.9
    X_P2_T0   CAP_M10_T0  3
    X_P2_T0   CAP_M11_T0  0.8
    X_P3_T0   COST      25.6
    X_P3_T0   BAL_P3_T0  1
    X_P3_T0   CAP_M0_T0  1.8
    X_P3_T0   CAP_M1_T0  2.8
    X_P3_T0   CAP_M2_T0  2.1
    X_P3_T0   CAP_M3_T0  1.6
    X_P3_T0   CAP_M4_T0  1.1
    X_P3_T0   CAP_M5_T0  0.7
    X_P3_T0   CAP_M6_T0  2
    X_P3_T0   CAP_M7_T0  2.7
    X_P3_T0   CAP_M8_T0  1.9
    X_P3_T0   CAP_M9_T0  2.6
    X_P3_T0   CAP_M10_T0  2.1
    X_P3_T0   CAP_M11_T0  2.3
    X_P4_T0   COST      37.4
    X_P4_T0   BAL_P4_T0  1
    X_P4_T0   CAP_M0_T0  1.9
    X_P4_T0   CAP_M1_T0  2
    X_P4_T0   CAP_M2_T0  2.5
    X_P4_T0   CAP_M3_T0  2.7
    X_P4_T0   CAP_M4_T0  2.1
    X_P4_T0   CAP_M5_T0  1.2
    X_P4_T0   CAP_M6_T0  1.6
    X_P4_T0   CAP_M7_T0  1.6
    X_P4_T0   CAP_M8_T0  2.1
    X_P4_T0   CAP_M9_T0  1.7
    X_P4_T0   CAP_M10_T0  0.8
    X_P4_T0   CAP_M11_T0  1.6
    X_P5_T0   COST      47.8
    X_P5_T0   BAL_P5_T0  1
    X_P5_T0   CAP_M0_T0  2.1
    X_P5_T0   CAP_M1_T0  0.7
    X_P5_T0   CAP_M2_T0  2.9
    X_P5_T0   CAP_M3_T0  1.3
    X_P5_T0   CAP_M4_T0  2.6
    X_P5_T0   CAP_M5_T0  1.9
    X_P5_T0   CAP_M6_T0  2.4
    X_P5_T0   CAP_M7_T0  1.8
    X_P5_T0   CAP_M8_T0  1.4
    X_P5_T0   CAP_M9_T0  0.7
    X_P5_T0   CAP_M10_T0  0.6
    X_P5_T0   CAP_M11_T0  2.9
    X_P6_T0   COST      11.9
    X_P6_T0   BAL_P6_T0  1
    X_P6_T0   CAP_M0_T0  1.3
    X_P6_T0   CAP_M1_T0  1.8
    X_P6_T0   CAP_M2_T0  2.5
    X_P6_T0   CAP_M3_T0  2.2
    X_P6_T0   CAP_M4_T0  0.7
    X_P6_T0   CAP_M5_T0  1.5
    X_P6_T0   CAP_M6_T0  0.6
    X_P6_T0   CAP_M7_T0  1.9
    X_P6_T0   CAP_M8_T0  1.3
    X_P6_T0   CAP_M9_T0  2.1
    X_P6_T0   CAP_M10_T0  2.4
    X_P6_T0   CAP_M11_T0  1.1
    X_P7_T0   COST      16
    X_P7_T0   BAL_P7_T0  1
    X_P7_T0   CAP_M0_T0  1.1
    X_P7_T0   CAP_M1_T0  2.2
    X_P7_T0   CAP_M2_T0  2.5
    X_P7_T0   CAP_M3_T0  2.9
    X_P7_T0   CAP_M4_T0  1
    X_P7_T0   CAP_M5_T0  2.9
    X_P7_T0   CAP_M6_T0  2.4
    X_P7_T0   CAP_M7_T0  1.6
    X_P7_T0   CAP_M8_T0  1.4
    X_P7_T0   CAP_M9_T0  0.6
    X_P7_T0   CAP_M10_T0  1.6
    X_P7_T0   CAP_M11_T0  1.7
    X_P8_T0   COST      15.8
    X_P8_T0   BAL_P8_T0  1
    X_P8_T0   CAP_M0_T0  1.8
    X_P8_T0   CAP_M1_T0  0.7
    X_P8_T0   CAP_M2_T0  2.7
    X_P8_T0   CAP_M3_T0  2.3
    X_P8_T0   CAP_M4_T0  1.6
    X_P8_T0   CAP_M5_T0  1.3
    X_P8_T0   CAP_M6_T0  2.9
    X_P8_T0   CAP_M7_T0  1.1
    X_P8_T0   CAP_M8_T0  1.5
    X_P8_T0   CAP_M9_T0  2.1
    X_P8_T0   CAP_M10_T0  1.6
    X_P8_T0   CAP_M11_T0  0.7
    X_P9_T0   COST      27.8
    X_P9_T0   BAL_P9_T0  1
    X_P9_T0   CAP_M0_T0  1.3
    X_P9_T0   CAP_M1_T0  2.8
    X_P9_T0   CAP_M2_T0  1.3
    X_P9_T0   CAP_M3_T0  0.6
    X_P9_T0   CAP_M4_T0  1.7
    X_P9_T0   CAP_M5_T0  2.5
    X_P9_T0   CAP_M6_T0  1
    X_P9_T0   CAP_M7_T0  2.5
    X_P9_T0   CAP_M8_T0  2.7
    X_P9_T0   CAP_M9_T0  1.1
    X_P9_T0   CAP_M10_T0  1.8
    X_P9_T0   CAP_M11_T0  2.8
    X_P10_T0  COST      39.8
    X_P10_T0  BAL_P10_T0  1
    X_P10_T0  CAP_M0_T0  0.8
    X_P10_T0  CAP_M1_T0  0.8
    X_P10_T0  CAP_M2_T0  1.3
    X_P10_T0  CAP_M3_T0  0.8
    X_P10_T0  CAP_M4_T0  0.7
    X_P10_T0  CAP_M5_T0  1.7
    X_P10_T0  CAP_M6_T0  1.4
    X_P10_T0  CAP_M7_T0  1.3
    X_P10_T0  CAP_M8_T0  2.9
    X_P10_T0  CAP_M9_T0  1.6
    X_P10_T0  CAP_M10_T0  2.9
    X_P10_T0  CAP_M11_T0  0.7
    X_P11_T0  COST      42.2
    X_P11_T0  BAL_P11_T0  1
    X_P11_T0  CAP_M0_T0  2.4
    X_P11_T0  CAP_M1_T0  1.8
    X_P11_T0  CAP_M2_T0  1.8
    X_P11_T0  CAP_M3_T0  1.5
    X_P11_T0  CAP_M4_T0  2.8
    X_P11_T0  CAP_M5_T0  1.4
    X_P11_T0  CAP_M6_T0  0.7
    X_P11_T0  CAP_M7_T0  0.7
    X_P11_T0  CAP_M8_T0  2
    X_P11_T0  CAP_M9_T0  1.5
    X_P11_T0  CAP_M10_T0  1.7
    X_P11_T0  CAP_M11_T0  2.8
    X_P12_T0  COST      39.7
    X_P12_T0  BAL_P12_T0  1
    X_P12_T0  CAP_M0_T0  2.4
    X_P12_T0  CAP_M1_T0  2.3
    X_P12_T0  CAP_M2_T0  1.7
    X_P12_T0  CAP_M3_T0  2
    X_P12_T0  CAP_M4_T0  1.9
    X_P12_T0  CAP_M5_T0  1.2
    X_P12_T0  CAP_M6_T0  1.7
    X_P12_T0  CAP_M7_T0  1.4
    X_P12_T0  CAP_M8_T0  2
    X_P12_T0  CAP_M9_T0  1.6
    X_P12_T0  CAP_M10_T0  1.3
    X_P12_T0  CAP_M11_T0  2.7
    X_P13_T0  COST      10.8
    X_P13_T0  BAL_P13_T0  1
    X_P13_T0  CAP_M0_T0  2.2
    X_P13_T0  CAP_M1_T0  0.8
    X_P13_T0  CAP_M2_T0  2.7
    X_P13_T0  CAP_M3_T0  2.1
    X_P13_T0  CAP_M4_T0  1.8
    X_P13_T0  CAP_M5_T0  1.2
    X_P13_T0  CAP_M6_T0  1
    X_P13_T0  CAP_M7_T0  1.2
    X_P13_T0  CAP_M8_T0  1.8
    X_P13_T0  CAP_M9_T0  1
    X_P13_T0  CAP_M10_T0  1.3
    X_P13_T0  CAP_M11_T0  1.2
    X_P14_T0  COST      31.5
    X_P14_T0  BAL_P14_T0  1
    X_P14_T0  CAP_M0_T0  1.1
    X_P14_T0  CAP_M1_T0  1.8
    X_P14_T0  CAP_M2_T0  1.9
    X_P14_T0  CAP_M3_T0  1.4
    X_P14_T0  CAP_M4_T0  1.5
    X_P14_T0  CAP_M5_T0  1.9
    X_P14_T0  CAP_M6_T0  2.7
    X_P14_T0  CAP_M7_T0  0.8
    X_P14_T0  CAP_M8_T0  1.7
    X_P14_T0  CAP_M9_T0  2.2
    X_P14_T0  CAP_M10_T0  2.7
    X_P14_T0  CAP_M11_T0  1.2
    X_P15_T0  COST      34.3
    X_P15_T0  BAL_P15_T0  1
    X_P15_T0  CAP_M0_T0  0.8
    X_P15_T0  CAP_M1_T0  0.8
    X_P15_T0  CAP_M2_T0  2.4
    X_P15_T0  CAP_M3_T0  2.3
    X_P15_T0  CAP_M4_T0  1.8
    X_P15_T0  CAP_M5_T0  0.8
    X_P15_T0  CAP_M6_T0  0.8
    X_P15_T0  CAP_M7_T0  1.4
    X_P15_T0  CAP_M8_T0  1.3
    X_P15_T0  CAP_M9_T0  1.8
    X_P15_T0  CAP_M10_T0  2.1
    X_P15_T0  CAP_M11_T0  1.5
    X_P16_T0  COST      36.7
    X_P16_T0  BAL_P16_T0  1
    X_P16_T0  CAP_M0_T0  1.1
    X_P16_T0  CAP_M1_T0  0.5
    X_P16_T0  CAP_M2_T0  1.2
    X_P16_T0  CAP_M3_T0  2.8
    X_P16_T0  CAP_M4_T0  1.1
    X_P16_T0  CAP_M5_T0  1
    X_P16_T0  CAP_M6_T0  1.8
    X_P16_T0  CAP_M7_T0  1.8
    X_P16_T0  CAP_M8_T0  2.5
    X_P16_T0  CAP_M9_T0  1.6
    X_P16_T0  CAP_M10_T0  2.7
    X_P16_T0  CAP_M11_T0  1.3
    X_P17_T0  COST      13.7
    X_P17_T0  BAL_P17_T0  1
    X_P17_T0  CAP_M0_T0  1.8
    X_P17_T0  CAP_M1_T0  2.2
    X_P17_T0  CAP_M2_T0  2.7
    X_P17_T0  CAP_M3_T0  2.2
    X_P17_T0  CAP_M4_T0  1.2
    X_P17_T0  CAP_M5_T0  1.3
    X_P17_T0  CAP_M6_T0  0.7
    X_P17_T0  CAP_M7_T0  1.3
    X_P17_T0  CAP_M8_T0  2.8
    X_P17_T0  CAP_M9_T0  1.4
    X_P17_T0  CAP_M10_T0  2.7
    X_P17_T0  CAP_M11_T0  2.2
    X_P18_T0  COST      29.1
    X_P18_T0  BAL_P18_T0  1
    X_P18_T0  CAP_M0_T0  1.3
    X_P18_T0  CAP_M1_T0  2.9
    X_P18_T0  CAP_M2_T0  1.7
    X_P18_T0  CAP_M3_T0  0.5
    X_P18_T0  CAP_M4_T0  2.4
    X_P18_T0  CAP_M5_T0  2.9
    X_P18_T0  CAP_M6_T0  2.1
    X_P18_T0  CAP_M7_T0  2.7
    X_P18_T0  CAP_M8_T0  1.4
    X_P18_T0  CAP_M9_T0  0.5
    X_P18_T0  CAP_M10_T0  2.1
    X_P18_T0  CAP_M11_T0  1.1
    X_P19_T0  COST      33.8
    X_P19_T0  BAL_P19_T0  1
    X_P19_T0  CAP_M0_T0  2.2
    X_P19_T0  CAP_M1_T0  2.8
    X_P19_T0  CAP_M2_T0  1.6
    X_P19_T0  CAP_M3_T0  2.6
    X_P19_T0  CAP_M4_T0  1.7
    X_P19_T0  CAP_M5_T0  1.3
    X_P19_T0  CAP_M6_T0  1
    X_P19_T0  CAP_M7_T0  1.5
    X_P19_T0  CAP_M8_T0  0.6
    X_P19_T0  CAP_M9_T0  2.8
    X_P19_T0  CAP_M10_T0  0.8
    X_P19_T0  CAP_M11_T0  0.8
    X_P20_T0  COST      44.5
    X_P20_T0  BAL_P20_T0  1
    X_P20_T0  CAP_M0_T0  1.2
    X_P20_T0  CAP_M1_T0  2
    X_P20_T0  CAP_M2_T0  1.4
    X_P20_T0  CAP_M3_T0  2.3
    X_P20_T0  CAP_M4_T0  1.5
    X_P20_T0  CAP_M5_T0  1.6
    X_P20_T0  CAP_M6_T0  2.6
    X_P20_T0  CAP_M7_T0  2.1
    X_P20_T0  CAP_M8_T0  1.2
    X_P20_T0  CAP_M9_T0  1
    X_P20_T0  CAP_M10_T0  2.3
    X_P20_T0  CAP_M11_T0  1.8
    X_P21_T0  COST      29.7
    X_P21_T0  BAL_P21_T0  1
    X_P21_T0  CAP_M0_T0  2.4
    X_P21_T0  CAP_M1_T0  1.9
    X_P21_T0  CAP_M2_T0  2.9
    X_P21_T0  CAP_M3_T0  2.7
    X_P21_T0  CAP_M4_T0  2.7
    X_P21_T0  CAP_M5_T0  1.7
    X_P21_T0  CAP_M6_T0  2.8
    X_P21_T0  CAP_M7_T0  2.5
    X_P21_T0  CAP_M8_T0  3
    X_P21_T0  CAP_M9_T0  2.7
    X_P21_T0  CAP_M10_T0  2.4
    X_P21_T0  CAP_M11_T0  2.4
    X_P22_T0  COST      21.9
    X_P22_T0  BAL_P22_T0  1
    X_P22_T0  CAP_M0_T0  0.6
    X_P22_T0  CAP_M1_T0  2.9
    X_P22_T0  CAP_M2_T0  2.1
    X_P22_T0  CAP_M3_T0  2.1
    X_P22_T0  CAP_M4_T0  2
    X_P22_T0  CAP_M5_T0  2.4
    X_P22_T0  CAP_M6_T0  2.2
    X_P22_T0  CAP_M7_T0  0.7
    X_P22_T0  CAP_M8_T0  0.5
    X_P22_T0  CAP_M9_T0  1.8
    X_P22_T0  CAP_M10_T0  1.1
    X_P22_T0  CAP_M11_T0  2.6
    X_P23_T0  COST      40.6
    X_P23_T0  BAL_P23_T0  1
    X_P23_T0  CAP_M0_T0  2.9
    X_P23_T0  CAP_M1_T0  1.2
    X_P23_T0  CAP_M2_T0  1.8
    X_P23_T0  CAP_M3_T0  1.8
    X_P23_T0  CAP_M4_T0  1.5
    X_P23_T0  CAP_M5_T0  0.5
    X_P23_T0  CAP_M6_T0  2.8
    X_P23_T0  CAP_M7_T0  1.9
    X_P23_T0  CAP_M8_T0  2.2
    X_P23_T0  CAP_M9_T0  2.9
    X_P23_T0  CAP_M10_T0  2.1
    X_P23_T0  CAP_M11_T0  2.2
    X_P24_T0  COST      39.2
    X_P24_T0  BAL_P24_T0  1
    X_P24_T0  CAP_M0_T0  1.1
    X_P24_T0  CAP_M1_T0  2.5
    X_P24_T0  CAP_M2_T0  1.3
    X_P24_T0  CAP_M3_T0  2.8
    X_P24_T0  CAP_M4_T0  1.1
    X_P24_T0  CAP_M5_T0  2
    X_P24_T0  CAP_M6_T0  1.4
    X_P24_T0  CAP_M7_T0  0.5
    X_P24_T0  CAP_M8_T0  1.2
    X_P24_T0  CAP_M9_T0  2.4
    X_P24_T0  CAP_M10_T0  0.6
    X_P24_T0  CAP_M11_T0  1.9
    S_P0_T0   COST      3.6
    S_P0_T0   BAL_P0_T0  -1
    S_P0_T0   STORAGE_T0  1
    S_P0_T0   BAL_P0_T1  1
    S_P1_T0   COST      4.6
    S_P1_T0   BAL_P1_T0  -1
    S_P1_T0   STORAGE_T0  1
    S_P1_T0   BAL_P1_T1  1
    S_P2_T0   COST      2.5
    S_P2_T0   BAL_P2_T0  -1
    S_P2_T0   STORAGE_T0  1
    S_P2_T0   BAL_P2_T1  1
    S_P3_T0   COST      1
    S_P3_T0   BAL_P3_T0  -1
    S_P3_T0   STORAGE_T0  1
    S_P3_T0   BAL_P3_T1  1
    S_P4_T0   COST      3.5
    S_P4_T0   BAL_P4_T0  -1
    S_P4_T0   STORAGE_T0  1
    S_P4_T0   BAL_P4_T1  1
    S_P5_T0   COST      4
    S_P5_T0   BAL_P5_T0  -1
    S_P5_T0   STORAGE_T0  1
    S_P5_T0   BAL_P5_T1  1
    S_P6_T0   COST      1.3
    S_P6_T0   BAL_P6_T0  -1
    S_P6_T0   STORAGE_T0  1
    S_P6_T0   BAL_P6_T1  1
    S_P7_T0   COST      2.7
    S_P7_T0   BAL_P7_T0  -1
    S_P7_T0   STORAGE_T0  1
    S_P7_T0   BAL_P7_T1  1
    S_P8_T0   COST      1.4
    S_P8_T0   BAL_P8_T0  -1
    S_P8_T0   STORAGE_T0  1
    S_P8_T0   BAL_P8_T1  1
    S_P9_T0   COST      4.1
    S_P9_T0   BAL_P9_T0  -1
    S_P9_T0   STORAGE_T0  1
    S_P9_T0   BAL_P9_T1  1
    S_P10_T0  COST      2.3
    S_P10_T0  BAL_P10_T0  -1
    S_P10_T0  STORAGE_T0  1
    S_P10_T0  BAL_P10_T1  1
    S_P11_T0  COST      1.2
    S_P11_T0  BAL_P11_T0  -1
    S_P11_T0  STORAGE_T0  1
    S_P11_T0  BAL_P11_T1  1
    S_P12_T0  COST      2.7
    S_P12_T0  BAL_P12_T0  -1
    S_P12_T0  STORAGE_T0  1
    S_P12_T0  BAL_P12_T1  1
    S_P13_T0  COST      3.8
    S_P13_T0  BAL_P13_T0  -1
    S_P13_T0  STORAGE_T0  1
    S_P13_T0  BAL_P13_T1  1
    S_P14_T0  COST      3
    S_P14_T0  BAL_P14_T0  -1
    S_P14_T0  STORAGE_T0  1
    S_P14_T0  BAL_P14_T1  1
    S_P15_T0  COST      3
    S_P15_T0  BAL_P15_T0  -1
    S_P15_T0  STORAGE_T0  1
    S_P15_T0  BAL_P15_T1  1
    S_P16_T0  COST      2.7
    S_P16_T0  BAL_P16_T0  -1
    S_P16_T0  STORAGE_T0  1
    S_P16_T0  BAL_P16_T1  1
    S_P17_T0  COST      1.3
    S_P17_T0  BAL_P17_T0  -1
    S_P17_T0  STORAGE_T0  1
    S_P17_T0  BAL_P17_T1  1
    S_P18_T0  COST      2.8
    S_P18_T0  BAL_P18_T0  -1
    S_P18_T0  STORAGE_T0  1
    S_P18_T0  BAL_P18_T1  1
    S_P19_T0  COST      3.5
    S_P19_T0  BAL_P19_T0  -1
    S_P19_T0  STORAGE_T0  1
    S_P19_T0  BAL_P19_T1  1
    S_P20_T0  COST      2.9
    S_P20_T0  BAL_P20_T0  -1
    S_P20_T0  STORAGE_T0  1
    S_P20_T0  BAL_P20_T1  1
    S_P21_T0  COST      2.8
    S_P21_T0  BAL_P21_T0  -1
    S_P21_T0  STORAGE_T0  1
    S_P21_T0  BAL_P21_T1  1
    S_P22_T0  COST      3.1
    S_P22_T0  BAL_P22_T0  -1
    S_P22_T0  STORAGE_T0  1
    S_P22_T0  BAL_P22_T1  1
    S_P23_T0  COST      2.2
    S_P23_T0  BAL_P23_T0  -1
    S_P23_T0  STORAGE_T0  1
    S_P23_T0  BAL_P23_T1  1
    S_P24_T0  COST      3.6
    S_P24_T0  BAL_P24_T0  -1
    S_P24_T0  STORAGE_T0  1
    S_P24_T0  BAL_P24_T1  1
    X_P0_T1   COST      41.5
    X_P0_T1   BAL_P0_T1  1
    X_P0_T1   CAP_M0_T1  1.4
    X_P0_T1   CAP_M1_T1  2.4
    X_P0_T1   CAP_M2_T1  0.5
    X_P0_T1   CAP_M3_T1  1
    X_P0_T1   CAP_M4_T1  1.3
    X_P0_T1   CAP_M5_T1  0.8
    X_P0_T1   CAP_M6_T1  1
    X_P0_T1   CAP_M7_T1  1.7
    X_P0_T1   CAP_M8_T1  0.7
    X_P0_T1   CAP_M9_T1  1.5
    X_P0_T1   CAP_M10_T1  2.4
    X_P0_T1   CAP_M11_T1  0.9
    X_P1_T1   COST      26.1
    X_P1_T1   BAL_P1_T1  1
    X_P1_T1   CAP_M0_T1  1
    X_P1_T1   CAP_M1_T1  2.2
    X_P1_T1   CAP_M2_T1  1
    X_P1_T1   CAP_M3_T1  2.4
    X_P1_T1   CAP_M4_T1  3
    X_P1_T1   CAP_M5_T1  2.2
    X_P1_T1   CAP_M6_T1  2.7
    X_P1_T1   CAP_M7_T1  1.4
    X_P1_T1   CAP_M8_T1  1.9
    X_P1_T1   CAP_M9_T1  0.9
    X_P1_T1   CAP_M10_T1  2.9
    X_P1_T1   CAP_M11_T1  2.2
    X_P2_T1   COST      22
    X_P2_T1   BAL_P2_T1  1
    X_P2_T1   CAP_M0_T1  2.6
    X_P2_T1   CAP_M1_T1  1.4
    X_P2_T1   CAP_M2_T1  0.8
    X_P2_T1   CAP_M3_T1  2.3
    X_P2_T1   CAP_M4_T1  2.5
    X_P2_T1   CAP_M5_T1  1
    X_P2_T1   CAP_M6_T1  1.2
    X_P2_T1   CAP_M7_T1  1
    X_P2_T1   CAP_M8_T1  1.1
    X_P2_T1   CAP_M9_T1  1.9
    X_P2_T1   CAP_M10_T1  3
    X_P2_T1   CAP_M11_T1  0.8
    X_P3_T1   COST      24.1
    X_P3_T1   BAL_P3_T1  1
    X_P3_T1   CAP_M0_T1  1.8
    X_P3_T1   CAP_M1_T1  2.8
    X_P3_T1   CAP_M2_T1  2.1
    X_P3_T1   CAP_M3_T1  1.6
    X_P3_T1   CAP_M4_T1  1.1
    X_P3_T1   CAP_M5_T1  0.7
    X_P3_T1   CAP_M6_T1  2
    X_P3_T1   CAP_M7_T1  2.7
    X_P3_T1   CAP_M8_T1  1.9
    X_P3_T1   CAP_M9_T1  2.6
    X_P3_T1   CAP_M10_T1  2.1
    X_P3_T1   CAP_M11_T1  2.3
    X_P4_T1   COST      33.7
    X_P4_T1   BAL_P4_T1  1
    X_P4_T1   CAP_M0_T1  1.9
    X_P4_T1   CAP_M1_T1  2
    X_P4_T1   CAP_M2_T1  2.5
    X_P4_T1   CAP_M3_T1  2.7
    X_P4_T1   CAP_M4_T1  2.1
    X_P4_T1   CAP_M5_T1  1.2
    X_P4_T1   CAP_M6_T1  1.6
    X_P4_T1   CAP_M7_T1  1.6
    X_P4_T1   CAP_M8_T1  2.1
    X_P4_T1   CAP_M9_T1  1.7
    X_P4_T1   CAP_M10_T1  0.8
    X_P4_T1   CAP_M11_T1  1.6
    X_P5_T1   COST      12.4
    X_P5_T1   BAL_P5_T1  1
    X_P5_T1   CAP_M0_T1  2.1
    X_P5_T1   CAP_M1_T1  0.7
    X_P5_T1   CAP_M2_T1  2.9
    X_P5_T1   CAP_M3_T1  1.3
    X_P5_T1   CAP_M4_T1  2.6
    X_P5_T1   CAP_M5_T1  1.9
    X_P5_T1   CAP_M6_T1  2.4
    X_P5_T1   CAP_M7_T1  1.8
    X_P5_T1   CAP_M8_T1  1.4
    X_P5_T1   CAP_M9_T1  0.7
    X_P5_T1   CAP_M10_T1  0.6
    X_P5_T1   CAP_M11_T1  2.9
    X_P6_T1   COST      34.5
    X_P6_T1   BAL_P6_T1  1
    X_P6_T1   CAP_M0_T1  1.3
    X_P6_T1   CAP_M1_T1  1.8
    X_P6_T1   CAP_M2_T1  2.5
    X_P6_T1   CAP_M3_T1  2.2
    X_P6_T1   CAP_M4_T1  0.7
    X_P6_T1   CAP_M5_T1  1.5
    X_P6_T1   CAP_M6_T1  0.6
    X_P6_T1   CAP_M7_T1  1.9
    X_P6_T1   CAP_M8_T1  1.3
    X_P6_T1   CAP_M9_T1  2.1
    X_P6_T1   CAP_M10_T1  2.4
    X_P6_T1   CAP_M11_T1  1.1
    X_P7_T1   COST      39.6
    X_P7_T1   BAL_P7_T1  1
    X_P7_T1   CAP_M0_T1  1.1
    X_P7_T1   CAP_M1_T1  2.2
    X_P7_T1   CAP_M2_T1  2.5
    X_P7_T1   CAP_M3_T1  2.9
    X_P7_T1   CAP_M4_T1  1
    X_P7_T1   CAP_M5_T1  2.9
    X_P7_T1   CAP_M6_T1  2.4
    X_P7_T1   CAP_M7_T1  1.6
    X_P7_T1   CAP_M8_T1  1.4
    X_P7_T1   CAP_M9_T1  0.6
    X_P7_T1   CAP_M10_T1  1.6
    X_P7_T1   CAP_M11_T1  1.7
    X_P8_T1   COST      15
    X_P8_T1   BAL_P8_T1  1
    X_P8_T1   CAP_M0_T1  1.8
    X_P8_T1   CAP_M1_T1  0.7
    X_P8_T1   CAP_M2_T1  2.7
    X_P8_T1   CAP_M3_T1  2.3
    X_P8_T1   CAP_M4_T1  1.6
    X_P8_T1   CAP_M5_T1  1.3
    X_P8_T1   CAP_M6_T1  2.9
    X_P8_T1   CAP_M7_T1  1.1
    X_P8_T1   CAP_M8_T1  1.5
    X_P8_T1   CAP_M9_T1  2.1
    X_P8_T1   CAP_M10_T1  1.6
    X_P8_T1   CAP_M11_T1  0.7
    X_P9_T1   COST      13.7
    X_P9_T1   BAL_P9_T1  1
    X_P9_T1   CAP_M0_T1  1.3
    X_P9_T1   CAP_M1_T1  2.8
    X_P9_T1   CAP_M2_T1  1.3
    X_P9_T1   CAP_M3_T1  0.6
    X_P9_T1   CAP_M4_T1  1.7
    X_P9_T1   CAP_M5_T1  2.5
    X_P9_T1   CAP_M6_T1  1
    X_P9_T1   CAP_M7_T1  2.5
    X_P9_T1   CAP_M8_T1  2.7
    X_P9_T1   CAP_M9_T1  1.1
    X_P9_T1   CAP_M10_T1  1.8
    X_P9_T1   CAP_M11_T1  2.8
    X_P10_T1  COST      14.5
    X_P10_T1  BAL_P10_T1  1
    X_P10_T1  CAP_M0_T1  0.8
    X_P10_T1  CAP_M1_T1  0.8
    X_P10_T1  CAP_M2_T1  1.3
    X_P10_T1  CAP_M3_T1  0.8
    X_P10_T1  CAP_M4_T1  0.7
    X_P10_T1  CAP_M5_T1  1.7
    X_P10_T1  CAP_M6_T1  1.4
    X_P10_T1  CAP_M7_T1  1.3
    X_P10_T1  CAP_M8_T1  2.9
    X_P10_T1  CAP_M9_T1  1.6
    X_P10_T1  CAP_M10_T1  2.9
    X_P10_T1  CAP_M11_T1  0.7
    X_P11_T1  COST      38.8
    X_P11_T1  BAL_P11_T1  1
    X_P11_T1  CAP_M0_T1  2.4
    X_P11_T1  CAP_M1_T1  1.8
    X_P11_T1  CAP_M2_T1  1.8
    X_P11_T1  CAP_M3_T1  1.5
    X_P11_T1  CAP_M4_T1  2.8
    X_P11_T1  CAP_M5_T1  1.4
    X_P11_T1  CAP_M6_T1  0.7
    X_P11_T1  CAP_M7_T1  0.7
    X_P11_T1  CAP_M8_T1  2
    X_P11_T1  CAP_M9_T1  1.5
    X_P11_T1  CAP_M10_T1  1.7
    X_P11_T1  CAP_M11_T1  2.8
    X_P12_T1  COST      40.8
    X_P12_T1  BAL_P12_T1  1
    X_P12_T1  CAP_M0_T1  2.4
    X_P12_T1  CAP_M1_T1  2.3
    X_P12_T1  CAP_M2_T1  1.7
    X_P12_T1  CAP_M3_T1  2
    X_P12_T1  CAP_M4_T1  1.9
    X_P12_T1  CAP_M5_T1  1.2
    X_P12_T1  CAP_M6_T1  1.7
    X_P12_T1  CAP_M7_T1  1.4
    X_P12_T1  CAP_M8_T1  2
    X_P12_T1  CAP_M9_T1  1.6
    X_P12_T1  CAP_M10_T1  1.3
    X_P12_T1  CAP_M11_T1  2.7
    X_P13_T1  COST      25.6
    X_P13_T1  BAL_P13_T1  1
    X_P13_T1  CAP_M0_T1  2.2
    X_P13_T1  CAP_M1_T1  0.8
    X_P13_T1  CAP_M2_T1  2.7
    X_P13_T1  CAP_M3_T1  2.1
    X_P13_T1  CAP_M4_T1  1.8
    X_P13_T1  CAP_M5_T1  1.2
    X_P13_T1  CAP_M6_T1  1
    X_P13_T1  CAP_M7_T1  1.2
    X_P13_T1  CAP_M8_T1  1.8
    X_P13_T1  CAP_M9_T1  1
    X_P13_T1  CAP_M10_T1  1.3
    X_P13_T1  CAP_M11_T1  1.2
    X_P14_T1  COST      40.6
    X_P14_T1  BAL_P14_T1  1
    X_P14_T1  CAP_M0_T1  1.1
    X_P14_T1  CAP_M1_T1  1.8
    X_P14_T1  CAP_M2_T1  1.9
    X_P14_T1  CAP_M3_T1  1.4
    X_P14_T1  CAP_M4_T1  1.5
    X_P14_T1  CAP_M5_T1  1.9
    X_P14_T1  CAP_M6_T1  2.7
    X_P14_T1  CAP_M7_T1  0.8
    X_P14_T1  CAP_M8_T1  1.7
    X_P14_T1  CAP_M9_T1  2.2
    X_P14_T1  CAP_M10_T1  2.7
    X_P14_T1  CAP_M11_T1  1.2
    X_P15_T1  COST      12.6
    X_P15_T1  BAL_P15_T1  1
    X_P15_T1  CAP_M0_T1  0.8
    X_P15_T1  CAP_M1_T1  0.8
    X_P15_T1  CAP_M2_T1  2.4
    X_P15_T1  CAP_M3_T1  2.3
    X_P15_T1  CAP_M4_T1  1.8
    X_P15_T1  CAP_M5_T1  0.8
    X_P15_T1  CAP_M6_T1  0.8
    X_P15_T1  CAP_M7_T1  1.4
    X_P15_T1  CAP_M8_T1  1.3
    X_P15_T1  CAP_M9_T1  1.8
    X_P15_T1  CAP_M10_T1  2.1
    X_P15_T1  CAP_M11_T1  1.5
    X_P16_T1  COST      26.7
    X_P16_T1  BAL_P16_T1  1
    X_P16_T1  CAP_M0_T1  1.1
    X_P16_T1  CAP_M1_T1  0.5
    X_P16_T1  CAP_M2_T1  1.2
    X_P16_T1  CAP_M3_T1  2.8
    X_P16_T1  CAP_M4_T1  1.1
    X_P16_T1  CAP_M5_T1  1
    X_P16_T1  CAP_M6_T1  1.8
    X_P16_T1  CAP_M7_T1  1.8
    X_P16_T1  CAP_M8_T1  2.5
    X_P16_T1  CAP_M9_T1  1.6
    X_P16_T1  CAP_M10_T1  2.7
    X_P16_T1  CAP_M11_T1  1.3
    X_P17_T1  COST      29.4
    X_P17_T1  BAL_P17_T1  1
    X_P17_T1  CAP_M0_T1  1.8
    X_P17_T1  CAP_M1_T1  2.2
    X_P17_T1  CAP_M2_T1  2.7
    X_P17_T1  CAP_M3_T1  2.2
    X_P17_T1  CAP_M4_T1  1.2
    X_P17_T1  CAP_M5_T1  1.3
    X_P17_T1  CAP_M6_T1  0.7
    X_P17_T1  CAP_M7_T1  1.3
    X_P17_T1  CAP_M8_T1  2.8
    X_P17_T1  CAP_M9_T1  1.4
    X_P17_T1  CAP_M10_T1  2.7
    X_P17_T1  CAP_M11_T1  2.2
    X_P18_T1  COST      27.1
    X_P18_T1  BAL_P18_T1  1
    X_P18_T1  CAP_M0_T1  1.3
    X_P18_T1  CAP_M1_T1  2.9
    X_P18_T1  CAP_M2_T1  1.7
    X_P18_T1  CAP_M3_T1  0.5
    X_P18_T1  CAP_M4_T1  2.4
    X_P18_T1  CAP_M5_T1  2.9
    X_P18_T1  CAP_M6_T1  2.1
    X_P18_T1  CAP_M7_T1  2.7
    X_P18_T1  CAP_M8_T1  1.4
    X_P18_T1  CAP_M9_T1  0.5
    X_P18_T1  CAP_M10_T1  2.1
    X_P18_T1  CAP_M11_T1  1.1
    X_P19_T1  COST      41.7
    X_P19_T1  BAL_P19_T1  1
    X_P19_T1  CAP_M0_T1  2.2
    X_P19_T1  CAP_M1_T1  2.8
    X_P19_T1  CAP_M2_T1  1.6
    X_P19_T1  CAP_M3_T1  2.6
    X_P19_T1  CAP_M4_T1  1.7
    X_P19_T1  CAP_M5_T1  1.3
    X_P19_T1  CAP_M6_T1  1
    X_P19_T1  CAP_M7_T1  1.5
    X_P19_T1  CAP_M8_T1  0.6
    X_P19_T1  CAP_M9_T1  2.8
    X_P19_T1  CAP_M10_T1  0.8
    X_P19_T1  CAP_M11_T1  0.8
    X_P20_T1  COST      11.1
    X_P20_T1  BAL_P20_T1  1
    X_P20_T1  CAP_M0_T1  1.2
    X_P20_T1  CAP_M1_T1  2
    X_P20_T1  CAP_M2_T1  1.4
    X_P20_T1  CAP_M3_T1  2.3
    X_P20_T1  CAP_M4_T1  1.5
    X_P20_T1  CAP_M5_T1  1.6
    X_P20_T1  CAP_M6_T1  2.6
    X_P20_T1  CAP_M7_T1  2.1
    X_P20_T1  CAP_M8_T1  1.2
    X_P20_T1  CAP_M9_T1  1
    X_P20_T1  CAP_M10_T1  2.3
    X_P20_T1  CAP_M11_T1  1.8
    X_P21_T1  COST      18.3
    X_P21_T1  BAL_P21_T1  1
    X_P21_T1  CAP_M0_T1  2.4
    X_P21_T1  CAP_M1_T1  1.9
    X_P21_T1  CAP_M2_T1  2.9
    X_P21_T1  CAP_M3_T1  2.7
    X_P21_T1  CAP_M4_T1  2.7
    X_P21_T1  CAP_M5_T1  1.7
    X_P21_T1  CAP_M6_T1  2.8
    X_P21_T1  CAP_M7_T1  2.5
    X_P21_T1  CAP_M8_T1  3
    X_P21_T1  CAP_M9_T1  2.7
    X_P21_T1  CAP_M10_T1  2.4
    X_P21_T1  CAP_M11_T1  2.4
    X_P22_T1  COST      23.3
    X_P22_T1  BAL_P22_T1  1
    X_P22_T1  CAP_M0_T1  0.6
    X_P22_T1  CAP_M1_T1  2.9
    X_P22_T1  CAP_M2_T1  2.1
    X_P22_T1  CAP_M3_T1  2.1
    X_P22_T1  CAP_M4_T1  2
    X_P22_T1  CAP_M5_T1  2.4
    X_P22_T1  CAP_M6_T1  2.2
    X_P22_T1  CAP_M7_T1  0.7
    X_P22_T1  CAP_M8_T1  0.5
    X_P22_T1  CAP_M9_T1  1.8
    X_P22_T1  CAP_M10_T1  1.1
    X_P22_T1  CAP_M11_T1  2.6
    X_P23_T1  COST      23.5
    X_P23_T1  BAL_P23_T1  1
    X_P23_T1  CAP_M0_T1  2.9
    X_P23_T1  CAP_M1_T1  1.2
    X_P23_T1  CAP_M2_T1  1.8
    X_P23_T1  CAP_M3_T1  1.8
    X_P23_T1  CAP_M4_T1  1.5
    X_P23_T1  CAP_M5_T1  0.5
    X_P23_T1  CAP_M6_T1  2.8
    X_P23_T1  CAP_M7_T1  1.9
    X_P23_T1  CAP_M8_T1  2.2
    X_P23_T1  CAP_M9_T1  2.9
    X_P23_T1  CAP_M10_T1  2.1
    X_P23_T1  CAP_M11_T1  2.2
    X_P24_T1  COST      36.1
    X_P24_T1  BAL_P24_T1  1
    X_P24_T1  CAP_M0_T1  1.1
    X_P24_T1  CAP_M1_T1  2.5
    X_P24_T1  CAP_M2_T1  1.3
    X_P24_T1  CAP_M3_T1  2.8
    X_P24_T1  CAP_M4_T1  1.1
    X_P24_T1  CAP_M5_T1  2
    X_P24_T1  CAP_M6_T1  1.4
    X_P24_T1  CAP_M7_T1  0.5
    X_P24_T1  CAP_M8_T1  1.2
    X_P24_T1  CAP_M9_T1  2.4
    X_P24_T1  CAP_M10_T1  0.6
    X_P24_T1  CAP_M11_T1  1.9
    S_P0_T1   COST      3.6
    S_P0_T1   BAL_P0_T1  -1
    S_P0_T1   STORAGE_T1  1
    S_P0_T1   BAL_P0_T2  1
    S_P1_T1   COST      4.7
    S_P1_T1   BAL_P1_T1  -1
    S_P1_T1   STORAGE_T1  1
    S_P1_T1   BAL_P1_T2  1
    S_P2_T1   COST      4
    S_P2_T1   BAL_P2_T1  -1
    S_P2_T1   STORAGE_T1  1
    S_P2_T1   BAL_P2_T2  1
    S_P3_T1   COST      1.6
    S_P3_T1   BAL_P3_T1  -1
    S_P3_T1   STORAGE_T1  1
    S_P3_T1   BAL_P3_T2  1
    S_P4_T1   COST      3.1
    S_P4_T1   BAL_P4_T1  -1
    S_P4_T1   STORAGE_T1  1
    S_P4_T1   BAL_P4_T2  1
    S_P5_T1   COST      2.5
    S_P5_T1   BAL_P5_T1  -1
    S_P5_T1   STORAGE_T1  1
    S_P5_T1   BAL_P5_T2  1
    S_P6_T1   COST      2.6
    S_P6_T1   BAL_P6_T1  -1
    S_P6_T1   STORAGE_T1  1
    S_P6_T1   BAL_P6_T2  1
    S_P7_T1   COST      1.9
    S_P7_T1   BAL_P7_T1  -1
    S_P7_T1   STORAGE_T1  1
    S_P7_T1   BAL_P7_T2  1
    S_P8_T1   COST      4.2
    S_P8_T1   BAL_P8_T1  -1
    S_P8_T1   STORAGE_T1  1
    S_P8_T1   BAL_P8_T2  1
    S_P9_T1   COST      4.6
    S_P9_T1   BAL_P9_T1  -1
    S_P9_T1   STORAGE_T1  1
    S_P9_T1   BAL_P9_T2  1
    S_P10_T1  COST      3.8
    S_P10_T1  BAL_P10_T1  -1
    S_P10_T1  STORAGE_T1  1
    S_P10_T1  BAL_P10_T2  1
    S_P11_T1  COST      3.4
    S_P11_T1  BAL_P11_T1  -1
    S_P11_T1  STORAGE_T1  1
    S_P11_T1  BAL_P11_T2  1
    S_P12_T1  COST      4.7
    S_P12_T1  BAL_P12_T1  -1
    S_P12_T1  STORAGE_T1  1
    S_P12_T1  BAL_P12_T2  1
    S_P13_T1  COST      2.5
    S_P13_T1  BAL_P13_T1  -1
    S_P13_T1  STORAGE_T1  1
    S_P13_T1  BAL_P13_T2  1
    S_P14_T1  COST      3.6
    S_P14_T1  BAL_P14_T1  -1
    S_P14_T1  STORAGE_T1  1
    S_P14_T1  BAL_P14_T2  1
    S_P15_T1  COST      2.3
    S_P15_T1  BAL_P15_T1  -1
    S_P15_T1  STORAGE_T1  1
    S_P15_T1  BAL_P15_T2  1
    S_P16_T1  COST      1.6
    S_P16_T1  BAL_P16_T1  -1
    S_P16_T1  STORAGE_T1  1
    S_P16_T1  BAL_P16_T2  1
    S_P17_T1  COST      2.2
    S_P17_T1  BAL_P17_T1  -1
    S_P17_T1  STORAGE_T1  1
    S_P17_T1  BAL_P17_T2  1
    S_P18_T1  COST      1.3
    S_P18_T1  BAL_P18_T1  -1
    S_P18_T1  STORAGE_T1  1
    S_P18_T1  BAL_P18_T2  1
    S_P19_T1  COST      4.6
    S_P19_T1  BAL_P19_T1  -1
    S_P19_T1  STORAGE_T1  1
    S_P19_T1  BAL_P19_T2  1
    S_P20_T1  COST      4
    S_P20_T1  BAL_P20_T1  -1
    S_P20_T1  STORAGE_T1  1
    S_P20_T1  BAL_P20_T2  1
    S_P21_T1  COST      3.5
    S_P21_T1  BAL_P21_T1  -1
    S_P21_T1  STORAGE_T1  1
    S_P21_T1  BAL_P21_T2  1
    S_P22_T1  COST      2.4
    S_P22_T1  BAL_P22_T1  -1
    S_P22_T1  STORAGE_T1  1
    S_P22_T1  BAL_P22_T2  1
    S_P23_T1  COST      4
    S_P23_T1  BAL_P23_T1  -1
    S_P23_T1  STORAGE_T1  1
    S_P23_T1  BAL_P23_T2  1
    S_P24_T1  COST      1.3
    S_P24_T1  BAL_P24_T1  -1
    S_P24_T1  STORAGE_T1  1
    S_P24_T1  BAL_P24_T2  1
    X_P0_T2   COST      24.3
    X_P0_T2   BAL_P0_T2  1
    X_P0_T2   CAP_M0_T2  1.4
    X_P0_T2   CAP_M1_T2  2.4
    X_P0_T2   CAP_M2_T2  0.5
    X_P0_T2   CAP_M3_T2  1
    X_P0_T2   CAP_M4_T2  1.3
    X_P0_T2   CAP_M5_T2  0.8
    X_P0_T2   CAP_M6_T2  1
    X_P0_T2   CAP_M7_T2  1.7
    X_P0_T2   CAP_M8_T2  0.7
    X_P0_T2   CAP_M9_T2  1.5
    X_P0_T2   CAP_M10_T2  2.4
    X_P0_T2   CAP_M11_T2  0.9
    X_P1_T2   COST      38.9
    X_P1_T2   BAL_P1_T2  1
    X_P1_T2   CAP_M0_T2  1
    X_P1_T2   CAP_M1_T2  2.2
    X_P1_T2   CAP_M2_T2  1
    X_P1_T2   CAP_M3_T2  2.4
    X_P1_T2   CAP_M4_T2  3
    X_P1_T2   CAP_M5_T2  2.2
    X_P1_T2   CAP_M6_T2  2.7
    X_P1_T2   CAP_M7_T2  1.4
    X_P1_T2   CAP_M8_T2  1.9
    X_P1_T2   CAP_M9_T2  0.9
    X_P1_T2   CAP_M10_T2  2.9
    X_P1_T2   CAP_M11_T2  2.2
    X_P2_T2   COST      25.9
    X_P2_T2   BAL_P2_T2  1
    X_P2_T2   CAP_M0_T2  2.6
    X_P2_T2   CAP_M1_T2  1.4
    X_P2_T2   CAP_M2_T2  0.8
    X_P2_T2   CAP_M3_T2  2.3
    X_P2_T2   CAP_M4_T2  2.5
    X_P2_T2   CAP_M5_T2  1
    X_P2_T2   CAP_M6_T2  1.2
    X_P2_T2   CAP_M7_T2  1
    X_P2_T2   CAP_M8_T2  1.1
    X_P2_T2   CAP_M9_T2  1.9
    X_P2_T2   CAP_M10_T2  3
    X_P2_T2   CAP_M11_T2  0.8
    X_P3_T2   COST      24
    X_P3_T2   BAL_P3_T2  1
    X_P3_T2   CAP_M0_T2  1.8
    X_P3_T2   CAP_M1_T2  2.8
    X_P3_T2   CAP_M2_T2  2.1
    X_P3_T2   CAP_M3_T2  1.6
    X_P3_T2   CAP_M4_T2  1.1
    X_P3_T2   CAP_M5_T2  0.7
    X_P3_T2   CAP_M6_T2  2
    X_P3_T2   CAP_M7_T2  2.7
    X_P3_T2   CAP_M8_T2  1.9
    X_P3_T2   CAP_M9_T2  2.6
    X_P3_T2   CAP_M10_T2  2.1
    X_P3_T2   CAP_M11_T2  2.3
    X_P4_T2   COST      19.3
    X_P4_T2   BAL_P4_T2  1
    X_P4_T2   CAP_M0_T2  1.9
    X_P4_T2   CAP_M1_T2  2
    X_P4_T2   CAP_M2_T2  2.5
    X_P4_T2   CAP_M3_T2  2.7
    X_P4_T2   CAP_M4_T2  2.1
    X_P4_T2   CAP_M5_T2  1.2
    X_P4_T2   CAP_M6_T2  1.6
    X_P4_T2   CAP_M7_T2  1.6
    X_P4_T2   CAP_M8_T2  2.1
    X_P4_T2   CAP_M9_T2  1.7
    X_P4_T2   CAP_M10_T2  0.8
    X_P4_T2   CAP_M11_T2  1.6
    X_P5_T2   COST      18.7
    X_P5_T2   BAL_P5_T2  1
    X_P5_T2   CAP_M0_T2  2.1
    X_P5_T2   CAP_M1_T2  0.7
    X_P5_T2   CAP_M2_T2  2.9
    X_P5_T2   CAP_M3_T2  1.3
    X_P5_T2   CAP_M4_T2  2.6
    X_P5_T2   CAP_M5_T2  1.9
    X_P5_T2   CAP_M6_T2  2.4
    X_P5_T2   CAP_M7_T2  1.8
    X_P5_T2   CAP_M8_T2  1.4
    X_P5_T2   CAP_M9_T2  0.7
    X_P5_T2   CAP_M10_T2  0.6
    X_P5_T2   CAP_M11_T2  2.9
    X_P6_T2   COST      46.1
    X_P6_T2   BAL_P6_T2  1
    X_P6_T2   CAP_M0_T2  1.3
    X_P6_T2   CAP_M1_T2  1.8
    X_P6_T2   CAP_M2_T2  2.5
    X_P6_T2   CAP_M3_T2  2.2
    X_P6_T2   CAP_M4_T2  0.7
    X_P6_T2   CAP_M5_T2  1.5
    X_P6_T2   CAP_M6_T2  0.6
    X_P6_T2   CAP_M7_T2  1.9
    X_P6_T2   CAP_M8_T2  1.3
    X_P6_T2   CAP_M9_T2  2.1
    X_P6_T2   CAP_M10_T2  2.4
    X_P6_T2   CAP_M11_T2  1.1
    X_P7_T2   COST      21.6
    X_P7_T2   BAL_P7_T2  1
    X_P7_T2   CAP_M0_T2  1.1
    X_P7_T2   CAP_M1_T2  2.2
    X_P7_T2   CAP_M2_T2  2.5
    X_P7_T2   CAP_M3_T2  2.9
    X_P7_T2   CAP_M4_T2  1
    X_P7_T2   CAP_M5_T2  2.9
    X_P7_T2   CAP_M6_T2  2.4
    X_P7_T2   CAP_M7_T2  1.6
    X_P7_T2   CAP_M8_T2  1.4
    X_P7_T2   CAP_M9_T2  0.6
    X_P7_T2   CAP_M10_T2  1.6
    X_P7_T2   CAP_M11_T2  1.7
    X_P8_T2   COST      21.6
    X_P8_T2   BAL_P8_T2  1
    X_P8_T2   CAP_M0_T2  1.8
    X_P8_T2   CAP_M1_T2  0.7
    X_P8_T2   CAP_M2_T2  2.7
    X_P8_T2   CAP_M3_T2  2.3
    X_P8_T2   CAP_M4_T2  1.6
    X_P8_T2   CAP_M5_T2  1.3
    X_P8_T2   CAP_M6_T2  2.9
    X_P8_T2   CAP_M7_T2  1.1
    X_P8_T2   CAP_M8_T2  1.5
    X_P8_T2   CAP_M9_T2  2.1
    X_P8_T2   CAP_M10_T2  1.6
    X_P8_T2   CAP_M11_T2  0.7
    X_P9_T2   COST      12.5
    X_P9_T2   BAL_P9_T2  1
    X_P9_T2   CAP_M0_T2  1.3
    X_P9_T2   CAP_M1_T2  2.8
    X_P9_T2   CAP_M2_T2  1.3
    X_P9_T2   CAP_M3_T2  0.6
    X_P9_T2   CAP_M4_T2  1.7
    X_P9_T2   CAP_M5_T2  2.5
    X_P9_T2   CAP_M6_T2  1
    X_P9_T2   CAP_M7_T2  2.5
    X_P9_T2   CAP_M8_T2  2.7
    X_P9_T2   CAP_M9_T2  1.1
    X_P9_T2   CAP_M10_T2  1.8
    X_P9_T2   CAP_M11_T2  2.8
    X_P10_T2  COST      40.5
    X_P10_T2  BAL_P10_T2  1
    X_P10_T2  CAP_M0_T2  0.8
    X_P10_T2  CAP_M1_T2  0.8
    X_P10_T2  CAP_M2_T2  1.3
    X_P10_T2  CAP_M3_T2  0.8
    X_P10_T2  CAP_M4_T2  0.7
    X_P10_T2  CAP_M5_T2  1.7
    X_P10_T2  CAP_M6_T2  1.4
    X_P10_T2  CAP_M7_T2  1.3
    X_P10_T2  CAP_M8_T2  2.9
    X_P10_T2  CAP_M9_T2  1.6
    X_P10_T2  CAP_M10_T2  2.9
    X_P10_T2  CAP_M11_T2  0.7
    X_P11_T2  COST      10
    X_P11_T2  BAL_P11_T2  1
    X_P11_T2  CAP_M0_T2  2.4
    X_P11_T2  CAP_M1_T2  1.8
    X_P11_T2  CAP_M2_T2  1.8
    X_P11_T2  CAP_M3_T2  1.5
    X_P11_T2  CAP_M4_T2  2.8
    X_P11_T2  CAP_M5_T2  1.4
    X_P11_T2  CAP_M6_T2  0.7
    X_P11_T2  CAP_M7_T2  0.7
    X_P11_T2  CAP_M8_T2  2
    X_P11_T2  CAP_M9_T2  1.5
    X_P11_T2  CAP_M10_T2  1.7
    X_P11_T2  CAP_M11_T2  2.8
    X_P12_T2  COST      17.2
    X_P12_T2  BAL_P12_T2  1
    X_P12_T2  CAP_M0_T2  2.4
    X_P12_T2  CAP_M1_T2  2.3
    X_P12_T2  CAP_M2_T2  1.7
    X_P12_T2  CAP_M3_T2  2
    X_P12_T2  CAP_M4_T2  1.9
    X_P12_T2  CAP_M5_T2  1.2
    X_P12_T2  CAP_M6_T2  1.7
    X_P12_T2  CAP_M7_T2  1.4
    X_P12_T2  CAP_M8_T2  2
    X_P12_T2  CAP_M9_T2  1.6
    X_P12_T2  CAP_M10_T2  1.3
    X_P12_T2  CAP_M11_T2  2.7
    X_P13_T2  COST      26.3
    X_P13_T2  BAL_P13_T2  1
    X_P13_T2  CAP_M0_T2  2.2
    X_P13_T2  CAP_M1_T2  0.8
    X_P13_T2  CAP_M2_T2  2.7
    X_P13_T2  CAP_M3_T2  2.1
    X_P13_T2  CAP_M4_T2  1.8
    X_P13_T2  CAP_M5_T2  1.2
    X_P13_T2  CAP_M6_T2  1
    X_P13_T2  CAP_M7_T2  1.2
    X_P13_T2  CAP_M8_T2  1.8
    X_P13_T2  CAP_M9_T2  1
    X_P13_T2  CAP_M10_T2  1.3
    X_P13_T2  CAP_M11_T2  1.2
    X_P14_T2  COST      48.6
    X_P14_T2  BAL_P14_T2  1
    X_P14_T2  CAP_M0_T2  1.1
    X_P14_T2  CAP_M1_T2  1.8
    X_P14_T2  CAP_M2_T2  1.9
    X_P14_T2  CAP_M3_T2  1.4
    X_P14_T2  CAP_M4_T2  1.5
    X_P14_T2  CAP_M5_T2  1.9
    X_P14_T2  CAP_M6_T2  2.7
    X_P14_T2  CAP_M7_T2  0.8
    X_P14_T2  CAP_M8_T2  1.7
    X_P14_T2  CAP_M9_T2  2.2
    X_P14_T2  CAP_M10_T2  2.7
    X_P14_T2  CAP_M11_T2  1.2
    X_P15_T2  COST      35.3
    X_P15_T2  BAL_P15_T2  1
    X_P15_T2  CAP_M0_T2  0.8
    X_P15_T2  CAP_M1_T2  0.8
    X_P15_T2  CAP_M2_T2  2.4
    X_P15_T2  CAP_M3_T2  2.3
    X_P15_T2  CAP_M4_T2  1.8
    X_P15_T2  CAP_M5_T2  0.8
    X_P15_T2  CAP_M6_T2  0.8
    X_P15_T2  CAP_M7_T2  1.4
    X_P15_T2  CAP_M8_T2  1.3
    X_P15_T2  CAP_M9_T2  1.8
    X_P15_T2  CAP_M10_T2  2.1
    X_P15_T2  CAP_M11_T2  1.5
    X_P16_T2  COST      45.5
    X_P16_T2  BAL_P16_T2  1
    X_P16_T2  CAP_M0_T2  1.1
    X_P16_T2  CAP_M1_T2  0.5
    X_P16_T2  CAP_M2_T2  1.2
    X_P16_T2  CAP_M3_T2  2.8
    X_P16_T2  CAP_M4_T2  1.1
    X_P16_T2  CAP_M5_T2  1
    X_P16_T2  CAP_M6_T2  1.8
    X_P16_T2  CAP_M7_T2  1.8
    X_P16_T2  CAP_M8_T2  2.5
    X_P16_T2  CAP_M9_T2  1.6
    X_P16_T2  CAP_M10_T2  2.7
    X_P16_T2  CAP_M11_T2  1.3
    X_P17_T2  COST      16.5
    X_P17_T2  BAL_P17_T2  1
    X_P17_T2  CAP_M0_T2  1.8
    X_P17_T2  CAP_M1_T2  2.2
    X_P17_T2  CAP_M2_T2  2.7
    X_P17_T2  CAP_M3_T2  2.2
    X_P17_T2  CAP_M4_T2  1.2
    X_P17_T2  CAP_M5_T2  1.3
    X_P17_T2  CAP_M6_T2  0.7
    X_P17_T2  CAP_M7_T2  1.3
    X_P17_T2  CAP_M8_T2  2.8
    X_P17_T2  CAP_M9_T2  1.4
    X_P17_T2  CAP_M10_T2  2.7
    X_P17_T2  CAP_M11_T2  2.2
    X_P18_T2  COST      42.7
    X_P18_T2  BAL_P18_T2  1
    X_P18_T2  CAP_M0_T2  1.3
    X_P18_T2  CAP_M1_T2  2.9
    X_P18_T2  CAP_M2_T2  1.7
    X_P18_T2  CAP_M3_T2  0.5
    X_P18_T2  CAP_M4_T2  2.4
    X_P18_T2  CAP_M5_T2  2.9
    X_P18_T2  CAP_M6_T2  2.1
    X_P18_T2  CAP_M7_T2  2.7
    X_P18_T2  CAP_M8_T2  1.4
    X_P18_T2  CAP_M9_T2  0.5
    X_P18_T2  CAP_M10_T2  2.1
    X_P18_T2  CAP_M11_T2  1.1
    X_P19_T2  COST      22.9
    X_P19_T2  BAL_P19_T2  1
    X_P19_T2  CAP_M0_T2  2.2
    X_P19_T2  CAP_M1_T2  2.8
    X_P19_T2  CAP_M2_T2  1.6
    X_P19_T2  CAP_M3_T2  2.6
    X_P19_T2  CAP_M4_T2  1.7
    X_P19_T2  CAP_M5_T2  1.3
    X_P19_T2  CAP_M6_T2  1
    X_P19_T2  CAP_M7_T2  1.5
    X_P19_T2  CAP_M8_T2  0.6
    X_P19_T2  CAP_M9_T2  2.8
    X_P19_T2  CAP_M10_T2  0.8
    X_P19_T2  CAP_M11_T2  0.8
    X_P20_T2  COST      19.6
    X_P20_T2  BAL_P20_T2  1
    X_P20_T2  CAP_M0_T2  1.2
    X_P20_T2  CAP_M1_T2  2
    X_P20_T2  CAP_M2_T2  1.4
    X_P20_T2  CAP_M3_T2  2.3
    X_P20_T2  CAP_M4_T2  1.5
    X_P20_T2  CAP_M5_T2  1.6
    X_P20_T2  CAP_M6_T2  2.6
    X_P20_T2  CAP_M7_T2  2.1
    X_P20_T2  CAP_M8_T2  1.2
    X_P20_T2  CAP_M9_T2  1
    X_P20_T2  CAP_M10_T2  2.3
    X_P20_T2  CAP_M11_T2  1.8
    X_P21_T2  COST      18.3
    X_P21_T2  BAL_P21_T2  1
    X_P21_T2  CAP_M0_T2  2.4
    X_P21_T2  CAP_M1_T2  1.9
    X_P21_T2  CAP_M2_T2  2.9
    X_P21_T2  CAP_M3_T2  2.7
    X_P21_T2  CAP_M4_T2  2.7
    X_P21_T2  CAP_M5_T2  1.7
    X_P21_T2  CAP_M6_T2  2.8
    X_P21_T2  CAP_M7_T2  2.5
    X_P21_T2  CAP_M8_T2  3
    X_P21_T2  CAP_M9_T2  2.7
    X_P21_T2  CAP_M10_T2  2.4
    X_P21_T2  CAP_M11_T2  2.4
    X_P22_T2  COST      16.3
    X_P22_T2  BAL_P22_T2  1
    X_P22_T2  CAP_M0_T2  0.6
    X_P22_T2  CAP_M1_T2  2.9
    X_P22_T2  CAP_M2_T2  2.1
    X_P22_T2  CAP_M3_T2  2.1
    X_P22_T2  CAP_M4_T2  2
    X_P22_T2  CAP_M5_T2  2.4
    X_P22_T2  CAP_M6_T2  2.2
    X_P22_T2  CAP_M7_T2  0.7
    X_P22_T2  CAP_M8_T2  0.5
    X_P22_T2  CAP_M9_T2  1.8
    X_P22_T2  CAP_M10_T2  1.1
    X_P22_T2  CAP_M11_T2  2.6
    X_P23_T2  COST      48.1
    X_P23_T2  BAL_P23_T2  1
    X_P23_T2  CAP_M0_T2  2.9
    X_P23_T2  CAP_M1_T2  1.2
    X_P23_T2  CAP_M2_T2  1.8
    X_P23_T2  CAP_M3_T2  1.8
    X_P23_T2  CAP_M4_T2  1.5
    X_P23_T2  CAP_M5_T2  0.5
    X_P23_T2  CAP_M6_T2  2.8
    X_P23_T2  CAP_M7_T2  1.9
    X_P23_T2  CAP_M8_T2  2.2
    X_P23_T2  CAP_M9_T2  2.9
    X_P23_T2  CAP_M10_T2  2.1
    X_P23_T2  CAP_M11_T2  2.2
    X_P24_T2  COST      15.4
    X_P24_T2  BAL_P24_T2  1
    X_P24_T2  CAP_M0_T2  1.1
    X_P24_T2  CAP_M1_T2  2.5
    X_P24_T2  CAP_M2_T2  1.3
    X_P24_T2  CAP_M3_T2  2.8
    X_P24_T2  CAP_M4_T2  1.1
    X_P24_T2  CAP_M5_T2  2
    X_P24_T2  CAP_M6_T2  1.4
    X_P24_T2  CAP_M7_T2  0.5
    X_P24_T2  CAP_M8_T2  1.2
    X_P24_T2  CAP_M9_T2  2.4
    X_P24_T2  CAP_M10_T2  0.6
    X_P24_T2  CAP_M11_T2  1.9
    S_P0_T2   COST      3.1
    S_P0_T2   BAL_P0_T2  -1
    S_P0_T2   STORAGE_T2  1
    S_P0_T2   BAL_P0_T3  1
    S_P1_T2   COST      3
    S_P1_T2   BAL_P1_T2  -1
    S_P1_T2   STORAGE_T2  1
    S_P1_T2   BAL_P1_T3  1
    S_P2_T2   COST      4.2
    S_P2_T2   BAL_P2_T2  -1
    S_P2_T2   STORAGE_T2  1
    S_P2_T2   BAL_P2_T3  1
    S_P3_T2   COST      3.2
    S_P3_T2   BAL_P3_T2  -1
    S_P3_T2   STORAGE_T2  1
    S_P3_T2   BAL_P3_T3  1
    S_P4_T2   COST      2.7
    S_P4_T2   BAL_P4_T2  -1
    S_P4_T2   STORAGE_T2  1
    S_P4_T2   BAL_P4_T3  1
    S_P5_T2   COST      3.4
    S_P5_T2   BAL_P5_T2  -1
    S_P5_T2   STORAGE_T2  1
    S_P5_T2   BAL_P5_T3  1
    S_P6_T2   COST      2.5
    S_P6_T2   BAL_P6_T2  -1
    S_P6_T2   STORAGE_T2  1
    S_P6_T2   BAL_P6_T3  1
    S_P7_T2   COST      2.8
    S_P7_T2   BAL_P7_T2  -1
    S_P7_T2   STORAGE_T2  1
    S_P7_T2   BAL_P7_T3  1
    S_P8_T2   COST      2.8
    S_P8_T2   BAL_P8_T2  -1
    S_P8_T2   STORAGE_T2  1
    S_P8_T2   BAL_P8_T3  1
    S_P9_T2   COST      3
    S_P9_T2   BAL_P9_T2  -1
    S_P9_T2   STORAGE_T2  1
    S_P9_T2   BAL_P9_T3  1
    S_P10_T2  COST      2.7
    S_P10_T2  BAL_P10_T2  -1
    S_P10_T2  STORAGE_T2  1
    S_P10_T2  BAL_P10_T3  1
    S_P11_T2  COST      3.6
    S_P11_T2  BAL_P11_T2  -1
    S_P11_T2  STORAGE_T2  1
    S_P11_T2  BAL_P11_T3  1
    S_P12_T2  COST      4.6
    S_P12_T2  BAL_P12_T2  -1
    S_P12_T2  STORAGE_T2  1
    S_P12_T2  BAL_P12_T3  1
    S_P13_T2  COST      1.4
    S_P13_T2  BAL_P13_T2  -1
    S_P13_T2  STORAGE_T2  1
    S_P13_T2  BAL_P13_T3  1
    S_P14_T2  COST      2.1
    S_P14_T2  BAL_P14_T2  -1
    S_P14_T2  STORAGE_T2  1
    S_P14_T2  BAL_P14_T3  1
    S_P15_T2  COST      3.3
    S_P15_T2  BAL_P15_T2  -1
    S_P15_T2  STORAGE_T2  1
    S_P15_T2  BAL_P15_T3  1
    S_P16_T2  COST      2.8
    S_P16_T2  BAL_P16_T2  -1
    S_P16_T2  STORAGE_T2  1
    S_P16_T2  BAL_P16_T3  1
    S_P17_T2  COST      4.6
    S_P17_T2  BAL_P17_T2  -1
    S_P17_T2  STORAGE_T2  1
    S_P17_T2  BAL_P17_T3  1
    S_P18_T2  COST      2.7
    S_P18_T2  BAL_P18_T2  -1
    S_P18_T2  STORAGE_T2  1
    S_P18_T2  BAL_P18_T3  1
    S_P19_T2  COST      1.4
    S_P19_T2  BAL_P19_T2  -1
    S_P19_T2  STORAGE_T2  1
    S_P19_T2  BAL_P19_T3  1
    S_P20_T2  COST      4.5
    S_P20_T2  BAL_P20_T2  -1
    S_P20_T2  STORAGE_T2  1
    S_P20_T2  BAL_P20_T3  1
    S_P21_T2  COST      1.6
    S_P21_T2  BAL_P21_T2  -1
    S_P21_T2  STORAGE_T2  1
    S_P21_T2  BAL_P21_T3  1
    S_P22_T2  COST      1.5
    S_P22_T2  BAL_P22_T2  -1
    S_P22_T2  STORAGE_T2  1
    S_P22_T2  BAL_P22_T3  1
    S_P23_T2  COST      2.7
    S_P23_T2  BAL_P23_T2  -1
    S_P23_T2  STORAGE_T2  1
    S_P23_T2  BAL_P23_T3  1
    S_P24_T2  COST      1.5
    S_P24_T2  BAL_P24_T2  -1
    S_P24_T2  STORAGE_T2  1
    S_P24_T2  BAL_P24_T3  1
    X_P0_T3   COST      17.9
    X_P0_T3   BAL_P0_T3  1
    X_P0_T3   CAP_M0_T3  1.4
    X_P0_T3   CAP_M1_T3  2.4
    X_P0_T3   CAP_M2_T3  0.5
    X_P0_T3   CAP_M3_T3  1
    X_P0_T3   CAP_M4_T3  1.3
    X_P0_T3   CAP_M5_T3  0.8
    X_P0_T3   CAP_M6_T3  1
    X_P0_T3   CAP_M7_T3  1.7
    X_P0_T3   CAP_M8_T3  0.7
    X_P0_T3   CAP_M9_T3  1.5
    X_P0_T3   CAP_M10_T3  2.4
    X_P0_T3   CAP_M11_T3  0.9
    X_P1_T3   COST      43.8
    X_P1_T3   BAL_P1_T3  1
    X_P1_T3   CAP_M0_T3  1
    X_P1_T3   CAP_M1_T3  2.2
    X_P1_T3   CAP_M2_T3  1
    X_P1_T3   CAP_M3_T3  2.4
    X_P1_T3   CAP_M4_T3  3
    X_P1_T3   CAP_M5_T3  2.2
    X_P1_T3   CAP_M6_T3  2.7
    X_P1_T3   CAP_M7_T3  1.4
    X_P1_T3   CAP_M8_T3  1.9
    X_P1_T3   CAP_M9_T3  0.9
    X_P1_T3   CAP_M10_T3  2.9
    X_P1_T3   CAP_M11_T3  2.2
    X_P2_T3   COST      47
    X_P2_T3   BAL_P2_T3  1
    X_P2_T3   CAP_M0_T3  2.6
    X_P2_T3   CAP_M1_T3  1.4
    X_P2_T3   CAP_M2_T3  0.8
    X_P2_T3   CAP_M3_T3  2.3
    X_P2_T3   CAP_M4_T3  2.5
    X_P2_T3   CAP_M5_T3  1
    X_P2_T3   CAP_M6_T3  1.2
    X_P2_T3   CAP_M7_T3  1
    X_P2_T3   CAP_M8_T3  1.1
    X_P2_T3   CAP_M9_T3  1.9
    X_P2_T3   CAP_M10_T3  3
    X_P2_T3   CAP_M11_T3  0.8
    X_P3_T3   COST      30.3
    X_P3_T3   BAL_P3_T3  1
    X_P3_T3   CAP_M0_T3  1.8
    X_P3_T3   CAP_M1_T3  2.8
    X_P3_T3   CAP_M2_T3  2.1
    X_P3_T3   CAP_M3_T3  1.6
    X_P3_T3   CAP_M4_T3  1.1
    X_P3_T3   CAP_M5_T3  0.7
    X_P3_T3   CAP_M6_T3  2
    X_P3_T3   CAP_M7_T3  2.7
    X_P3_T3   CAP_M8_T3  1.9
    X_P3_T3   CAP_M9_T3  2.6
    X_P3_T3   CAP_M10_T3  2.1
    X_P3_T3   CAP_M11_T3  2.3
    X_P4_T3   COST      47.4
    X_P4_T3   BAL_P4_T3  1
    X_P4_T3   CAP_M0_T3  1.9
    X_P4_T3   CAP_M1_T3  2
    X_P4_T3   CAP_M2_T3  2.5
    X_P4_T3   CAP_M3_T3  2.7
    X_P4_T3   CAP_M4_T3  2.1
    X_P4_T3   CAP_M5_T3  1.2
    X_P4_T3   CAP_M6_T3  1.6
    X_P4_T3   CAP_M7_T3  1.6
    X_P4_T3   CAP_M8_T3  2.1
    X_P4_T3   CAP_M9_T3  1.7
    X_P4_T3   CAP_M10_T3  0.8
    X_P4_T3   CAP_M11_T3  1.6
    X_P5_T3   COST      43.1
    X_P5_T3   BAL_P5_T3  1
    X_P5_T3   CAP_M0_T3  2.1
    X_P5_T3   CAP_M1_T3  0.7
    X_P5_T3   CAP_M2_T3  2.9
    X_P5_T3   CAP_M3_T3  1.3
    X_P5_T3   CAP_M4_T3  2.6
    X_P5_T3   CAP_M5_T3  1.9
    X_P5_T3   CAP_M6_T3  2.4
    X_P5_T3   CAP_M7_T3  1.8
    X_P5_T3   CAP_M8_T3  1.4
    X_P5_T3   CAP_M9_T3  0.7
    X_P5_T3   CAP_M10_T3  0.6
    X_P5_T3   CAP_M11_T3  2.9
    X_P6_T3   COST      41.1
    X_P6_T3   BAL_P6_T3  1
    X_P6_T3   CAP_M0_T3  1.3
    X_P6_T3   CAP_M1_T3  1.8
    X_P6_T3   CAP_M2_T3  2.5
    X_P6_T3   CAP_M3_T3  2.2
    X_P6_T3   CAP_M4_T3  0.7
    X_P6_T3   CAP_M5_T3  1.5
    X_P6_T3   CAP_M6_T3  0.6
    X_P6_T3   CAP_M7_T3  1.9
    X_P6_T3   CAP_M8_T3  1.3
    X_P6_T3   CAP_M9_T3  2.1
    X_P6_T3   CAP_M10_T3  2.4
    X_P6_T3   CAP_M11_T3  1.1
    X_P7_T3   COST      19.2
    X_P7_T3   BAL_P7_T3  1
    X_P7_T3   CAP_M0_T3  1.1
    X_P7_T3   CAP_M1_T3  2.2
    X_P7_T3   CAP_M2_T3  2.5
    X_P7_T3   CAP_M3_T3  2.9
    X_P7_T3   CAP_M4_T3  1
    X_P7_T3   CAP_M5_T3  2.9
    X_P7_T3   CAP_M6_T3  2.4
    X_P7_T3   CAP_M7_T3  1.6
    X_P7_T3   CAP_M8_T3  1.4
    X_P7_T3   CAP_M9_T3  0.6
    X_P7_T3   CAP_M10_T3  1.6
    X_P7_T3   CAP_M11_T3  1.7
    X_P8_T3   COST      26.4
    X_P8_T3   BAL_P8_T3  1
    X_P8_T3   CAP_M0_T3  1.8
    X_P8_T3   CAP_M1_T3  0.7
    X_P8_T3   CAP_M2_T3  2.7
    X_P8_T3   CAP_M3_T3  2.3
    X_P8_T3   CAP_M4_T3  1.6
    X_P8_T3   CAP_M5_T3  1.3
    X_P8_T3   CAP_M6_T3  2.9
    X_P8_T3   CAP_M7_T3  1.1
    X_P8_T3   CAP_M8_T3  1.5
    X_P8_T3   CAP_M9_T3  2.1
    X_P8_T3   CAP_M10_T3  1.6
    X_P8_T3   CAP_M11_T3  0.7
    X_P9_T3   COST      47
    X_P9_T3   BAL_P9_T3  1
    X_P9_T3   CAP_M0_T3  1.3
    X_P9_T3   CAP_M1_T3  2.8
    X_P9_T3   CAP_M2_T3  1.3
    X_P9_T3   CAP_M3_T3  0.6
    X_P9_T3   CAP_M4_T3  1.7
    X_P9_T3   CAP_M5_T3  2.5
    X_P9_T3   CAP_M6_T3  1
    X_P9_T3   CAP_M7_T3  2.5
    X_P9_T3   CAP_M8_T3  2.7
    X_P9_T3   CAP_M9_T3  1.1
    X_P9_T3   CAP_M10_T3  1.8
    X_P9_T3   CAP_M11_T3  2.8
    X_P10_T3  COST      17.3
    X_P10_T3  BAL_P10_T3  1
    X_P10_T3  CAP_M0_T3  0.8
    X_P10_T3  CAP_M1_T3  0.8
    X_P10_T3  CAP_M2_T3  1.3
    X_P10_T3  CAP_M3_T3  0.8
    X_P10_T3  CAP_M4_T3  0.7
    X_P10_T3  CAP_M5_T3  1.7
    X_P10_T3  CAP_M6_T3  1.4
    X_P10_T3  CAP_M7_T3  1.3
    X_P10_T3  CAP_M8_T3  2.9
    X_P10_T3  CAP_M9_T3  1.6
    X_P10_T3  CAP_M10_T3  2.9
    X_P10_T3  CAP_M11_T3  0.7
    X_P11_T3  COST      12.4
    X_P11_T3  BAL_P11_T3  1
    X_P11_T3  CAP_M0_T3  2.4
    X_P11_T3  CAP_M1_T3  1.8
    X_P11_T3  CAP_M2_T3  1.8
    X_P11_T3  CAP_M3_T3  1.5
    X_P11_T3  CAP_M4_T3  2.8
    X_P11_T3  CAP_M5_T3  1.4
    X_P11_T3  CAP_M6_T3  0.7
    X_P11_T3  CAP_M7_T3  0.7
    X_P11_T3  CAP_M8_T3  2
    X_P11_T3  CAP_M9_T3  1.5
    X_P11_T3  CAP_M10_T3  1.7
    X_P11_T3  CAP_M11_T3  2.8
    X_P12_T3  COST      10.6
    X_P12_T3  BAL_P12_T3  1
    X_P12_T3  CAP_M0_T3  2.4
    X_P12_T3  CAP_M1_T3  2.3
    X_P12_T3  CAP_M2_T3  1.7
    X_P12_T3  CAP_M3_T3  2
    X_P12_T3  CAP_M4_T3  1.9
    X_P12_T3  CAP_M5_T3  1.2
    X_P12_T3  CAP_M6_T3  1.7
    X_P12_T3  CAP_M7_T3  1.4
    X_P12_T3  CAP_M8_T3  2
    X_P12_T3  CAP_M9_T3  1.6
    X_P12_T3  CAP_M10_T3  1.3
    X_P12_T3  CAP_M11_T3  2.7
    X_P13_T3  COST      11.1
    X_P13_T3  BAL_P13_T3  1
    X_P13_T3  CAP_M0_T3  2.2
    X_P13_T3  CAP_M1_T3  0.8
    X_P13_T3  CAP_M2_T3  2.7
    X_P13_T3  CAP_M3_T3  2.1
    X_P13_T3  CAP_M4_T3  1.8
    X_P13_T3  CAP_M5_T3  1.2
    X_P13_T3  CAP_M6_T3  1
    X_P13_T3  CAP_M7_T3  1.2
    X_P13_T3  CAP_M8_T3  1.8
    X_P13_T3  CAP_M9_T3  1
    X_P13_T3  CAP_M10_T3  1.3
    X_P13_T3  CAP_M11_T3  1.2
    X_P14_T3  COST      17
    X_P14_T3  BAL_P14_T3  1
    X_P14_T3  CAP_M0_T3  1.1
    X_P14_T3  CAP_M1_T3  1.8
    X_P14_T3  CAP_M2_T3  1.9
    X_P14_T3  CAP_M3_T3  1.4
    X_P14_T3  CAP_M4_T3  1.5
    X_P14_T3  CAP_M5_T3  1.9
    X_P14_T3  CAP_M6_T3  2.7
    X_P14_T3  CAP_M7_T3  0.8
    X_P14_T3  CAP_M8_T3  1.7
    X_P14_T3  CAP_M9_T3  2.2
    X_P14_T3  CAP_M10_T3  2.7
    X_P14_T3  CAP_M11_T3  1.2
    X_P15_T3  COST      30.5
    X_P15_T3  BAL_P15_T3  1
    X_P15_T3  CAP_M0_T3  0.8
    X_P15_T3  CAP_M1_T3  0.8
    X_P15_T3  CAP_M2_T3  2.4
    X_P15_T3  CAP_M3_T3  2.3
    X_P15_T3  CAP_M4_T3  1.8
    X_P15_T3  CAP_M5_T3  0.8
    X_P15_T3  CAP_M6_T3  0.8
    X_P15_T3  CAP_M7_T3  1.4
    X_P15_T3  CAP_M8_T3  1.3
    X_P15_T3  CAP_M9_T3  1.8
    X_P15_T3  CAP_M10_T3  2.1
    X_P15_T3  CAP_M11_T3  1.5
    X_P16_T3  COST      33.5
    X_P16_T3  BAL_P16_T3  1
    X_P16_T3  CAP_M0_T3  1.1
    X_P16_T3  CAP_M1_T3  0.5
    X_P16_T3  CAP_M2_T3  1.2
    X_P16_T3  CAP_M3_T3  2.8
    X_P16_T3  CAP_M4_T3  1.1
    X_P16_T3  CAP_M5_T3  1
    X_P16_T3  CAP_M6_T3  1.8
    X_P16_T3  CAP_M7_T3  1.8
    X_P16_T3  CAP_M8_T3  2.5
    X_P16_T3  CAP_M9_T3  1.6
    X_P16_T3  CAP_M10_T3  2.7
    X_P16_T3  CAP_M11_T3  1.3
    X_P17_T3  COST      16.8
    X_P17_T3  BAL_P17_T3  1
    X_P17_T3  CAP_M0_T3  1.8
    X_P17_T3  CAP_M1_T3  2.2
    X_P17_T3  CAP_M2_T3  2.7
    X_P17_T3  CAP_M3_T3  2.2
    X_P17_T3  CAP_M4_T3  1.2
    X_P17_T3  CAP_M5_T3  1.3
    X_P17_T3  CAP_M6_T3  0.7
    X_P17_T3  CAP_M7_T3  1.3
    X_P17_T3  CAP_M8_T3  2.8
    X_P17_T3  CAP_M9_T3  1.4
    X_P17_T3  CAP_M10_T3  2.7
    X_P17_T3  CAP_M11_T3  2.2
    X_P18_T3  COST      31.2
    X_P18_T3  BAL_P18_T3  1
    X_P18_T3  CAP_M0_T3  1.3
    X_P18_T3  CAP_M1_T3  2.9
    X_P18_T3  CAP_M2_T3  1.7
    X_P18_T3  CAP_M3_T3  0.5
    X_P18_T3  CAP_M4_T3  2.4
    X_P18_T3  CAP_M5_T3  2.9
    X_P18_T3  CAP_M6_T3  2.1
    X_P18_T3  CAP_M7_T3  2.7
    X_P18_T3  CAP_M8_T3  1.4
    X_P18_T3  CAP_M9_T3  0.5
    X_P18_T3  CAP_M10_T3  2.1
    X_P18_T3  CAP_M11_T3  1.1
    X_P19_T3  COST      16.1
    X_P19_T3  BAL_P19_T3  1
    X_P19_T3  CAP_M0_T3  2.2
    X_P19_T3  CAP_M1_T3  2.8
    X_P19_T3  CAP_M2_T3  1.6
    X_P19_T3  CAP_M3_T3  2.6
    X_P19_T3  CAP_M4_T3  1.7
    X_P19_T3  CAP_M5_T3  1.3
    X_P19_T3  CAP_M6_T3  1
    X_P19_T3  CAP_M7_T3  1.5
    X_P19_T3  CAP_M8_T3  0.6
    X_P19_T3  CAP_M9_T3  2.8
    X_P19_T3  CAP_M10_T3  0.8
    X_P19_T3  CAP_M11_T3  0.8
    X_P20_T3  COST      31.5
    X_P20_T3  BAL_P20_T3  1
    X_P20_T3  CAP_M0_T3  1.2
    X_P20_T3  CAP_M1_T3  2
    X_P20_T3  CAP_M2_T3  1.4
    X_P20_T3  CAP_M3_T3  2.3
    X_P20_T3  CAP_M4_T3  1.5
    X_P20_T3  CAP_M5_T3  1.6
    X_P20_T3  CAP_M6_T3  2.6
    X_P20_T3  CAP_M7_T3  2.1
    X_P20_T3  CAP_M8_T3  1.2
    X_P20_T3  CAP_M9_T3  1
    X_P20_T3  CAP_M10_T3  2.3
    X_P20_T3  CAP_M11_T3  1.8
    X_P21_T3  COST      49.2
    X_P21_T3  BAL_P21_T3  1
    X_P21_T3  CAP_M0_T3  2.4
    X_P21_T3  CAP_M1_T3  1.9
    X_P21_T3  CAP_M2_T3  2.9
    X_P21_T3  CAP_M3_T3  2.7
    X_P21_T3  CAP_M4_T3  2.7
    X_P21_T3  CAP_M5_T3  1.7
    X_P21_T3  CAP_M6_T3  2.8
    X_P21_T3  CAP_M7_T3  2.5
    X_P21_T3  CAP_M8_T3  3
    X_P21_T3  CAP_M9_T3  2.7
    X_P21_T3  CAP_M10_T3  2.4
    X_P21_T3  CAP_M11_T3  2.4
    X_P22_T3  COST      43.1
    X_P22_T3  BAL_P22_T3  1
    X_P22_T3  CAP_M0_T3  0.6
    X_P22_T3  CAP_M1_T3  2.9
    X_P22_T3  CAP_M2_T3  2.1
    X_P22_T3  CAP_M3_T3  2.1
    X_P22_T3  CAP_M4_T3  2
    X_P22_T3  CAP_M5_T3  2.4
    X_P22_T3  CAP_M6_T3  2.2
    X_P22_T3  CAP_M7_T3  0.7
    X_P22_T3  CAP_M8_T3  0.5
    X_P22_T3  CAP_M9_T3  1.8
    X_P22_T3  CAP_M10_T3  1.1
    X_P22_T3  CAP_M11_T3  2.6
    X_P23_T3  COST      48.8
    X_P23_T3  BAL_P23_T3  1
    X_P23_T3  CAP_M0_T3  2.9
    X_P23_T3  CAP_M1_T3  1.2
    X_P23_T3  CAP_M2_T3  1.8
    X_P23_T3  CAP_M3_T3  1.8
    X_P23_T3  CAP_M4_T3  1.5
    X_P23_T3  CAP_M5_T3  0.5
    X_P23_T3  CAP_M6_T3  2.8
    X_P23_T3  CAP_M7_T3  1.9
    X_P23_T3  CAP_M8_T3  2.2
    X_P23_T3  CAP_M9_T3  2.9
    X_P23_T3  CAP_M10_T3  2.1
    X_P23_T3  CAP_M11_T3  2.2
    X_P24_T3  COST      48.2
    X_P24_T3  BAL_P24_T3  1
    X_P24_T3  CAP_M0_T3  1.1
    X_P24_T3  CAP_M1_T3  2.5
    X_P24_T3  CAP_M2_T3  1.3
    X_P24_T3  CAP_M3_T3  2.8
    X_P24_T3  CAP_M4_T3  1.1
    X_P24_T3  CAP_M5_T3  2
    X_P24_T3  CAP_M6_T3  1.4
    X_P24_T3  CAP_M7_T3  0.5
    X_P24_T3  CAP_M8_T3  1.2
    X_P24_T3  CAP_M9_T3  2.4
    X_P24_T3  CAP_M10_T3  0.6
    X_P24_T3  CAP_M11_T3  1.9
    S_P0_T3   COST      1.6
    S_P0_T3   BAL_P0_T3  -1
    S_P0_T3   STORAGE_T3  1
    S_P0_T3   BAL_P0_T4  1
    S_P1_T3   COST      3.6
    S_P1_T3   BAL_P1_T3  -1
    S_P1_T3   STORAGE_T3  1
    S_P1_T3   BAL_P1_T4  1
    S_P2_T3   COST      2.6
    S_P2_T3   BAL_P2_T3  -1
    S_P2_T3   STORAGE_T3  1
    S_P2_T3   BAL_P2_T4  1
    S_P3_T3   COST      2.7
    S_P3_T3   BAL_P3_T3  -1
    S_P3_T3   STORAGE_T3  1
    S_P3_T3   BAL_P3_T4  1
    S_P4_T3   COST      1.7
    S_P4_T3   BAL_P4_T3  -1
    S_P4_T3   STORAGE_T3  1
    S_P4_T3   BAL_P4_T4  1
    S_P5_T3   COST      3.6
    S_P5_T3   BAL_P5_T3  -1
    S_P5_T3   STORAGE_T3  1
    S_P5_T3   BAL_P5_T4  1
    S_P6_T3   COST      3.5
    S_P6_T3   BAL_P6_T3  -1
    S_P6_T3   STORAGE_T3  1
    S_P6_T3   BAL_P6_T4  1
    S_P7_T3   COST      4.5
    S_P7_T3   BAL_P7_T3  -1
    S_P7_T3   STORAGE_T3  1
    S_P7_T3   BAL_P7_T4  1
    S_P8_T3   COST      2.7
    S_P8_T3   BAL_P8_T3  -1
    S_P8_T3   STORAGE_T3  1
    S_P8_T3   BAL_P8_T4  1
    S_P9_T3   COST      3.9
    S_P9_T3   BAL_P9_T3  -1
    S_P9_T3   STORAGE_T3  1
    S_P9_T3   BAL_P9_T4  1
    S_P10_T3  COST      2
    S_P10_T3  BAL_P10_T3  -1
    S_P10_T3  STORAGE_T3  1
    S_P10_T3  BAL_P10_T4  1
    S_P11_T3  COST      1.6
    S_P11_T3  BAL_P11_T3  -1
    S_P11_T3  STORAGE_T3  1
    S_P11_T3  BAL_P11_T4  1
    S_P12_T3  COST      2.8
    S_P12_T3  BAL_P12_T3  -1
    S_P12_T3  STORAGE_T3  1
    S_P12_T3  BAL_P12_T4  1
    S_P13_T3  COST      2.4
    S_P13_T3  BAL_P13_T3  -1
    S_P13_T3  STORAGE_T3  1
    S_P13_T3  BAL_P13_T4  1
    S_P14_T3  COST      3.8
    S_P14_T3  BAL_P14_T3  -1
    S_P14_T3  STORAGE_T3  1
    S_P14_T3  BAL_P14_T4  1
    S_P15_T3  COST      1.3
    S_P15_T3  BAL_P15_T3  -1
    S_P15_T3  STORAGE_T3  1
    S_P15_T3  BAL_P15_T4  1
    S_P16_T3  COST      4.9
    S_P16_T3  BAL_P16_T3  -1
    S_P16_T3  STORAGE_T3  1
    S_P16_T3  BAL_P16_T4  1
    S_P17_T3  COST      4
    S_P17_T3  BAL_P17_T3  -1
    S_P17_T3  STORAGE_T3  1
    S_P17_T3  BAL_P17_T4  1
    S_P18_T3  COST      4.5
    S_P18_T3  BAL_P18_T3  -1
    S_P18_T3  STORAGE_T3  1
    S_P18_T3  BAL_P18_T4  1
    S_P19_T3  COST      4.1
    S_P19_T3  BAL_P19_T3  -1
    S_P19_T3  STORAGE_T3  1
    S_P19_T3  BAL_P19_T4  1
    S_P20_T3  COST      3.9
    S_P20_T3  BAL_P20_T3  -1
    S_P20_T3  STORAGE_T3  1
    S_P20_T3  BAL_P20_T4  1
    S_P21_T3  COST      1.4
    S_P21_T3  BAL_P21_T3  -1
    S_P21_T3  STORAGE_T3  1
    S_P21_T3  BAL_P21_T4  1
    S_P22_T3  COST      2.9
    S_P22_T3  BAL_P22_T3  -1
    S_P22_T3  STORAGE_T3  1
    S_P22_T3  BAL_P22_T4  1
    S_P23_T3  COST      2.9
    S_P23_T3  BAL_P23_T3  -1
    S_P23_T3  STORAGE_T3  1
    S_P23_T3  BAL_P23_T4  1
    S_P24_T3  COST      3.7
    S_P24_T3  BAL_P24_T3  -1
    S_P24_T3  STORAGE_T3  1
    S_P24_T3  BAL_P24_T4  1
    X_P0_T4   COST      16.6
    X_P0_T4   BAL_P0_T4  1
    X_P0_T4   CAP_M0_T4  1.4
    X_P0_T4   CAP_M1_T4  2.4
    X_P0_T4   CAP_M2_T4  0.5
    X_P0_T4   CAP_M3_T4  1
    X_P0_T4   CAP_M4_T4  1.3
    X_P0_T4   CAP_M5_T4  0.8
    X_P0_T4   CAP_M6_T4  1
    X_P0_T4   CAP_M7_T4  1.7
    X_P0_T4   CAP_M8_T4  0.7
    X_P0_T4   CAP_M9_T4  1.5
    X_P0_T4   CAP_M10_T4  2.4
    X_P0_T4   CAP_M11_T4  0.9
    X_P1_T4   COST      45.5
    X_P1_T4   BAL_P1_T4  1
    X_P1_T4   CAP_M0_T4  1
    X_P1_T4   CAP_M1_T4  2.2
    X_P1_T4   CAP_M2_T4  1
    X_P1_T4   CAP_M3_T4  2.4
    X_P1_T4   CAP_M4_T4  3
    X_P1_T4   CAP_M5_T4  2.2
    X_P1_T4   CAP_M6_T4  2.7
    X_P1_T4   CAP_M7_T4  1.4
    X_P1_T4   CAP_M8_T4  1.9
    X_P1_T4   CAP_M9_T4  0.9
    X_P1_T4   CAP_M10_T4  2.9
    X_P1_T4   CAP_M11_T4  2.2
    X_P2_T4   COST      16.2
    X_P2_T4   BAL_P2_T4  1
    X_P2_T4   CAP_M0_T4  2.6
    X_P2_T4   CAP_M1_T4  1.4
    X_P2_T4   CAP_M2_T4  0.8
    X_P2_T4   CAP_M3_T4  2.3
    X_P2_T4   CAP_M4_T4  2.5
    X_P2_T4   CAP_M5_T4  1
    X_P2_T4   CAP_M6_T4  1.2
    X_P2_T4   CAP_M7_T4  1
    X_P2_T4   CAP_M8_T4  1.1
    X_P2_T4   CAP_M9_T4  1.9
    X_P2_T4   CAP_M10_T4  3
    X_P2_T4   CAP_M11_T4  0.8
    X_P3_T4   COST      25.3
    X_P3_T4   BAL_P3_T4  1
    X_P3_T4   CAP_M0_T4  1.8
    X_P3_T4   CAP_M1_T4  2.8
    X_P3_T4   CAP_M2_T4  2.1
    X_P3_T4   CAP_M3_T4  1.6
    X_P3_T4   CAP_M4_T4  1.1
    X_P3_T4   CAP_M5_T4  0.7
    X_P3_T4   CAP_M6_T4  2
    X_P3_T4   CAP_M7_T4  2.7
    X_P3_T4   CAP_M8_T4  1.9
    X_P3_T4   CAP_M9_T4  2.6
    X_P3_T4   CAP_M10_T4  2.1
    X_P3_T4   CAP_M11_T4  2.3
    X_P4_T4   COST      46
    X_P4_T4   BAL_P4_T4  1
    X_P4_T4   CAP_M0_T4  1.9
    X_P4_T4   CAP_M1_T4  2
    X_P4_T4   CAP_M2_T4  2.5
    X_P4_T4   CAP_M3_T4  2.7
    X_P4_T4   CAP_M4_T4  2.1
    X_P4_T4   CAP_M5_T4  1.2
    X_P4_T4   CAP_M6_T4  1.6
    X_P4_T4   CAP_M7_T4  1.6
    X_P4_T4   CAP_M8_T4  2.1
    X_P4_T4   CAP_M9_T4  1.7
    X_P4_T4   CAP_M10_T4  0.8
    X_P4_T4   CAP_M11_T4  1.6
    X_P5_T4   COST      12.1
    X_P5_T4   BAL_P5_T4  1
    X_P5_T4   CAP_M0_T4  2.1
    X_P5_T4   CAP_M1_T4  0.7
    X_P5_T4   CAP_M2_T4  2.9
    X_P5_T4   CAP_M3_T4  1.3
    X_P5_T4   CAP_M4_T4  2.6
    X_P5_T4   CAP_M5_T4  1.9
    X_P5_T4   CAP_M6_T4  2.4
    X_P5_T4   CAP_M7_T4  1.8
    X_P5_T4   CAP_M8_T4  1.4
    X_P5_T4   CAP_M9_T4  0.7
    X_P5_T4   CAP_M10_T4  0.6
    X_P5_T4   CAP_M11_T4  2.9
    X_P6_T4   COST      46.4
    X_P6_T4   BAL_P6_T4  1
    X_P6_T4   CAP_M0_T4  1.3
    X_P6_T4   CAP_M1_T4  1.8
    X_P6_T4   CAP_M2_T4  2.5
    X_P6_T4   CAP_M3_T4  2.2
    X_P6_T4   CAP_M4_T4  0.7
    X_P6_T4   CAP_M5_T4  1.5
    X_P6_T4   CAP_M6_T4  0.6
    X_P6_T4   CAP_M7_T4  1.9
    X_P6_T4   CAP_M8_T4  1.3
    X_P6_T4   CAP_M9_T4  2.1
    X_P6_T4   CAP_M10_T4  2.4
    X_P6_T4   CAP_M11_T4  1.1
    X_P7_T4   COST      50
    X_P7_T4   BAL_P7_T4  1
    X_P7_T4   CAP_M0_T4  1.1
    X_P7_T4   CAP_M1_T4  2.2
    X_P7_T4   CAP_M2_T4  2.5
    X_P7_T4   CAP_M3_T4  2.9
    X_P7_T4   CAP_M4_T4  1
    X_P7_T4   CAP_M5_T4  2.9
    X_P7_T4   CAP_M6_T4  2.4
    X_P7_T4   CAP_M7_T4  1.6
    X_P7_T4   CAP_M8_T4  1.4
    X_P7_T4   CAP_M9_T4  0.6
    X_P7_T4   CAP_M10_T4  1.6
    X_P7_T4   CAP_M11_T4  1.7
    X_P8_T4   COST      33.3
    X_P8_T4   BAL_P8_T4  1
    X_P8_T4   CAP_M0_T4  1.8
    X_P8_T4   CAP_M1_T4  0.7
    X_P8_T4   CAP_M2_T4  2.7
    X_P8_T4   CAP_M3_T4  2.3
    X_P8_T4   CAP_M4_T4  1.6
    X_P8_T4   CAP_M5_T4  1.3
    X_P8_T4   CAP_M6_T4  2.9
    X_P8_T4   CAP_M7_T4  1.1
    X_P8_T4   CAP_M8_T4  1.5
    X_P8_T4   CAP_M9_T4  2.1
    X_P8_T4   CAP_M10_T4  1.6
    X_P8_T4   CAP_M11_T4  0.7
    X_P9_T4   COST      34.9
    X_P9_T4   BAL_P9_T4  1
    X_P9_T4   CAP_M0_T4  1.3
    X_P9_T4   CAP_M1_T4  2.8
    X_P9_T4   CAP_M2_T4  1.3
    X_P9_T4   CAP_M3_T4  0.6
    X_P9_T4   CAP_M4_T4  1.7
    X_P9_T4   CAP_M5_T4  2.5
    X_P9_T4   CAP_M6_T4  1
    X_P9_T4   CAP_M7_T4  2.5
    X_P9_T4   CAP_M8_T4  2.7
    X_P9_T4   CAP_M9_T4  1.1
    X_P9_T4   CAP_M10_T4  1.8
    X_P9_T4   CAP_M11_T4  2.8
    X_P10_T4  COST      46.3
    X_P10_T4  BAL_P10_T4  1
    X_P10_T4  CAP_M0_T4  0.8
    X_P10_T4  CAP_M1_T4  0.8
    X_P10_T4  CAP_M2_T4  1.3
    X_P10_T4  CAP_M3_T4  0.8
    X_P10_T4  CAP_M4_T4  0.7
    X_P10_T4  CAP_M5_T4  1.7
    X_P10_T4  CAP_M6_T4  1.4
    X_P10_T4  CAP_M7_T4  1.3
    X_P10_T4  CAP_M8_T4  2.9
    X_P10_T4  CAP_M9_T4  1.6
    X_P10_T4  CAP_M10_T4  2.9
    X_P10_T4  CAP_M11_T4  0.7
    X_P11_T4  COST      48.9
    X_P11_T4  BAL_P11_T4  1
    X_P11_T4  CAP_M0_T4  2.4
    X_P11_T4  CAP_M1_T4  1.8
    X_P11_T4  CAP_M2_T4  1.8
    X_P11_T4  CAP_M3_T4  1.5
    X_P11_T4  CAP_M4_T4  2.8
    X_P11_T4  CAP_M5_T4  1.4
    X_P11_T4  CAP_M6_T4  0.7
    X_P11_T4  CAP_M7_T4  0.7
    X_P11_T4  CAP_M8_T4  2
    X_P11_T4  CAP_M9_T4  1.5
    X_P11_T4  CAP_M10_T4  1.7
    X_P11_T4  CAP_M11_T4  2.8
    X_P12_T4  COST      33.5
    X_P12_T4  BAL_P12_T4  1
    X_P12_T4  CAP_M0_T4  2.4
    X_P12_T4  CAP_M1_T4  2.3
    X_P12_T4  CAP_M2_T4  1.7
    X_P12_T4  CAP_M3_T4  2
    X_P12_T4  CAP_M4_T4  1.9
    X_P12_T4  CAP_M5_T4  1.2
    X_P12_T4  CAP_M6_T4  1.7
    X_P12_T4  CAP_M7_T4  1.4
    X_P12_T4  CAP_M8_T4  2
    X_P12_T4  CAP_M9_T4  1.6
    X_P12_T4  CAP_M10_T4  1.3
    X_P12_T4  CAP_M11_T4  2.7
    X_P13_T4  COST      12.1
    X_P13_T4  BAL_P13_T4  1
    X_P13_T4  CAP_M0_T4  2.2
    X_P13_T4  CAP_M1_T4  0.8
    X_P13_T4  CAP_M2_T4  2.7
    X_P13_T4  CAP_M3_T4  2.1
    X_P13_T4  CAP_M4_T4  1.8
    X_P13_T4  CAP_M5_T4  1.2
    X_P13_T4  CAP_M6_T4  1
    X_P13_T4  CAP_M7_T4  1.2
    X_P13_T4  CAP_M8_T4  1.8
    X_P13_T4  CAP_M9_T4  1
    X_P13_T4  CAP_M10_T4  1.3
    X_P13_T4  CAP_M11_T4  1.2
    X_P14_T4  COST      31.6
    X_P14_T4  BAL_P14_T4  1
    X_P14_T4  CAP_M0_T4  1.1
    X_P14_T4  CAP_M1_T4  1.8
    X_P14_T4  CAP_M2_T4  1.9
    X_P14_T4  CAP_M3_T4  1.4
    X_P14_T4  CAP_M4_T4  1.5
    X_P14_T4  CAP_M5_T4  1.9
    X_P14_T4  CAP_M6_T4  2.7
    X_P14_T4  CAP_M7_T4  0.8
    X_P14_T4  CAP_M8_T4  1.7
    X_P14_T4  CAP_M9_T4  2.2
    X_P14_T4  CAP_M10_T4  2.7
    X_P14_T4  CAP_M11_T4  1.2
    X_P15_T4  COST      43.4
    X_P15_T4  BAL_P15_T4  1
    X_P15_T4  CAP_M0_T4  0.8
    X_P15_T4  CAP_M1_T4  0.8
    X_P15_T4  CAP_M2_T4  2.4
    X_P15_T4  CAP_M3_T4  2.3
    X_P15_T4  CAP_M4_T4  1.8
    X_P15_T4  CAP_M5_T4  0.8
    X_P15_T4  CAP_M6_T4  0.8
    X_P15_T4  CAP_M7_T4  1.4
    X_P15_T4  CAP_M8_T4  1.3
    X_P15_T4  CAP_M9_T4  1.8
    X_P15_T4  CAP_M10_T4  2.1
    X_P15_T4  CAP_M11_T4  1.5
    X_P16_T4  COST      13.2
    X_P16_T4  BAL_P16_T4  1
    X_P16_T4  CAP_M0_T4  1.1
    X_P16_T4  CAP_M1_T4  0.5
    X_P16_T4  CAP_M2_T4  1.2
    X_P16_T4  CAP_M3_T4  2.8
    X_P16_T4  CAP_M4_T4  1.1
    X_P16_T4  CAP_M5_T4  1
    X_P16_T4  CAP_M6_T4  1.8
    X_P16_T4  CAP_M7_T4  1.8
    X_P16_T4  CAP_M8_T4  2.5
    X_P16_T4  CAP_M9_T4  1.6
    X_P16_T4  CAP_M10_T4  2.7
    X_P16_T4  CAP_M11_T4  1.3
    X_P17_T4  COST      13.7
    X_P17_T4  BAL_P17_T4  1
    X_P17_T4  CAP_M0_T4  1.8
    X_P17_T4  CAP_M1_T4  2.2
    X_P17_T4  CAP_M2_T4  2.7
    X_P17_T4  CAP_M3_T4  2.2
    X_P17_T4  CAP_M4_T4  1.2
    X_P17_T4  CAP_M5_T4  1.3
    X_P17_T4  CAP_M6_T4  0.7
    X_P17_T4  CAP_M7_T4  1.3
    X_P17_T4  CAP_M8_T4  2.8
    X_P17_T4  CAP_M9_T4  1.4
    X_P17_T4  CAP_M10_T4  2.7
    X_P17_T4  CAP_M11_T4  2.2
    X_P18_T4  COST      25.5
    X_P18_T4  BAL_P18_T4  1
    X_P18_T4  CAP_M0_T4  1.3
    X_P18_T4  CAP_M1_T4  2.9
    X_P18_T4  CAP_M2_T4  1.7
    X_P18_T4  CAP_M3_T4  0.5
    X_P18_T4  CAP_M4_T4  2.4
    X_P18_T4  CAP_M5_T4  2.9
    X_P18_T4  CAP_M6_T4  2.1
    X_P18_T4  CAP_M7_T4  2.7
    X_P18_T4  CAP_M8_T4  1.4
    X_P18_T4  CAP_M9_T4  0.5
    X_P18_T4  CAP_M10_T4  2.1
    X_P18_T4  CAP_M11_T4  1.1
    X_P19_T4  COST      10.9
    X_P19_T4  BAL_P19_T4  1
    X_P19_T4  CAP_M0_T4  2.2
    X_P19_T4  CAP_M1_T4  2.8
    X_P19_T4  CAP_M2_T4  1.6
    X_P19_T4  CAP_M3_T4  2.6
    X_P19_T4  CAP_M4_T4  1.7
    X_P19_T4  CAP_M5_T4  1.3
    X_P19_T4  CAP_M6_T4  1
    X_P19_T4  CAP_M7_T4  1.5
    X_P19_T4  CAP_M8_T4  0.6
    X_P19_T4  CAP_M9_T4  2.8
    X_P19_T4  CAP_M10_T4  0.8
    X_P19_T4  CAP_M11_T4  0.8
    X_P20_T4  COST      43.6
    X_P20_T4  BAL_P20_T4  1
    X_P20_T4  CAP_M0_T4  1.2
    X_P20_T4  CAP_M1_T4  2
    X_P20_T4  CAP_M2_T4  1.4
    X_P20_T4  CAP_M3_T4  2.3
    X_P20_T4  CAP_M4_T4  1.5
    X_P20_T4  CAP_M5_T4  1.6
    X_P20_T4  CAP_M6_T4  2.6
    X_P20_T4  CAP_M7_T4  2.1
    X_P20_T4  CAP_M8_T4  1.2
    X_P20_T4  CAP_M9_T4  1
    X_P20_T4  CAP_M10_T4  2.3
    X_P20_T4  CAP_M11_T4  1.8
    X_P21_T4  COST      32.7
    X_P21_T4  BAL_P21_T4  1
    X_P21_T4  CAP_M0_T4  2.4
    X_P21_T4  CAP_M1_T4  1.9
    X_P21_T4  CAP_M2_T4  2.9
    X_P21_T4  CAP_M3_T4  2.7
    X_P21_T4  CAP_M4_T4  2.7
    X_P21_T4  CAP_M5_T4  1.7
    X_P21_T4  CAP_M6_T4  2.8
    X_P21_T4  CAP_M7_T4  2.5
    X_P21_T4  CAP_M8_T4  3
    X_P21_T4  CAP_M9_T4  2.7
    X_P21_T4  CAP_M10_T4  2.4
    X_P21_T4  CAP_M11_T4  2.4
    X_P22_T4  COST      42.2
    X_P22_T4  BAL_P22_T4  1
    X_P22_T4  CAP_M0_T4  0.6
    X_P22_T4  CAP_M1_T4  2.9
    X_P22_T4  CAP_M2_T4  2.1
    X_P22_T4  CAP_M3_T4  2.1
    X_P22_T4  CAP_M4_T4  2
    X_P22_T4  CAP_M5_T4  2.4
    X_P22_T4  CAP_M6_T4  2.2
    X_P22_T4  CAP_M7_T4  0.7
    X_P22_T4  CAP_M8_T4  0.5
    X_P22_T4  CAP_M9_T4  1.8
    X_P22_T4  CAP_M10_T4  1.1
    X_P22_T4  CAP_M11_T4  2.6
    X_P23_T4  COST      28.9
    X_P23_T4  BAL_P23_T4  1
    X_P23_T4  CAP_M0_T4  2.9
    X_P23_T4  CAP_M1_T4  1.2
    X_P23_T4  CAP_M2_T4  1.8
    X_P23_T4  CAP_M3_T4  1.8
    X_P23_T4  CAP_M4_T4  1.5
    X_P23_T4  CAP_M5_T4  0.5
    X_P23_T4  CAP_M6_T4  2.8
    X_P23_T4  CAP_M7_T4  1.9
    X_P23_T4  CAP_M8_T4  2.2
    X_P23_T4  CAP_M9_T4  2.9
    X_P23_T4  CAP_M10_T4  2.1
    X_P23_T4  CAP_M11_T4  2.2
    X_P24_T4  COST      26.7
    X_P24_T4  BAL_P24_T4  1
    X_P24_T4  CAP_M0_T4  1.1
    X_P24_T4  CAP_M1_T4  2.5
    X_P24_T4  CAP_M2_T4  1.3
    X_P24_T4  CAP_M3_T4  2.8
    X_P24_T4  CAP_M4_T4  1.1
    X_P24_T4  CAP_M5_T4  2
    X_P24_T4  CAP_M6_T4  1.4
    X_P24_T4  CAP_M7_T4  0.5
    X_P24_T4  CAP_M8_T4  1.2
    X_P24_T4  CAP_M9_T4  2.4
    X_P24_T4  CAP_M10_T4  0.6
    X_P24_T4  CAP_M11_T4  1.9
    S_P0_T4   COST      1.4
    S_P0_T4   BAL_P0_T4  -1
    S_P0_T4   STORAGE_T4  1
    S_P0_T4   BAL_P0_T5  1
    S_P1_T4   COST      1.6
    S_P1_T4   BAL_P1_T4  -1
    S_P1_T4   STORAGE_T4  1
    S_P1_T4   BAL_P1_T5  1
    S_P2_T4   COST      2.7
    S_P2_T4   BAL_P2_T4  -1
    S_P2_T4   STORAGE_T4  1
    S_P2_T4   BAL_P2_T5  1
    S_P3_T4   COST      3.5
    S_P3_T4   BAL_P3_T4  -1
    S_P3_T4   STORAGE_T4  1
    S_P3_T4   BAL_P3_T5  1
    S_P4_T4   COST      3.9
    S_P4_T4   BAL_P4_T4  -1
    S_P4_T4   STORAGE_T4  1
    S_P4_T4   BAL_P4_T5  1
    S_P5_T4   COST      1.5
    S_P5_T4   BAL_P5_T4  -1
    S_P5_T4   STORAGE_T4  1
    S_P5_T4   BAL_P5_T5  1
    S_P6_T4   COST      1.4
    S_P6_T4   BAL_P6_T4  -1
    S_P6_T4   STORAGE_T4  1
    S_P6_T4   BAL_P6_T5  1
    S_P7_T4   COST      4.3
    S_P7_T4   BAL_P7_T4  -1
    S_P7_T4   STORAGE_T4  1
    S_P7_T4   BAL_P7_T5  1
    S_P8_T4   COST      2.8
    S_P8_T4   BAL_P8_T4  -1
    S_P8_T4   STORAGE_T4  1
    S_P8_T4   BAL_P8_T5  1
    S_P9_T4   COST      3.6
    S_P9_T4   BAL_P9_T4  -1
    S_P9_T4   STORAGE_T4  1
    S_P9_T4   BAL_P9_T5  1
    S_P10_T4  COST      4.2
    S_P10_T4  BAL_P10_T4  -1
    S_P10_T4  STORAGE_T4  1
    S_P10_T4  BAL_P10_T5  1
    S_P11_T4  COST      1.7
    S_P11_T4  BAL_P11_T4  -1
    S_P11_T4  STORAGE_T4  1
    S_P11_T4  BAL_P11_T5  1
    S_P12_T4  COST      4.5
    S_P12_T4  BAL_P12_T4  -1
    S_P12_T4  STORAGE_T4  1
    S_P12_T4  BAL_P12_T5  1
    S_P13_T4  COST      4.9
    S_P13_T4  BAL_P13_T4  -1
    S_P13_T4  STORAGE_T4  1
    S_P13_T4  BAL_P13_T5  1
    S_P14_T4  COST      1.5
    S_P14_T4  BAL_P14_T4  -1
    S_P14_T4  STORAGE_T4  1
    S_P14_T4  BAL_P14_T5  1
    S_P15_T4  COST      4.7
    S_P15_T4  BAL_P15_T4  -1
    S_P15_T4  STORAGE_T4  1
    S_P15_T4  BAL_P15_T5  1
    S_P16_T4  COST      3.3
    S_P16_T4  BAL_P16_T4  -1
    S_P16_T4  STORAGE_T4  1
    S_P16_T4  BAL_P16_T5  1
    S_P17_T4  COST      3.6
    S_P17_T4  BAL_P17_T4  -1
    S_P17_T4  STORAGE_T4  1
    S_P17_T4  BAL_P17_T5  1
    S_P18_T4  COST      3.7
    S_P18_T4  BAL_P18_T4  -1
    S_P18_T4  STORAGE_T4  1
    S_P18_T4  BAL_P18_T5  1
    S_P19_T4  COST      2.9
    S_P19_T4  BAL_P19_T4  -1
    S_P19_T4  STORAGE_T4  1
    S_P19_T4  BAL_P19_T5  1
    S_P20_T4  COST      1.7
    S_P20_T4  BAL_P20_T4  -1
    S_P20_T4  STORAGE_T4  1
    S_P20_T4  BAL_P20_T5  1
    S_P21_T4  COST      1.1
    S_P21_T4  BAL_P21_T4  -1
    S_P21_T4  STORAGE_T4  1
    S_P21_T4  BAL_P21_T5  1
    S_P22_T4  COST      1.3
    S_P22_T4  BAL_P22_T4  -1
    S_P22_T4  STORAGE_T4  1
    S_P22_T4  BAL_P22_T5  1
    S_P23_T4  COST      2.4
    S_P23_T4  BAL_P23_T4  -1
    S_P23_T4  STORAGE_T4  1
    S_P23_T4  BAL_P23_T5  1
    S_P24_T4  COST      3.4
    S_P24_T4  BAL_P24_T4  -1
    S_P24_T4  STORAGE_T4  1
    S_P24_T4  BAL_P24_T5  1
    X_P0_T5   COST      44.5
    X_P0_T5   BAL_P0_T5  1
    X_P0_T5   CAP_M0_T5  1.4
    X_P0_T5   CAP_M1_T5  2.4
    X_P0_T5   CAP_M2_T5  0.5
    X_P0_T5   CAP_M3_T5  1
    X_P0_T5   CAP_M4_T5  1.3
    X_P0_T5   CAP_M5_T5  0.8
    X_P0_T5   CAP_M6_T5  1
    X_P0_T5   CAP_M7_T5  1.7
    X_P0_T5   CAP_M8_T5  0.7
    X_P0_T5   CAP_M9_T5  1.5
    X_P0_T5   CAP_M10_T5  2.4
    X_P0_T5   CAP_M11_T5  0.9
    X_P1_T5   COST      10.8
    X_P1_T5   BAL_P1_T5  1
    X_P1_T5   CAP_M0_T5  1
    X_P1_T5   CAP_M1_T5  2.2
    X_P1_T5   CAP_M2_T5  1
    X_P1_T5   CAP_M3_T5  2.4
    X_P1_T5   CAP_M4_T5  3
    X_P1_T5   CAP_M5_T5  2.2
    X_P1_T5   CAP_M6_T5  2.7
    X_P1_T5   CAP_M7_T5  1.4
    X_P1_T5   CAP_M8_T5  1.9
    X_P1_T5   CAP_M9_T5  0.9
    X_P1_T5   CAP_M10_T5  2.9
    X_P1_T5   CAP_M11_T5  2.2
    X_P2_T5   COST      14.5
    X_P2_T5   BAL_P2_T5  1
    X_P2_T5   CAP_M0_T5  2.6
    X_P2_T5   CAP_M1_T5  1.4
    X_P2_T5   CAP_M2_T5  0.8
    X_P2_T5   CAP_M3_T5  2.3
    X_P2_T5   CAP_M4_T5  2.5
    X_P2_T5   CAP_M5_T5  1
    X_P2_T5   CAP_M6_T5  1.2
    X_P2_T5   CAP_M7_T5  1
    X_P2_T5   CAP_M8_T5  1.1
    X_P2_T5   CAP_M9_T5  1.9
    X_P2_T5   CAP_M10_T5  3
    X_P2_T5   CAP_M11_T5  0.8
    X_P3_T5   COST      16.2
    X_P3_T5   BAL_P3_T5  1
    X_P3_T5   CAP_M0_T5  1.8
    X_P3_T5   CAP_M1_T5  2.8
    X_P3_T5   CAP_M2_T5  2.1
    X_P3_T5   CAP_M3_T5  1.6
    X_P3_T5   CAP_M4_T5  1.1
    X_P3_T5   CAP_M5_T5  0.7
    X_P3_T5   CAP_M6_T5  2
    X_P3_T5   CAP_M7_T5  2.7
    X_P3_T5   CAP_M8_T5  1.9
    X_P3_T5   CAP_M9_T5  2.6
    X_P3_T5   CAP_M10_T5  2.1
    X_P3_T5   CAP_M11_T5  2.3
    X_P4_T5   COST      33.2
    X_P4_T5   BAL_P4_T5  1
    X_P4_T5   CAP_M0_T5  1.9
    X_P4_T5   CAP_M1_T5  2
    X_P4_T5   CAP_M2_T5  2.5
    X_P4_T5   CAP_M3_T5  2.7
    X_P4_T5   CAP_M4_T5  2.1
    X_P4_T5   CAP_M5_T5  1.2
    X_P4_T5   CAP_M6_T5  1.6
    X_P4_T5   CAP_M7_T5  1.6
    X_P4_T5   CAP_M8_T5  2.1
    X_P4_T5   CAP_M9_T5  1.7
    X_P4_T5   CAP_M10_T5  0.8
    X_P4_T5   CAP_M11_T5  1.6
    X_P5_T5   COST      24.5
    X_P5_T5   BAL_P5_T5  1
    X_P5_T5   CAP_M0_T5  2.1
    X_P5_T5   CAP_M1_T5  0.7
    X_P5_T5   CAP_M2_T5  2.9
    X_P5_T5   CAP_M3_T5  1.3
    X_P5_T5   CAP_M4_T5  2.6
    X_P5_T5   CAP_M5_T5  1.9
    X_P5_T5   CAP_M6_T5  2.4
    X_P5_T5   CAP_M7_T5  1.8
    X_P5_T5   CAP_M8_T5  1.4
    X_P5_T5   CAP_M9_T5  0.7
    X_P5_T5   CAP_M10_T5  0.6
    X_P5_T5   CAP_M11_T5  2.9
    X_P6_T5   COST      31
    X_P6_T5   BAL_P6_T5  1
    X_P6_T5   CAP_M0_T5  1.3
    X_P6_T5   CAP_M1_T5  1.8
    X_P6_T5   CAP_M2_T5  2.5
    X_P6_T5   CAP_M3_T5  2.2
    X_P6_T5   CAP_M4_T5  0.7
    X_P6_T5   CAP_M5_T5  1.5
    X_P6_T5   CAP_M6_T5  0.6
    X_P6_T5   CAP_M7_T5  1.9
    X_P6_T5   CAP_M8_T5  1.3
    X_P6_T5   CAP_M9_T5  2.1
    X_P6_T5   CAP_M10_T5  2.4
    X_P6_T5   CAP_M11_T5  1.1
    X_P7_T5   COST      28.5
    X_P7_T5   BAL_P7_T5  1
    X_P7_T5   CAP_M0_T5  1.1
    X_P7_T5   CAP_M1_T5  2.2
    X_P7_T5   CAP_M2_T5  2.5
    X_P7_T5   CAP_M3_T5  2.9
    X_P7_T5   CAP_M4_T5  1
    X_P7_T5   CAP_M5_T5  2.9
    X_P7_T5   CAP_M6_T5  2.4
    X_P7_T5   CAP_M7_T5  1.6
    X_P7_T5   CAP_M8_T5  1.4
    X_P7_T5   CAP_M9_T5  0.6
    X_P7_T5   CAP_M10_T5  1.6
    X_P7_T5   CAP_M11_T5  1.7
    X_P8_T5   COST      23.6
    X_P8_T5   BAL_P8_T5  1
    X_P8_T5   CAP_M0_T5  1.8
    X_P8_T5   CAP_M1_T5  0.7
    X_P8_T5   CAP_M2_T5  2.7
    X_P8_T5   CAP_M3_T5  2.3
    X_P8_T5   CAP_M4_T5  1.6
    X_P8_T5   CAP_M5_T5  1.3
    X_P8_T5   CAP_M6_T5  2.9
    X_P8_T5   CAP_M7_T5  1.1
    X_P8_T5   CAP_M8_T5  1.5
    X_P8_T5   CAP_M9_T5  2.1
    X_P8_T5   CAP_M10_T5  1.6
    X_P8_T5   CAP_M11_T5  0.7
    X_P9_T5   COST      25.8
    X_P9_T5   BAL_P9_T5  1
    X_P9_T5   CAP_M0_T5  1.3
    X_P9_T5   CAP_M1_T5  2.8
    X_P9_T5   CAP_M2_T5  1.3
    X_P9_T5   CAP_M3_T5  0.6
    X_P9_T5   CAP_M4_T5  1.7
    X_P9_T5   CAP_M5_T5  2.5
    X_P9_T5   CAP_M6_T5  1
    X_P9_T5   CAP_M7_T5  2.5
    X_P9_T5   CAP_M8_T5  2.7
    X_P9_T5   CAP_M9_T5  1.1
    X_P9_T5   CAP_M10_T5  1.8
    X_P9_T5   CAP_M11_T5  2.8
    X_P10_T5  COST      27
    X_P10_T5  BAL_P10_T5  1
    X_P10_T5  CAP_M0_T5  0.8
    X_P10_T5  CAP_M1_T5  0.8
    X_P10_T5  CAP_M2_T5  1.3
    X_P10_T5  CAP_M3_T5  0.8
    X_P10_T5  CAP_M4_T5  0.7
    X_P10_T5  CAP_M5_T5  1.7
    X_P10_T5  CAP_M6_T5  1.4
    X_P10_T5  CAP_M7_T5  1.3
    X_P10_T5  CAP_M8_T5  2.9
    X_P10_T5  CAP_M9_T5  1.6
    X_P10_T5  CAP_M10_T5  2.9
    X_P10_T5  CAP_M11_T5  0.7
    X_P11_T5  COST      40.8
    X_P11_T5  BAL_P11_T5  1
    X_P11_T5  CAP_M0_T5  2.4
    X_P11_T5  CAP_M1_T5  1.8
    X_P11_T5  CAP_M2_T5  1.8
    X_P11_T5  CAP_M3_T5  1.5
    X_P11_T5  CAP_M4_T5  2.8
    X_P11_T5  CAP_M5_T5  1.4
    X_P11_T5  CAP_M6_T5  0.7
    X_P11_T5  CAP_M7_T5  0.7
    X_P11_T5  CAP_M8_T5  2
    X_P11_T5  CAP_M9_T5  1.5
    X_P11_T5  CAP_M10_T5  1.7
    X_P11_T5  CAP_M11_T5  2.8
    X_P12_T5  COST      24.5
    X_P12_T5  BAL_P12_T5  1
    X_P12_T5  CAP_M0_T5  2.4
    X_P12_T5  CAP_M1_T5  2.3
    X_P12_T5  CAP_M2_T5  1.7
    X_P12_T5  CAP_M3_T5  2
    X_P12_T5  CAP_M4_T5  1.9
    X_P12_T5  CAP_M5_T5  1.2
    X_P12_T5  CAP_M6_T5  1.7
    X_P12_T5  CAP_M7_T5  1.4
    X_P12_T5  CAP_M8_T5  2
    X_P12_T5  CAP_M9_T5  1.6
    X_P12_T5  CAP_M10_T5  1.3
    X_P12_T5  CAP_M11_T5  2.7
    X_P13_T5  COST      37.4
    X_P13_T5  BAL_P13_T5  1
    X_P13_T5  CAP_M0_T5  2.2
    X_P13_T5  CAP_M1_T5  0.8
    X_P13_T5  CAP_M2_T5  2.7
    X_P13_T5  CAP_M3_T5  2.1
    X_P13_T5  CAP_M4_T5  1.8
    X_P13_T5  CAP_M5_T5  1.2
    X_P13_T5  CAP_M6_T5  1
    X_P13_T5  CAP_M7_T5  1.2
    X_P13_T5  CAP_M8_T5  1.8
    X_P13_T5  CAP_M9_T5  1
    X_P13_T5  CAP_M10_T5  1.3
    X_P13_T5  CAP_M11_T5  1.2
    X_P14_T5  COST      20.9
    X_P14_T5  BAL_P14_T5  1
    X_P14_T5  CAP_M0_T5  1.1
    X_P14_T5  CAP_M1_T5  1.8
    X_P14_T5  CAP_M2_T5  1.9
    X_P14_T5  CAP_M3_T5  1.4
    X_P14_T5  CAP_M4_T5  1.5
    X_P14_T5  CAP_M5_T5  1.9
    X_P14_T5  CAP_M6_T5  2.7
    X_P14_T5  CAP_M7_T5  0.8
    X_P14_T5  CAP_M8_T5  1.7
    X_P14_T5  CAP_M9_T5  2.2
    X_P14_T5  CAP_M10_T5  2.7
    X_P14_T5  CAP_M11_T5  1.2
    X_P15_T5  COST      21.3
    X_P15_T5  BAL_P15_T5  1
    X_P15_T5  CAP_M0_T5  0.8
    X_P15_T5  CAP_M1_T5  0.8
    X_P15_T5  CAP_M2_T5  2.4
    X_P15_T5  CAP_M3_T5  2.3
    X_P15_T5  CAP_M4_T5  1.8
    X_P15_T5  CAP_M5_T5  0.8
    X_P15_T5  CAP_M6_T5  0.8
    X_P15_T5  CAP_M7_T5  1.4
    X_P15_T5  CAP_M8_T5  1.3
    X_P15_T5  CAP_M9_T5  1.8
    X_P15_T5  CAP_M10_T5  2.1
    X_P15_T5  CAP_M11_T5  1.5
    X_P16_T5  COST      20.9
    X_P16_T5  BAL_P16_T5  1
    X_P16_T5  CAP_M0_T5  1.1
    X_P16_T5  CAP_M1_T5  0.5
    X_P16_T5  CAP_M2_T5  1.2
    X_P16_T5  CAP_M3_T5  2.8
    X_P16_T5  CAP_M4_T5  1.1
    X_P16_T5  CAP_M5_T5  1
    X_P16_T5  CAP_M6_T5  1.8
    X_P16_T5  CAP_M7_T5  1.8
    X_P16_T5  CAP_M8_T5  2.5
    X_P16_T5  CAP_M9_T5  1.6
    X_P16_T5  CAP_M10_T5  2.7
    X_P16_T5  CAP_M11_T5  1.3
    X_P17_T5  COST      47.1
    X_P17_T5  BAL_P17_T5  1
    X_P17_T5  CAP_M0_T5  1.8
    X_P17_T5  CAP_M1_T5  2.2
    X_P17_T5  CAP_M2_T5  2.7
    X_P17_T5  CAP_M3_T5  2.2
    X_P17_T5  CAP_M4_T5  1.2
    X_P17_T5  CAP_M5_T5  1.3
    X_P17_T5  CAP_M6_T5  0.7
    X_P17_T5  CAP_M7_T5  1.3
    X_P17_T5  CAP_M8_T5  2.8
    X_P17_T5  CAP_M9_T5  1.4
    X_P17_T5  CAP_M10_T5  2.7
    X_P17_T5  CAP_M11_T5  2.2
    X_P18_T5  COST      35.7
    X_P18_T5  BAL_P18_T5  1
    X_P18_T5  CAP_M0_T5  1.3
    X_P18_T5  CAP_M1_T5  2.9
    X_P18_T5  CAP_M2_T5  1.7
    X_P18_T5  CAP_M3_T5  0.5
    X_P18_T5  CAP_M4_T5  2.4
    X_P18_T5  CAP_M5_T5  2.9
    X_P18_T5  CAP_M6_T5  2.1
    X_P18_T5  CAP_M7_T5  2.7
    X_P18_T5  CAP_M8_T5  1.4
    X_P18_T5  CAP_M9_T5  0.5
    X_P18_T5  CAP_M10_T5  2.1
    X_P18_T5  CAP_M11_T5  1.1
    X_P19_T5  COST      45.3
    X_P19_T5  BAL_P19_T5  1
    X_P19_T5  CAP_M0_T5  2.2
    X_P19_T5  CAP_M1_T5  2.8
    X_P19_T5  CAP_M2_T5  1.6
    X_P19_T5  CAP_M3_T5  2.6
    X_P19_T5  CAP_M4_T5  1.7
    X_P19_T5  CAP_M5_T5  1.3
    X_P19_T5  CAP_M6_T5  1
    X_P19_T5  CAP_M7_T5  1.5
    X_P19_T5  CAP_M8_T5  0.6
    X_P19_T5  CAP_M9_T5  2.8
    X_P19_T5  CAP_M10_T5  0.8
    X_P19_T5  CAP_M11_T5  0.8
    X_P20_T5  COST      24.7
    X_P20_T5  BAL_P20_T5  1
    X_P20_T5  CAP_M0_T5  1.2
    X_P20_T5  CAP_M1_T5  2
    X_P20_T5  CAP_M2_T5  1.4
    X_P20_T5  CAP_M3_T5  2.3
    X_P20_T5  CAP_M4_T5  1.5
    X_P20_T5  CAP_M5_T5  1.6
    X_P20_T5  CAP_M6_T5  2.6
    X_P20_T5  CAP_M7_T5  2.1
    X_P20_T5  CAP_M8_T5  1.2
    X_P20_T5  CAP_M9_T5  1
    X_P20_T5  CAP_M10_T5  2.3
    X_P20_T5  CAP_M11_T5  1.8
    X_P21_T5  COST      22.7
    X_P21_T5  BAL_P21_T5  1
    X_P21_T5  CAP_M0_T5  2.4
    X_P21_T5  CAP_M1_T5  1.9
    X_P21_T5  CAP_M2_T5  2.9
    X_P21_T5  CAP_M3_T5  2.7
    X_P21_T5  CAP_M4_T5  2.7
    X_P21_T5  CAP_M5_T5  1.7
    X_P21_T5  CAP_M6_T5  2.8
    X_P21_T5  CAP_M7_T5  2.5
    X_P21_T5  CAP_M8_T5  3
    X_P21_T5  CAP_M9_T5  2.7
    X_P21_T5  CAP_M10_T5  2.4
    X_P21_T5  CAP_M11_T5  2.4
    X_P22_T5  COST      28.2
    X_P22_T5  BAL_P22_T5  1
    X_P22_T5  CAP_M0_T5  0.6
    X_P22_T5  CAP_M1_T5  2.9
    X_P22_T5  CAP_M2_T5  2.1
    X_P22_T5  CAP_M3_T5  2.1
    X_P22_T5  CAP_M4_T5  2
    X_P22_T5  CAP_M5_T5  2.4
    X_P22_T5  CAP_M6_T5  2.2
    X_P22_T5  CAP_M7_T5  0.7
    X_P22_T5  CAP_M8_T5  0.5
    X_P22_T5  CAP_M9_T5  1.8
    X_P22_T5  CAP_M10_T5  1.1
    X_P22_T5  CAP_M11_T5  2.6
    X_P23_T5  COST      26.4
    X_P23_T5  BAL_P23_T5  1
    X_P23_T5  CAP_M0_T5  2.9
    X_P23_T5  CAP_M1_T5  1.2
    X_P23_T5  CAP_M2_T5  1.8
    X_P23_T5  CAP_M3_T5  1.8
    X_P23_T5  CAP_M4_T5  1.5
    X_P23_T5  CAP_M5_T5  0.5
    X_P23_T5  CAP_M6_T5  2.8
    X_P23_T5  CAP_M7_T5  1.9
    X_P23_T5  CAP_M8_T5  2.2
    X_P23_T5  CAP_M9_T5  2.9
    X_P23_T5  CAP_M10_T5  2.1
    X_P23_T5  CAP_M11_T5  2.2
    X_P24_T5  COST      49.7
    X_P24_T5  BAL_P24_T5  1
    X_P24_T5  CAP_M0_T5  1.1
    X_P24_T5  CAP_M1_T5  2.5
    X_P24_T5  CAP_M2_T5  1.3
    X_P24_T5  CAP_M3_T5  2.8
    X_P24_T5  CAP_M4_T5  1.1
    X_P24_T5  CAP_M5_T5  2
    X_P24_T5  CAP_M6_T5  1.4
    X_P24_T5  CAP_M7_T5  0.5
    X_P24_T5  CAP_M8_T5  1.2
    X_P24_T5  CAP_M9_T5  2.4
    X_P24_T5  CAP_M10_T5  0.6
    X_P24_T5  CAP_M11_T5  1.9
    S_P0_T5   COST      2.8
    S_P0_T5   BAL_P0_T5  -1
    S_P0_T5   STORAGE_T5  1
    S_P0_T5   BAL_P0_T6  1
    S_P1_T5   COST      2.6
    S_P1_T5   BAL_P1_T5  -1
    S_P1_T5   STORAGE_T5  1
    S_P1_T5   BAL_P1_T6  1
    S_P2_T5   COST      4.3
    S_P2_T5   BAL_P2_T5  -1
    S_P2_T5   STORAGE_T5  1
    S_P2_T5   BAL_P2_T6  1
    S_P3_T5   COST      1.2
    S_P3_T5   BAL_P3_T5  -1
    S_P3_T5   STORAGE_T5  1
    S_P3_T5   BAL_P3_T6  1
    S_P4_T5   COST      3.5
    S_P4_T5   BAL_P4_T5  -1
    S_P4_T5   STORAGE_T5  1
    S_P4_T5   BAL_P4_T6  1
    S_P5_T5   COST      1.5
    S_P5_T5   BAL_P5_T5  -1
    S_P5_T5   STORAGE_T5  1
    S_P5_T5   BAL_P5_T6  1
    S_P6_T5   COST      4.1
    S_P6_T5   BAL_P6_T5  -1
    S_P6_T5   STORAGE_T5  1
    S_P6_T5   BAL_P6_T6  1
    S_P7_T5   COST      3.8
    S_P7_T5   BAL_P7_T5  -1
    S_P7_T5   STORAGE_T5  1
    S_P7_T5   BAL_P7_T6  1
    S_P8_T5   COST      3.8
    S_P8_T5   BAL_P8_T5  -1
    S_P8_T5   STORAGE_T5  1
    S_P8_T5   BAL_P8_T6  1
    S_P9_T5   COST      2.3
    S_P9_T5   BAL_P9_T5  -1
    S_P9_T5   STORAGE_T5  1
    S_P9_T5   BAL_P9_T6  1
    S_P10_T5  COST      3.2
    S_P10_T5  BAL_P10_T5  -1
    S_P10_T5  STORAGE_T5  1
    S_P10_T5  BAL_P10_T6  1
    S_P11_T5  COST      2.9
    S_P11_T5  BAL_P11_T5  -1
    S_P11_T5  STORAGE_T5  1
    S_P11_T5  BAL_P11_T6  1
    S_P12_T5  COST      1.9
    S_P12_T5  BAL_P12_T5  -1
    S_P12_T5  STORAGE_T5  1
    S_P12_T5  BAL_P12_T6  1
    S_P13_T5  COST      3.5
    S_P13_T5  BAL_P13_T5  -1
    S_P13_T5  STORAGE_T5  1
    S_P13_T5  BAL_P13_T6  1
    S_P14_T5  COST      2.7
    S_P14_T5  BAL_P14_T5  -1
    S_P14_T5  STORAGE_T5  1
    S_P14_T5  BAL_P14_T6  1
    S_P15_T5  COST      1.8
    S_P15_T5  BAL_P15_T5  -1
    S_P15_T5  STORAGE_T5  1
    S_P15_T5  BAL_P15_T6  1
    S_P16_T5  COST      4.8
    S_P16_T5  BAL_P16_T5  -1
    S_P16_T5  STORAGE_T5  1
    S_P16_T5  BAL_P16_T6  1
    S_P17_T5  COST      2.2
    S_P17_T5  BAL_P17_T5  -1
    S_P17_T5  STORAGE_T5  1
    S_P17_T5  BAL_P17_T6  1
    S_P18_T5  COST      4.4
    S_P18_T5  BAL_P18_T5  -1
    S_P18_T5  STORAGE_T5  1
    S_P18_T5  BAL_P18_T6  1
    S_P19_T5  COST      1.8
    S_P19_T5  BAL_P19_T5  -1
    S_P19_T5  STORAGE_T5  1
    S_P19_T5  BAL_P19_T6  1
    S_P20_T5  COST      2.1
    S_P20_T5  BAL_P20_T5  -1
    S_P20_T5  STORAGE_T5  1
    S_P20_T5  BAL_P20_T6  1
    S_P21_T5  COST      1.8
    S_P21_T5  BAL_P21_T5  -1
    S_P21_T5  STORAGE_T5  1
    S_P21_T5  BAL_P21_T6  1
    S_P22_T5  COST      1.6
    S_P22_T5  BAL_P22_T5  -1
    S_P22_T5  STORAGE_T5  1
    S_P22_T5  BAL_P22_T6  1
    S_P23_T5  COST      4.6
    S_P23_T5  BAL_P23_T5  -1
    S_P23_T5  STORAGE_T5  1
    S_P23_T5  BAL_P23_T6  1
    S_P24_T5  COST      4.8
    S_P24_T5  BAL_P24_T5  -1
    S_P24_T5  STORAGE_T5  1
    S_P24_T5  BAL_P24_T6  1
    X_P0_T6   COST      35
    X_P0_T6   BAL_P0_T6  1
    X_P0_T6   CAP_M0_T6  1.4
    X_P0_T6   CAP_M1_T6  2.4
    X_P0_T6   CAP_M2_T6  0.5
    X_P0_T6   CAP_M3_T6  1
    X_P0_T6   CAP_M4_T6  1.3
    X_P0_T6   CAP_M5_T6  0.8
    X_P0_T6   CAP_M6_T6  1
    X_P0_T6   CAP_M7_T6  1.7
    X_P0_T6   CAP_M8_T6  0.7
    X_P0_T6   CAP_M9_T6  1.5
    X_P0_T6   CAP_M10_T6  2.4
    X_P0_T6   CAP_M11_T6  0.9
    X_P1_T6   COST      20.4
    X_P1_T6   BAL_P1_T6  1
    X_P1_T6   CAP_M0_T6  1
    X_P1_T6   CAP_M1_T6  2.2
    X_P1_T6   CAP_M2_T6  1
    X_P1_T6   CAP_M3_T6  2.4
    X_P1_T6   CAP_M4_T6  3
    X_P1_T6   CAP_M5_T6  2.2
    X_P1_T6   CAP_M6_T6  2.7
    X_P1_T6   CAP_M7_T6  1.4
    X_P1_T6   CAP_M8_T6  1.9
    X_P1_T6   CAP_M9_T6  0.9
    X_P1_T6   CAP_M10_T6  2.9
    X_P1_T6   CAP_M11_T6  2.2
    X_P2_T6   COST      27.1
    X_P2_T6   BAL_P2_T6  1
    X_P2_T6   CAP_M0_T6  2.6
    X_P2_T6   CAP_M1_T6  1.4
    X_P2_T6   CAP_M2_T6  0.8
    X_P2_T6   CAP_M3_T6  2.3
    X_P2_T6   CAP_M4_T6  2.5
    X_P2_T6   CAP_M5_T6  1
    X_P2_T6   CAP_M6_T6  1.2
    X_P2_T6   CAP_M7_T6  1
    X_P2_T6   CAP_M8_T6  1.1
    X_P2_T6   CAP_M9_T6  1.9
    X_P2_T6   CAP_M10_T6  3
    X_P2_T6   CAP_M11_T6  0.8
    X_P3_T6   COST      34
    X_P3_T6   BAL_P3_T6  1
    X_P3_T6   CAP_M0_T6  1.8
    X_P3_T6   CAP_M1_T6  2.8
    X_P3_T6   CAP_M2_T6  2.1
    X_P3_T6   CAP_M3_T6  1.6
    X_P3_T6   CAP_M4_T6  1.1
    X_P3_T6   CAP_M5_T6  0.7
    X_P3_T6   CAP_M6_T6  2
    X_P3_T6   CAP_M7_T6  2.7
    X_P3_T6   CAP_M8_T6  1.9
    X_P3_T6   CAP_M9_T6  2.6
    X_P3_T6   CAP_M10_T6  2.1
    X_P3_T6   CAP_M11_T6  2.3
    X_P4_T6   COST      40.3
    X_P4_T6   BAL_P4_T6  1
    X_P4_T6   CAP_M0_T6  1.9
    X_P4_T6   CAP_M1_T6  2
    X_P4_T6   CAP_M2_T6  2.5
    X_P4_T6   CAP_M3_T6  2.7
    X_P4_T6   CAP_M4_T6  2.1
    X_P4_T6   CAP_M5_T6  1.2
    X_P4_T6   CAP_M6_T6  1.6
    X_P4_T6   CAP_M7_T6  1.6
    X_P4_T6   CAP_M8_T6  2.1
    X_P4_T6   CAP_M9_T6  1.7
    X_P4_T6   CAP_M10_T6  0.8
    X_P4_T6   CAP_M11_T6  1.6
    X_P5_T6   COST      32.8
    X_P5_T6   BAL_P5_T6  1
    X_P5_T6   CAP_M0_T6  2.1
    X_P5_T6   CAP_M1_T6  0.7
    X_P5_T6   CAP_M2_T6  2.9
    X_P5_T6   CAP_M3_T6  1.3
    X_P5_T6   CAP_M4_T6  2.6
    X_P5_T6   CAP_M5_T6  1.9
    X_P5_T6   CAP_M6_T6  2.4
    X_P5_T6   CAP_M7_T6  1.8
    X_P5_T6   CAP_M8_T6  1.4
    X_P5_T6   CAP_M9_T6  0.7
    X_P5_T6   CAP_M10_T6  0.6
    X_P5_T6   CAP_M11_T6  2.9
    X_P6_T6   COST      12.2
    X_P6_T6   BAL_P6_T6  1
    X_P6_T6   CAP_M0_T6  1.3
    X_P6_T6   CAP_M1_T6  1.8
    X_P6_T6   CAP_M2_T6  2.5
    X_P6_T6   CAP_M3_T6  2.2
    X_P6_T6   CAP_M4_T6  0.7
    X_P6_T6   CAP_M5_T6  1.5
    X_P6_T6   CAP_M6_T6  0.6
    X_P6_T6   CAP_M7_T6  1.9
    X_P6_T6   CAP_M8_T6  1.3
    X_P6_T6   CAP_M9_T6  2.1
    X_P6_T6   CAP_M10_T6  2.4
    X_P6_T6   CAP_M11_T6  1.1
    X_P7_T6   COST      33.2
    X_P7_T6   BAL_P7_T6  1
    X_P7_T6   CAP_M0_T6  1.1
    X_P7_T6   CAP_M1_T6  2.2
    X_P7_T6   CAP_M2_T6  2.5
    X_P7_T6   CAP_M3_T6  2.9
    X_P7_T6   CAP_M4_T6  1
    X_P7_T6   CAP_M5_T6  2.9
    X_P7_T6   CAP_M6_T6  2.4
    X_P7_T6   CAP_M7_T6  1.6
    X_P7_T6   CAP_M8_T6  1.4
    X_P7_T6   CAP_M9_T6  0.6
    X_P7_T6   CAP_M10_T6  1.6
    X_P7_T6   CAP_M11_T6  1.7
    X_P8_T6   COST      38.6
    X_P8_T6   BAL_P8_T6  1
    X_P8_T6   CAP_M0_T6  1.8
    X_P8_T6   CAP_M1_T6  0.7
    X_P8_T6   CAP_M2_T6  2.7
    X_P8_T6   CAP_M3_T6  2.3
    X_P8_T6   CAP_M4_T6  1.6
    X_P8_T6   CAP_M5_T6  1.3
    X_P8_T6   CAP_M6_T6  2.9
    X_P8_T6   CAP_M7_T6  1.1
    X_P8_T6   CAP_M8_T6  1.5
    X_P8_T6   CAP_M9_T6  2.1
    X_P8_T6   CAP_M10_T6  1.6
    X_P8_T6   CAP_M11_T6  0.7
    X_P9_T6   COST      13.7
    X_P9_T6   BAL_P9_T6  1
    X_P9_T6   CAP_M0_T6  1.3
    X_P9_T6   CAP_M1_T6  2.8
    X_P9_T6   CAP_M2_T6  1.3
    X_P9_T6   CAP_M3_T6  0.6
    X_P9_T6   CAP_M4_T6  1.7
    X_P9_T6   CAP_M5_T6  2.5
    X_P9_T6   CAP_M6_T6  1
    X_P9_T6   CAP_M7_T6  2.5
    X_P9_T6   CAP_M8_T6  2.7
    X_P9_T6   CAP_M9_T6  1.1
    X_P9_T6   CAP_M10_T6  1.8
    X_P9_T6   CAP_M11_T6  2.8
    X_P10_T6  COST      27.1
    X_P10_T6  BAL_P10_T6  1
    X_P10_T6  CAP_M0_T6  0.8
    X_P10_T6  CAP_M1_T6  0.8
    X_P10_T6  CAP_M2_T6  1.3
    X_P10_T6  CAP_M3_T6  0.8
    X_P10_T6  CAP_M4_T6  0.7
    X_P10_T6  CAP_M5_T6  1.7
    X_P10_T6  CAP_M6_T6  1.4
    X_P10_T6  CAP_M7_T6  1.3
    X_P10_T6  CAP_M8_T6  2.9
    X_P10_T6  CAP_M9_T6  1.6
    X_P10_T6  CAP_M10_T6  2.9
    X_P10_T6  CAP_M11_T6  0.7
    X_P11_T6  COST      25.9
    X_P11_T6  BAL_P11_T6  1
    X_P11_T6  CAP_M0_T6  2.4
    X_P11_T6  CAP_M1_T6  1.8
    X_P11_T6  CAP_M2_T6  1.8
    X_P11_T6  CAP_M3_T6  1.5
    X_P11_T6  CAP_M4_T6  2.8
    X_P11_T6  CAP_M5_T6  1.4
    X_P11_T6  CAP_M6_T6  0.7
    X_P11_T6  CAP_M7_T6  0.7
    X_P11_T6  CAP_M8_T6  2
    X_P11_T6  CAP_M9_T6  1.5
    X_P11_T6  CAP_M10_T6  1.7
    X_P11_T6  CAP_M11_T6  2.8
    X_P12_T6  COST      15.1
    X_P12_T6  BAL_P12_T6  1
    X_P12_T6  CAP_M0_T6  2.4
    X_P12_T6  CAP_M1_T6  2.3
    X_P12_T6  CAP_M2_T6  1.7
    X_P12_T6  CAP_M3_T6  2
    X_P12_T6  CAP_M4_T6  1.9
    X_P12_T6  CAP_M5_T6  1.2
    X_P12_T6  CAP_M6_T6  1.7
    X_P12_T6  CAP_M7_T6  1.4
    X_P12_T6  CAP_M8_T6  2
    X_P12_T6  CAP_M9_T6  1.6
    X_P12_T6  CAP_M10_T6  1.3
    X_P12_T6  CAP_M11_T6  2.7
    X_P13_T6  COST      41.3
    X_P13_T6  BAL_P13_T6  1
    X_P13_T6  CAP_M0_T6  2.2
    X_P13_T6  CAP_M1_T6  0.8
    X_P13_T6  CAP_M2_T6  2.7
    X_P13_T6  CAP_M3_T6  2.1
    X_P13_T6  CAP_M4_T6  1.8
    X_P13_T6  CAP_M5_T6  1.2
    X_P13_T6  CAP_M6_T6  1
    X_P13_T6  CAP_M7_T6  1.2
    X_P13_T6  CAP_M8_T6  1.8
    X_P13_T6  CAP_M9_T6  1
    X_P13_T6  CAP_M10_T6  1.3
    X_P13_T6  CAP_M11_T6  1.2
    X_P14_T6  COST      35.5
    X_P14_T6  BAL_P14_T6  1
    X_P14_T6  CAP_M0_T6  1.1
    X_P14_T6  CAP_M1_T6  1.8
    X_P14_T6  CAP_M2_T6  1.9
    X_P14_T6  CAP_M3_T6  1.4
    X_P14_T6  CAP_M4_T6  1.5
    X_P14_T6  CAP_M5_T6  1.9
    X_P14_T6  CAP_M6_T6  2.7
    X_P14_T6  CAP_M7_T6  0.8
    X_P14_T6  CAP_M8_T6  1.7
    X_P14_T6  CAP_M9_T6  2.2
    X_P14_T6  CAP_M10_T6  2.7
    X_P14_T6  CAP_M11_T6  1.2
    X_P15_T6  COST      36.3
    X_P15_T6  BAL_P15_T6  1
    X_P15_T6  CAP_M0_T6  0.8
    X_P15_T6  CAP_M1_T6  0.8
    X_P15_T6  CAP_M2_T6  2.4
    X_P15_T6  CAP_M3_T6  2.3
    X_P15_T6  CAP_M4_T6  1.8
    X_P15_T6  CAP_M5_T6  0.8
    X_P15_T6  CAP_M6_T6  0.8
    X_P15_T6  CAP_M7_T6  1.4
    X_P15_T6  CAP_M8_T6  1.3
    X_P15_T6  CAP_M9_T6  1.8
    X_P15_T6  CAP_M10_T6  2.1
    X_P15_T6  CAP_M11_T6  1.5
    X_P16_T6  COST      34.4
    X_P16_T6  BAL_P16_T6  1
    X_P16_T6  CAP_M0_T6  1.1
    X_P16_T6  CAP_M1_T6  0.5
    X_P16_T6  CAP_M2_T6  1.2
    X_P16_T6  CAP_M3_T6  2.8
    X_P16_T6  CAP_M4_T6  1.1
    X_P16_T6  CAP_M5_T6  1
    X_P16_T6  CAP_M6_T6  1.8
    X_P16_T6  CAP_M7_T6  1.8
    X_P16_T6  CAP_M8_T6  2.5
    X_P16_T6  CAP_M9_T6  1.6
    X_P16_T6  CAP_M10_T6  2.7
    X_P16_T6  CAP_M11_T6  1.3
    X_P17_T6  COST      23.7
    X_P17_T6  BAL_P17_T6  1
    X_P17_T6  CAP_M0_T6  1.8
    X_P17_T6  CAP_M1_T6  2.2
    X_P17_T6  CAP_M2_T6  2.7
    X_P17_T6  CAP_M3_T6  2.2
    X_P17_T6  CAP_M4_T6  1.2
    X_P17_T6  CAP_M5_T6  1.3
    X_P17_T6  CAP_M6_T6  0.7
    X_P17_T6  CAP_M7_T6  1.3
    X_P17_T6  CAP_M8_T6  2.8
    X_P17_T6  CAP_M9_T6  1.4
    X_P17_T6  CAP_M10_T6  2.7
    X_P17_T6  CAP_M11_T6  2.2
    X_P18_T6  COST      17.5
    X_P18_T6  BAL_P18_T6  1
    X_P18_T6  CAP_M0_T6  1.3
    X_P18_T6  CAP_M1_T6  2.9
    X_P18_T6  CAP_M2_T6  1.7
    X_P18_T6  CAP_M3_T6  0.5
    X_P18_T6  CAP_M4_T6  2.4
    X_P18_T6  CAP_M5_T6  2.9
    X_P18_T6  CAP_M6_T6  2.1
    X_P18_T6  CAP_M7_T6  2.7
    X_P18_T6  CAP_M8_T6  1.4
    X_P18_T6  CAP_M9_T6  0.5
    X_P18_T6  CAP_M10_T6  2.1
    X_P18_T6  CAP_M11_T6  1.1
    X_P19_T6  COST      29.4
    X_P19_T6  BAL_P19_T6  1
    X_P19_T6  CAP_M0_T6  2.2
    X_P19_T6  CAP_M1_T6  2.8
    X_P19_T6  CAP_M2_T6  1.6
    X_P19_T6  CAP_M3_T6  2.6
    X_P19_T6  CAP_M4_T6  1.7
    X_P19_T6  CAP_M5_T6  1.3
    X_P19_T6  CAP_M6_T6  1
    X_P19_T6  CAP_M7_T6  1.5
    X_P19_T6  CAP_M8_T6  0.6
    X_P19_T6  CAP_M9_T6  2.8
    X_P19_T6  CAP_M10_T6  0.8
    X_P19_T6  CAP_M11_T6  0.8
    X_P20_T6  COST      38.6
    X_P20_T6  BAL_P20_T6  1
    X_P20_T6  CAP_M0_T6  1.2
    X_P20_T6  CAP_M1_T6  2
    X_P20_T6  CAP_M2_T6  1.4
    X_P20_T6  CAP_M3_T6  2.3
    X_P20_T6  CAP_M4_T6  1.5
    X_P20_T6  CAP_M5_T6  1.6
    X_P20_T6  CAP_M6_T6  2.6
    X_P20_T6  CAP_M7_T6  2.1
    X_P20_T6  CAP_M8_T6  1.2
    X_P20_T6  CAP_M9_T6  1
    X_P20_T6  CAP_M10_T6  2.3
    X_P20_T6  CAP_M11_T6  1.8
    X_P21_T6  COST      29.4
    X_P21_T6  BAL_P21_T6  1
    X_P21_T6  CAP_M0_T6  2.4
    X_P21_T6  CAP_M1_T6  1.9
    X_P21_T6  CAP_M2_T6  2.9
    X_P21_T6  CAP_M3_T6  2.7
    X_P21_T6  CAP_M4_T6  2.7
    X_P21_T6  CAP_M5_T6  1.7
    X_P21_T6  CAP_M6_T6  2.8
    X_P21_T6  CAP_M7_T6  2.5
    X_P21_T6  CAP_M8_T6  3
    X_P21_T6  CAP_M9_T6  2.7
    X_P21_T6  CAP_M10_T6  2.4
    X_P21_T6  CAP_M11_T6  2.4
    X_P22_T6  COST      34.7
    X_P22_T6  BAL_P22_T6  1
    X_P22_T6  CAP_M0_T6  0.6
    X_P22_T6  CAP_M1_T6  2.9
    X_P22_T6  CAP_M2_T6  2.1
    X_P22_T6  CAP_M3_T6  2.1
    X_P22_T6  CAP_M4_T6  2
    X_P22_T6  CAP_M5_T6  2.4
    X_P22_T6  CAP_M6_T6  2.2
    X_P22_T6  CAP_M7_T6  0.7
    X_P22_T6  CAP_M8_T6  0.5
    X_P22_T6  CAP_M9_T6  1.8
    X_P22_T6  CAP_M10_T6  1.1
    X_P22_T6  CAP_M11_T6  2.6
    X_P23_T6  COST      18
    X_P23_T6  BAL_P23_T6  1
    X_P23_T6  CAP_M0_T6  2.9
    X_P23_T6  CAP_M1_T6  1.2
    X_P23_T6  CAP_M2_T6  1.8
    X_P23_T6  CAP_M3_T6  1.8
    X_P23_T6  CAP_M4_T6  1.5
    X_P23_T6  CAP_M5_T6  0.5
    X_P23_T6  CAP_M6_T6  2.8
    X_P23_T6  CAP_M7_T6  1.9
    X_P23_T6  CAP_M8_T6  2.2
    X_P23_T6  CAP_M9_T6  2.9
    X_P23_T6  CAP_M10_T6  2.1
    X_P23_T6  CAP_M11_T6  2.2
    X_P24_T6  COST      28.3
    X_P24_T6  BAL_P24_T6  1
    X_P24_T6  CAP_M0_T6  1.1
    X_P24_T6  CAP_M1_T6  2.5
    X_P24_T6  CAP_M2_T6  1.3
    X_P24_T6  CAP_M3_T6  2.8
    X_P24_T6  CAP_M4_T6  1.1
    X_P24_T6  CAP_M5_T6  2
    X_P24_T6  CAP_M6_T6  1.4
    X_P24_T6  CAP_M7_T6  0.5
    X_P24_T6  CAP_M8_T6  1.2
    X_P24_T6  CAP_M9_T6  2.4
    X_P24_T6  CAP_M10_T6  0.6
    X_P24_T6  CAP_M11_T6  1.9
    S_P0_T6   COST      4.7
    S_P0_T6   BAL_P0_T6  -1
    S_P0_T6   STORAGE_T6  1
    S_P0_T6   BAL_P0_T7  1
    S_P1_T6   COST      3.3
    S_P1_T6   BAL_P1_T6  -1
    S_P1_T6   STORAGE_T6  1
    S_P1_T6   BAL_P1_T7  1
    S_P2_T6   COST      4.6
    S_P2_T6   BAL_P2_T6  -1
    S_P2_T6   STORAGE_T6  1
    S_P2_T6   BAL_P2_T7  1
    S_P3_T6   COST      3
    S_P3_T6   BAL_P3_T6  -1
    S_P3_T6   STORAGE_T6  1
    S_P3_T6   BAL_P3_T7  1
    S_P4_T6   COST      3.2
    S_P4_T6   BAL_P4_T6  -1
    S_P4_T6   STORAGE_T6  1
    S_P4_T6   BAL_P4_T7  1
    S_P5_T6   COST      4.3
    S_P5_T6   BAL_P5_T6  -1
    S_P5_T6   STORAGE_T6  1
    S_P5_T6   BAL_P5_T7  1
    S_P6_T6   COST      3.2
    S_P6_T6   BAL_P6_T6  -1
    S_P6_T6   STORAGE_T6  1
    S_P6_T6   BAL_P6_T7  1
    S_P7_T6   COST      3.9
    S_P7_T6   BAL_P7_T6  -1
    S_P7_T6   STORAGE_T6  1
    S_P7_T6   BAL_P7_T7  1
    S_P8_T6   COST      3.6
    S_P8_T6   BAL_P8_T6  -1
    S_P8_T6   STORAGE_T6  1
    S_P8_T6   BAL_P8_T7  1
    S_P9_T6   COST      4.4
    S_P9_T6   BAL_P9_T6  -1
    S_P9_T6   STORAGE_T6  1
    S_P9_T6   BAL_P9_T7  1
    S_P10_T6  COST      4.7
    S_P10_T6  BAL_P10_T6  -1
    S_P10_T6  STORAGE_T6  1
    S_P10_T6  BAL_P10_T7  1
    S_P11_T6  COST      3
    S_P11_T6  BAL_P11_T6  -1
    S_P11_T6  STORAGE_T6  1
    S_P11_T6  BAL_P11_T7  1
    S_P12_T6  COST      4.6
    S_P12_T6  BAL_P12_T6  -1
    S_P12_T6  STORAGE_T6  1
    S_P12_T6  BAL_P12_T7  1
    S_P13_T6  COST      3.7
    S_P13_T6  BAL_P13_T6  -1
    S_P13_T6  STORAGE_T6  1
    S_P13_T6  BAL_P13_T7  1
    S_P14_T6  COST      1.1
    S_P14_T6  BAL_P14_T6  -1
    S_P14_T6  STORAGE_T6  1
    S_P14_T6  BAL_P14_T7  1
    S_P15_T6  COST      3.6
    S_P15_T6  BAL_P15_T6  -1
    S_P15_T6  STORAGE_T6  1
    S_P15_T6  BAL_P15_T7  1
    S_P16_T6  COST      4.3
    S_P16_T6  BAL_P16_T6  -1
    S_P16_T6  STORAGE_T6  1
    S_P16_T6  BAL_P16_T7  1
    S_P17_T6  COST      1.8
    S_P17_T6  BAL_P17_T6  -1
    S_P17_T6  STORAGE_T6  1
    S_P17_T6  BAL_P17_T7  1
    S_P18_T6  COST      3.7
    S_P18_T6  BAL_P18_T6  -1
    S_P18_T6  STORAGE_T6  1
    S_P18_T6  BAL_P18_T7  1
    S_P19_T6  COST      2.2
    S_P19_T6  BAL_P19_T6  -1
    S_P19_T6  STORAGE_T6  1
    S_P19_T6  BAL_P19_T7  1
    S_P20_T6  COST      1.4
    S_P20_T6  BAL_P20_T6  -1
    S_P20_T6  STORAGE_T6  1
    S_P20_T6  BAL_P20_T7  1
    S_P21_T6  COST      2.2
    S_P21_T6  BAL_P21_T6  -1
    S_P21_T6  STORAGE_T6  1
    S_P21_T6  BAL_P21_T7  1
    S_P22_T6  COST      1.8
    S_P22_T6  BAL_P22_T6  -1
    S_P22_T6  STORAGE_T6  1
    S_P22_T6  BAL_P22_T7  1
    S_P23_T6  COST      2.6
    S_P23_T6  BAL_P23_T6  -1
    S_P23_T6  STORAGE_T6  1
    S_P23_T6  BAL_P23_T7  1
    S_P24_T6  COST      1.9
    S_P24_T6  BAL_P24_T6  -1
    S_P24_T6  STORAGE_T6  1
    S_P24_T6  BAL_P24_T7  1
    X_P0_T7   COST      17.1
    X_P0_T7   BAL_P0_T7  1
    X_P0_T7   CAP_M0_T7  1.4
    X_P0_T7   CAP_M1_T7  2.4
    X_P0_T7   CAP_M2_T7  0.5
    X_P0_T7   CAP_M3_T7  1
    X_P0_T7   CAP_M4_T7  1.3
    X_P0_T7   CAP_M5_T7  0.8
    X_P0_T7   CAP_M6_T7  1
    X_P0_T7   CAP_M7_T7  1.7
    X_P0_T7   CAP_M8_T7  0.7
    X_P0_T7   CAP_M9_T7  1.5
    X_P0_T7   CAP_M10_T7  2.4
    X_P0_T7   CAP_M11_T7  0.9
    X_P1_T7   COST      48.7
    X_P1_T7   BAL_P1_T7  1
    X_P1_T7   CAP_M0_T7  1
    X_P1_T7   CAP_M1_T7  2.2
    X_P1_T7   CAP_M2_T7  1
    X_P1_T7   CAP_M3_T7  2.4
    X_P1_T7   CAP_M4_T7  3
    X_P1_T7   CAP_M5_T7  2.2
    X_P1_T7   CAP_M6_T7  2.7
    X_P1_T7   CAP_M7_T7  1.4
    X_P1_T7   CAP_M8_T7  1.9
    X_P1_T7   CAP_M9_T7  0.9
    X_P1_T7   CAP_M10_T7  2.9
    X_P1_T7   CAP_M11_T7  2.2
    X_P2_T7   COST      41.6
    X_P2_T7   BAL_P2_T7  1
    X_P2_T7   CAP_M0_T7  2.6
    X_P2_T7   CAP_M1_T7  1.4
    X_P2_T7   CAP_M2_T7  0.8
    X_P2_T7   CAP_M3_T7  2.3
    X_P2_T7   CAP_M4_T7  2.5
    X_P2_T7   CAP_M5_T7  1
    X_P2_T7   CAP_M6_T7  1.2
    X_P2_T7   CAP_M7_T7  1
    X_P2_T7   CAP_M8_T7  1.1
    X_P2_T7   CAP_M9_T7  1.9
    X_P2_T7   CAP_M10_T7  3
    X_P2_T7   CAP_M11_T7  0.8
    X_P3_T7   COST      38.3
    X_P3_T7   BAL_P3_T7  1
    X_P3_T7   CAP_M0_T7  1.8
    X_P3_T7   CAP_M1_T7  2.8
    X_P3_T7   CAP_M2_T7  2.1
    X_P3_T7   CAP_M3_T7  1.6
    X_P3_T7   CAP_M4_T7  1.1
    X_P3_T7   CAP_M5_T7  0.7
    X_P3_T7   CAP_M6_T7  2
    X_P3_T7   CAP_M7_T7  2.7
    X_P3_T7   CAP_M8_T7  1.9
    X_P3_T7   CAP_M9_T7  2.6
    X_P3_T7   CAP_M10_T7  2.1
    X_P3_T7   CAP_M11_T7  2.3
    X_P4_T7   COST      25.7
    X_P4_T7   BAL_P4_T7  1
    X_P4_T7   CAP_M0_T7  1.9
    X_P4_T7   CAP_M1_T7  2
    X_P4_T7   CAP_M2_T7  2.5
    X_P4_T7   CAP_M3_T7  2.7
    X_P4_T7   CAP_M4_T7  2.1
    X_P4_T7   CAP_M5_T7  1.2
    X_P4_T7   CAP_M6_T7  1.6
    X_P4_T7   CAP_M7_T7  1.6
    X_P4_T7   CAP_M8_T7  2.1
    X_P4_T7   CAP_M9_T7  1.7
    X_P4_T7   CAP_M10_T7  0.8
    X_P4_T7   CAP_M11_T7  1.6
    X_P5_T7   COST      39.6
    X_P5_T7   BAL_P5_T7  1
    X_P5_T7   CAP_M0_T7  2.1
    X_P5_T7   CAP_M1_T7  0.7
    X_P5_T7   CAP_M2_T7  2.9
    X_P5_T7   CAP_M3_T7  1.3
    X_P5_T7   CAP_M4_T7  2.6
    X_P5_T7   CAP_M5_T7  1.9
    X_P5_T7   CAP_M6_T7  2.4
    X_P5_T7   CAP_M7_T7  1.8
    X_P5_T7   CAP_M8_T7  1.4
    X_P5_T7   CAP_M9_T7  0.7
    X_P5_T7   CAP_M10_T7  0.6
    X_P5_T7   CAP_M11_T7  2.9
    X_P6_T7   COST      16.9
    X_P6_T7   BAL_P6_T7  1
    X_P6_T7   CAP_M0_T7  1.3
    X_P6_T7   CAP_M1_T7  1.8
    X_P6_T7   CAP_M2_T7  2.5
    X_P6_T7   CAP_M3_T7  2.2
    X_P6_T7   CAP_M4_T7  0.7
    X_P6_T7   CAP_M5_T7  1.5
    X_P6_T7   CAP_M6_T7  0.6
    X_P6_T7   CAP_M7_T7  1.9
    X_P6_T7   CAP_M8_T7  1.3
    X_P6_T7   CAP_M9_T7  2.1
    X_P6_T7   CAP_M10_T7  2.4
    X_P6_T7   CAP_M11_T7  1.1
    X_P7_T7   COST      49.3
    X_P7_T7   BAL_P7_T7  1
    X_P7_T7   CAP_M0_T7  1.1
    X_P7_T7   CAP_M1_T7  2.2
    X_P7_T7   CAP_M2_T7  2.5
    X_P7_T7   CAP_M3_T7  2.9
    X_P7_T7   CAP_M4_T7  1
    X_P7_T7   CAP_M5_T7  2.9
    X_P7_T7   CAP_M6_T7  2.4
    X_P7_T7   CAP_M7_T7  1.6
    X_P7_T7   CAP_M8_T7  1.4
    X_P7_T7   CAP_M9_T7  0.6
    X_P7_T7   CAP_M10_T7  1.6
    X_P7_T7   CAP_M11_T7  1.7
    X_P8_T7   COST      47.6
    X_P8_T7   BAL_P8_T7  1
    X_P8_T7   CAP_M0_T7  1.8
    X_P8_T7   CAP_M1_T7  0.7
    X_P8_T7   CAP_M2_T7  2.7
    X_P8_T7   CAP_M3_T7  2.3
    X_P8_T7   CAP_M4_T7  1.6
    X_P8_T7   CAP_M5_T7  1.3
    X_P8_T7   CAP_M6_T7  2.9
    X_P8_T7   CAP_M7_T7  1.1
    X_P8_T7   CAP_M8_T7  1.5
    X_P8_T7   CAP_M9_T7  2.1
    X_P8_T7   CAP_M10_T7  1.6
    X_P8_T7   CAP_M11_T7  0.7
    X_P9_T7   COST      15.5
    X_P9_T7   BAL_P9_T7  1
    X_P9_T7   CAP_M0_T7  1.3
    X_P9_T7   CAP_M1_T7  2.8
    X_P9_T7   CAP_M2_T7  1.3
    X_P9_T7   CAP_M3_T7  0.6
    X_P9_T7   CAP_M4_T7  1.7
    X_P9_T7   CAP_M5_T7  2.5
    X_P9_T7   CAP_M6_T7  1
    X_P9_T7   CAP_M7_T7  2.5
    X_P9_T7   CAP_M8_T7  2.7
    X_P9_T7   CAP_M9_T7  1.1
    X_P9_T7   CAP_M10_T7  1.8
    X_P9_T7   CAP_M11_T7  2.8
    X_P10_T7  COST      28.9
    X_P10_T7  BAL_P10_T7  1
    X_P10_T7  CAP_M0_T7  0.8
    X_P10_T7  CAP_M1_T7  0.8
    X_P10_T7  CAP_M2_T7  1.3
    X_P10_T7  CAP_M3_T7  0.8
    X_P10_T7  CAP_M4_T7  0.7
    X_P10_T7  CAP_M5_T7  1.7
    X_P10_T7  CAP_M6_T7  1.4
    X_P10_T7  CAP_M7_T7  1.3
    X_P10_T7  CAP_M8_T7  2.9
    X_P10_T7  CAP_M9_T7  1.6
    X_P10_T7  CAP_M10_T7  2.9
    X_P10_T7  CAP_M11_T7  0.7
    X_P11_T7  COST      29
    X_P11_T7  BAL_P11_T7  1
    X_P11_T7  CAP_M0_T7  2.4
    X_P11_T7  CAP_M1_T7  1.8
    X_P11_T7  CAP_M2_T7  1.8
    X_P11_T7  CAP_M3_T7  1.5
    X_P11_T7  CAP_M4_T7  2.8
    X_P11_T7  CAP_M5_T7  1.4
    X_P11_T7  CAP_M6_T7  0.7
    X_P11_T7  CAP_M7_T7  0.7
    X_P11_T7  CAP_M8_T7  2
    X_P11_T7  CAP_M9_T7  1.5
    X_P11_T7  CAP_M10_T7  1.7
    X_P11_T7  CAP_M11_T7  2.8
    X_P12_T7  COST      14.4
    X_P12_T7  BAL_P12_T7  1
    X_P12_T7  CAP_M0_T7  2.4
    X_P12_T7  CAP_M1_T7  2.3
    X_P12_T7  CAP_M2_T7  1.7
    X_P12_T7  CAP_M3_T7  2
    X_P12_T7  CAP_M4_T7  1.9
    X_P12_T7  CAP_M5_T7  1.2
    X_P12_T7  CAP_M6_T7  1.7
    X_P12_T7  CAP_M7_T7  1.4
    X_P12_T7  CAP_M8_T7  2
    X_P12_T7  CAP_M9_T7  1.6
    X_P12_T7  CAP_M10_T7  1.3
    X_P12_T7  CAP_M11_T7  2.7
    X_P13_T7  COST      41.7
    X_P13_T7  BAL_P13_T7  1
    X_P13_T7  CAP_M0_T7  2.2
    X_P13_T7  CAP_M1_T7  0.8
    X_P13_T7  CAP_M2_T7  2.7
    X_P13_T7  CAP_M3_T7  2.1
    X_P13_T7  CAP_M4_T7  1.8
    X_P13_T7  CAP_M5_T7  1.2
    X_P13_T7  CAP_M6_T7  1
    X_P13_T7  CAP_M7_T7  1.2
    X_P13_T7  CAP_M8_T7  1.8
    X_P13_T7  CAP_M9_T7  1
    X_P13_T7  CAP_M10_T7  1.3
    X_P13_T7  CAP_M11_T7  1.2
    X_P14_T7  COST      45.5
    X_P14_T7  BAL_P14_T7  1
    X_P14_T7  CAP_M0_T7  1.1
    X_P14_T7  CAP_M1_T7  1.8
    X_P14_T7  CAP_M2_T7  1.9
    X_P14_T7  CAP_M3_T7  1.4
    X_P14_T7  CAP_M4_T7  1.5
    X_P14_T7  CAP_M5_T7  1.9
    X_P14_T7  CAP_M6_T7  2.7
    X_P14_T7  CAP_M7_T7  0.8
    X_P14_T7  CAP_M8_T7  1.7
    X_P14_T7  CAP_M9_T7  2.2
    X_P14_T7  CAP_M10_T7  2.7
    X_P14_T7  CAP_M11_T7  1.2
    X_P15_T7  COST      41
    X_P15_T7  BAL_P15_T7  1
    X_P15_T7  CAP_M0_T7  0.8
    X_P15_T7  CAP_M1_T7  0.8
    X_P15_T7  CAP_M2_T7  2.4
    X_P15_T7  CAP_M3_T7  2.3
    X_P15_T7  CAP_M4_T7  1.8
    X_P15_T7  CAP_M5_T7  0.8
    X_P15_T7  CAP_M6_T7  0.8
    X_P15_T7  CAP_M7_T7  1.4
    X_P15_T7  CAP_M8_T7  1.3
    X_P15_T7  CAP_M9_T7  1.8
    X_P15_T7  CAP_M10_T7  2.1
    X_P15_T7  CAP_M11_T7  1.5
    X_P16_T7  COST      23.1
    X_P16_T7  BAL_P16_T7  1
    X_P16_T7  CAP_M0_T7  1.1
    X_P16_T7  CAP_M1_T7  0.5
    X_P16_T7  CAP_M2_T7  1.2
    X_P16_T7  CAP_M3_T7  2.8
    X_P16_T7  CAP_M4_T7  1.1
    X_P16_T7  CAP_M5_T7  1
    X_P16_T7  CAP_M6_T7  1.8
    X_P16_T7  CAP_M7_T7  1.8
    X_P16_T7  CAP_M8_T7  2.5
    X_P16_T7  CAP_M9_T7  1.6
    X_P16_T7  CAP_M10_T7  2.7
    X_P16_T7  CAP_M11_T7  1.3
    X_P17_T7  COST      25.1
    X_P17_T7  BAL_P17_T7  1
    X_P17_T7  CAP_M0_T7  1.8
    X_P17_T7  CAP_M1_T7  2.2
    X_P17_T7  CAP_M2_T7  2.7
    X_P17_T7  CAP_M3_T7  2.2
    X_P17_T7  CAP_M4_T7  1.2
    X_P17_T7  CAP_M5_T7  1.3
    X_P17_T7  CAP_M6_T7  0.7
    X_P17_T7  CAP_M7_T7  1.3
    X_P17_T7  CAP_M8_T7  2.8
    X_P17_T7  CAP_M9_T7  1.4
    X_P17_T7  CAP_M10_T7  2.7
    X_P17_T7  CAP_M11_T7  2.2
    X_P18_T7  COST      42.8
    X_P18_T7  BAL_P18_T7  1
    X_P18_T7  CAP_M0_T7  1.3
    X_P18_T7  CAP_M1_T7  2.9
    X_P18_T7  CAP_M2_T7  1.7
    X_P18_T7  CAP_M3_T7  0.5
    X_P18_T7  CAP_M4_T7  2.4
    X_P18_T7  CAP_M5_T7  2.9
    X_P18_T7  CAP_M6_T7  2.1
    X_P18_T7  CAP_M7_T7  2.7
    X_P18_T7  CAP_M8_T7  1.4
    X_P18_T7  CAP_M9_T7  0.5
    X_P18_T7  CAP_M10_T7  2.1
    X_P18_T7  CAP_M11_T7  1.1
    X_P19_T7  COST      15.1
    X_P19_T7  BAL_P19_T7  1
    X_P19_T7  CAP_M0_T7  2.2
    X_P19_T7  CAP_M1_T7  2.8
    X_P19_T7  CAP_M2_T7  1.6
    X_P19_T7  CAP_M3_T7  2.6
    X_P19_T7  CAP_M4_T7  1.7
    X_P19_T7  CAP_M5_T7  1.3
    X_P19_T7  CAP_M6_T7  1
    X_P19_T7  CAP_M7_T7  1.5
    X_P19_T7  CAP_M8_T7  0.6
    X_P19_T7  CAP_M9_T7  2.8
    X_P19_T7  CAP_M10_T7  0.8
    X_P19_T7  CAP_M11_T7  0.8
    X_P20_T7  COST      30.8
    X_P20_T7  BAL_P20_T7  1
    X_P20_T7  CAP_M0_T7  1.2
    X_P20_T7  CAP_M1_T7  2
    X_P20_T7  CAP_M2_T7  1.4
    X_P20_T7  CAP_M3_T7  2.3
    X_P20_T7  CAP_M4_T7  1.5
    X_P20_T7  CAP_M5_T7  1.6
    X_P20_T7  CAP_M6_T7  2.6
    X_P20_T7  CAP_M7_T7  2.1
    X_P20_T7  CAP_M8_T7  1.2
    X_P20_T7  CAP_M9_T7  1
    X_P20_T7  CAP_M10_T7  2.3
    X_P20_T7  CAP_M11_T7  1.8
    X_P21_T7  COST      36.2
    X_P21_T7  BAL_P21_T7  1
    X_P21_T7  CAP_M0_T7  2.4
    X_P21_T7  CAP_M1_T7  1.9
    X_P21_T7  CAP_M2_T7  2.9
    X_P21_T7  CAP_M3_T7  2.7
    X_P21_T7  CAP_M4_T7  2.7
    X_P21_T7  CAP_M5_T7  1.7
    X_P21_T7  CAP_M6_T7  2.8
    X_P21_T7  CAP_M7_T7  2.5
    X_P21_T7  CAP_M8_T7  3
    X_P21_T7  CAP_M9_T7  2.7
    X_P21_T7  CAP_M10_T7  2.4
    X_P21_T7  CAP_M11_T7  2.4
    X_P22_T7  COST      35.7
    X_P22_T7  BAL_P22_T7  1
    X_P22_T7  CAP_M0_T7  0.6
    X_P22_T7  CAP_M1_T7  2.9
    X_P22_T7  CAP_M2_T7  2.1
    X_P22_T7  CAP_M3_T7  2.1
    X_P22_T7  CAP_M4_T7  2
    X_P22_T7  CAP_M5_T7  2.4
    X_P22_T7  CAP_M6_T7  2.2
    X_P22_T7  CAP_M7_T7  0.7
    X_P22_T7  CAP_M8_T7  0.5
    X_P22_T7  CAP_M9_T7  1.8
    X_P22_T7  CAP_M10_T7  1.1
    X_P22_T7  CAP_M11_T7  2.6
    X_P23_T7  COST      42.8
    X_P23_T7  BAL_P23_T7  1
    X_P23_T7  CAP_M0_T7  2.9
    X_P23_T7  CAP_M1_T7  1.2
    X_P23_T7  CAP_M2_T7  1.8
    X_P23_T7  CAP_M3_T7  1.8
    X_P23_T7  CAP_M4_T7  1.5
    X_P23_T7  CAP_M5_T7  0.5
    X_P23_T7  CAP_M6_T7  2.8
    X_P23_T7  CAP_M7_T7  1.9
    X_P23_T7  CAP_M8_T7  2.2
    X_P23_T7  CAP_M9_T7  2.9
    X_P23_T7  CAP_M10_T7  2.1
    X_P23_T7  CAP_M11_T7  2.2
    X_P24_T7  COST      31.3
    X_P24_T7  BAL_P24_T7  1
    X_P24_T7  CAP_M0_T7  1.1
    X_P24_T7  CAP_M1_T7  2.5
    X_P24_T7  CAP_M2_T7  1.3
    X_P24_T7  CAP_M3_T7  2.8
    X_P24_T7  CAP_M4_T7  1.1
    X_P24_T7  CAP_M5_T7  2
    X_P24_T7  CAP_M6_T7  1.4
    X_P24_T7  CAP_M7_T7  0.5
    X_P24_T7  CAP_M8_T7  1.2
    X_P24_T7  CAP_M9_T7  2.4
    X_P24_T7  CAP_M10_T7  0.6
    X_P24_T7  CAP_M11_T7  1.9
    S_P0_T7   COST      3
    S_P0_T7   BAL_P0_T7  -1
    S_P0_T7   STORAGE_T7  1
    S_P0_T7   BAL_P0_T8  1
    S_P1_T7   COST      1.8
    S_P1_T7   BAL_P1_T7  -1
    S_P1_T7   STORAGE_T7  1
    S_P1_T7   BAL_P1_T8  1
    S_P2_T7   COST      2
    S_P2_T7   BAL_P2_T7  -1
    S_P2_T7   STORAGE_T7  1
    S_P2_T7   BAL_P2_T8  1
    S_P3_T7   COST      4.3
    S_P3_T7   BAL_P3_T7  -1
    S_P3_T7   STORAGE_T7  1
    S_P3_T7   BAL_P3_T8  1
    S_P4_T7   COST      3.6
    S_P4_T7   BAL_P4_T7  -1
    S_P4_T7   STORAGE_T7  1
    S_P4_T7   BAL_P4_T8  1
    S_P5_T7   COST      1
    S_P5_T7   BAL_P5_T7  -1
    S_P5_T7   STORAGE_T7  1
    S_P5_T7   BAL_P5_T8  1
    S_P6_T7   COST      4.7
    S_P6_T7   BAL_P6_T7  -1
    S_P6_T7   STORAGE_T7  1
    S_P6_T7   BAL_P6_T8  1
    S_P7_T7   COST      2.8
    S_P7_T7   BAL_P7_T7  -1
    S_P7_T7   STORAGE_T7  1
    S_P7_T7   BAL_P7_T8  1
    S_P8_T7   COST      2.1
    S_P8_T7   BAL_P8_T7  -1
    S_P8_T7   STORAGE_T7  1
    S_P8_T7   BAL_P8_T8  1
    S_P9_T7   COST      2.7
    S_P9_T7   BAL_P9_T7  -1
    S_P9_T7   STORAGE_T7  1
    S_P9_T7   BAL_P9_T8  1
    S_P10_T7  COST      3.1
    S_P10_T7  BAL_P10_T7  -1
    S_P10_T7  STORAGE_T7  1
    S_P10_T7  BAL_P10_T8  1
    S_P11_T7  COST      4.3
    S_P11_T7  BAL_P11_T7  -1
    S_P11_T7  STORAGE_T7  1
    S_P11_T7  BAL_P11_T8  1
    S_P12_T7  COST      1.4
    S_P12_T7  BAL_P12_T7  -1
    S_P12_T7  STORAGE_T7  1
    S_P12_T7  BAL_P12_T8  1
    S_P13_T7  COST      1.2
    S_P13_T7  BAL_P13_T7  -1
    S_P13_T7  STORAGE_T7  1
    S_P13_T7  BAL_P13_T8  1
    S_P14_T7  COST      2.3
    S_P14_T7  BAL_P14_T7  -1
    S_P14_T7  STORAGE_T7  1
    S_P14_T7  BAL_P14_T8  1
    S_P15_T7  COST      3.6
    S_P15_T7  BAL_P15_T7  -1
    S_P15_T7  STORAGE_T7  1
    S_P15_T7  BAL_P15_T8  1
    S_P16_T7  COST      4.9
    S_P16_T7  BAL_P16_T7  -1
    S_P16_T7  STORAGE_T7  1
    S_P16_T7  BAL_P16_T8  1
    S_P17_T7  COST      4
    S_P17_T7  BAL_P17_T7  -1
    S_P17_T7  STORAGE_T7  1
    S_P17_T7  BAL_P17_T8  1
    S_P18_T7  COST      4
    S_P18_T7  BAL_P18_T7  -1
    S_P18_T7  STORAGE_T7  1
    S_P18_T7  BAL_P18_T8  1
    S_P19_T7  COST      3.2
    S_P19_T7  BAL_P19_T7  -1
    S_P19_T7  STORAGE_T7  1
    S_P19_T7  BAL_P19_T8  1
    S_P20_T7  COST      4.5
    S_P20_T7  BAL_P20_T7  -1
    S_P20_T7  STORAGE_T7  1
    S_P20_T7  BAL_P20_T8  1
    S_P21_T7  COST      5
    S_P21_T7  BAL_P21_T7  -1
    S_P21_T7  STORAGE_T7  1
    S_P21_T7  BAL_P21_T8  1
    S_P22_T7  COST      2.7
    S_P22_T7  BAL_P22_T7  -1
    S_P22_T7  STORAGE_T7  1
    S_P22_T7  BAL_P22_T8  1
    S_P23_T7  COST      2.5
    S_P23_T7  BAL_P23_T7  -1
    S_P23_T7  STORAGE_T7  1
    S_P23_T7  BAL_P23_T8  1
    S_P24_T7  COST      2.9
    S_P24_T7  BAL_P24_T7  -1
    S_P24_T7  STORAGE_T7  1
    S_P24_T7  BAL_P24_T8  1
    X_P0_T8   COST      18.6
    X_P0_T8   BAL_P0_T8  1
    X_P0_T8   CAP_M0_T8  1.4
    X_P0_T8   CAP_M1_T8  2.4
    X_P0_T8   CAP_M2_T8  0.5
    X_P0_T8   CAP_M3_T8  1
    X_P0_T8   CAP_M4_T8  1.3
    X_P0_T8   CAP_M5_T8  0.8
    X_P0_T8   CAP_M6_T8  1
    X_P0_T8   CAP_M7_T8  1.7
    X_P0_T8   CAP_M8_T8  0.7
    X_P0_T8   CAP_M9_T8  1.5
    X_P0_T8   CAP_M10_T8  2.4
    X_P0_T8   CAP_M11_T8  0.9
    X_P1_T8   COST      44.5
    X_P1_T8   BAL_P1_T8  1
    X_P1_T8   CAP_M0_T8  1
    X_P1_T8   CAP_M1_T8  2.2
    X_P1_T8   CAP_M2_T8  1
    X_P1_T8   CAP_M3_T8  2.4
    X_P1_T8   CAP_M4_T8  3
    X_P1_T8   CAP_M5_T8  2.2
    X_P1_T8   CAP_M6_T8  2.7
    X_P1_T8   CAP_M7_T8  1.4
    X_P1_T8   CAP_M8_T8  1.9
    X_P1_T8   CAP_M9_T8  0.9
    X_P1_T8   CAP_M10_T8  2.9
    X_P1_T8   CAP_M11_T8  2.2
    X_P2_T8   COST      31.8
    X_P2_T8   BAL_P2_T8  1
    X_P2_T8   CAP_M0_T8  2.6
    X_P2_T8   CAP_M1_T8  1.4
    X_P2_T8   CAP_M2_T8  0.8
    X_P2_T8   CAP_M3_T8  2.3
    X_P2_T8   CAP_M4_T8  2.5
    X_P2_T8   CAP_M5_T8  1
    X_P2_T8   CAP_M6_T8  1.2
    X_P2_T8   CAP_M7_T8  1
    X_P2_T8   CAP_M8_T8  1.1
    X_P2_T8   CAP_M9_T8  1.9
    X_P2_T8   CAP_M10_T8  3
    X_P2_T8   CAP_M11_T8  0.8
    X_P3_T8   COST      20.9
    X_P3_T8   BAL_P3_T8  1
    X_P3_T8   CAP_M0_T8  1.8
    X_P3_T8   CAP_M1_T8  2.8
    X_P3_T8   CAP_M2_T8  2.1
    X_P3_T8   CAP_M3_T8  1.6
    X_P3_T8   CAP_M4_T8  1.1
    X_P3_T8   CAP_M5_T8  0.7
    X_P3_T8   CAP_M6_T8  2
    X_P3_T8   CAP_M7_T8  2.7
    X_P3_T8   CAP_M8_T8  1.9
    X_P3_T8   CAP_M9_T8  2.6
    X_P3_T8   CAP_M10_T8  2.1
    X_P3_T8   CAP_M11_T8  2.3
    X_P4_T8   COST      36.3
    X_P4_T8   BAL_P4_T8  1
    X_P4_T8   CAP_M0_T8  1.9
    X_P4_T8   CAP_M1_T8  2
    X_P4_T8   CAP_M2_T8  2.5
    X_P4_T8   CAP_M3_T8  2.7
    X_P4_T8   CAP_M4_T8  2.1
    X_P4_T8   CAP_M5_T8  1.2
    X_P4_T8   CAP_M6_T8  1.6
    X_P4_T8   CAP_M7_T8  1.6
    X_P4_T8   CAP_M8_T8  2.1
    X_P4_T8   CAP_M9_T8  1.7
    X_P4_T8   CAP_M10_T8  0.8
    X_P4_T8   CAP_M11_T8  1.6
    X_P5_T8   COST      35.1
    X_P5_T8   BAL_P5_T8  1
    X_P5_T8   CAP_M0_T8  2.1
    X_P5_T8   CAP_M1_T8  0.7
    X_P5_T8   CAP_M2_T8  2.9
    X_P5_T8   CAP_M3_T8  1.3
    X_P5_T8   CAP_M4_T8  2.6
    X_P5_T8   CAP_M5_T8  1.9
    X_P5_T8   CAP_M6_T8  2.4
    X_P5_T8   CAP_M7_T8  1.8
    X_P5_T8   CAP_M8_T8  1.4
    X_P5_T8   CAP_M9_T8  0.7
    X_P5_T8   CAP_M10_T8  0.6
    X_P5_T8   CAP_M11_T8  2.9
    X_P6_T8   COST      11.3
    X_P6_T8   BAL_P6_T8  1
    X_P6_T8   CAP_M0_T8  1.3
    X_P6_T8   CAP_M1_T8  1.8
    X_P6_T8   CAP_M2_T8  2.5
    X_P6_T8   CAP_M3_T8  2.2
    X_P6_T8   CAP_M4_T8  0.7
    X_P6_T8   CAP_M5_T8  1.5
    X_P6_T8   CAP_M6_T8  0.6
    X_P6_T8   CAP_M7_T8  1.9
    X_P6_T8   CAP_M8_T8  1.3
    X_P6_T8   CAP_M9_T8  2.1
    X_P6_T8   CAP_M10_T8  2.4
    X_P6_T8   CAP_M11_T8  1.1
    X_P7_T8   COST      19.6
    X_P7_T8   BAL_P7_T8  1
    X_P7_T8   CAP_M0_T8  1.1
    X_P7_T8   CAP_M1_T8  2.2
    X_P7_T8   CAP_M2_T8  2.5
    X_P7_T8   CAP_M3_T8  2.9
    X_P7_T8   CAP_M4_T8  1
    X_P7_T8   CAP_M5_T8  2.9
    X_P7_T8   CAP_M6_T8  2.4
    X_P7_T8   CAP_M7_T8  1.6
    X_P7_T8   CAP_M8_T8  1.4
    X_P7_T8   CAP_M9_T8  0.6
    X_P7_T8   CAP_M10_T8  1.6
    X_P7_T8   CAP_M11_T8  1.7
    X_P8_T8   COST      24.9
    X_P8_T8   BAL_P8_T8  1
    X_P8_T8   CAP_M0_T8  1.8
    X_P8_T8   CAP_M1_T8  0.7
    X_P8_T8   CAP_M2_T8  2.7
    X_P8_T8   CAP_M3_T8  2.3
    X_P8_T8   CAP_M4_T8  1.6
    X_P8_T8   CAP_M5_T8  1.3
    X_P8_T8   CAP_M6_T8  2.9
    X_P8_T8   CAP_M7_T8  1.1
    X_P8_T8   CAP_M8_T8  1.5
    X_P8_T8   CAP_M9_T8  2.1
    X_P8_T8   CAP_M10_T8  1.6
    X_P8_T8   CAP_M11_T8  0.7
    X_P9_T8   COST      13.4
    X_P9_T8   BAL_P9_T8  1
    X_P9_T8   CAP_M0_T8  1.3
    X_P9_T8   CAP_M1_T8  2.8
    X_P9_T8   CAP_M2_T8  1.3
    X_P9_T8   CAP_M3_T8  0.6
    X_P9_T8   CAP_M4_T8  1.7
    X_P9_T8   CAP_M5_T8  2.5
    X_P9_T8   CAP_M6_T8  1
    X_P9_T8   CAP_M7_T8  2.5
    X_P9_T8   CAP_M8_T8  2.7
    X_P9_T8   CAP_M9_T8  1.1
    X_P9_T8   CAP_M10_T8  1.8
    X_P9_T8   CAP_M11_T8  2.8
    X_P10_T8  COST      46.4
    X_P10_T8  BAL_P10_T8  1
    X_P10_T8  CAP_M0_T8  0.8
    X_P10_T8  CAP_M1_T8  0.8
    X_P10_T8  CAP_M2_T8  1.3
    X_P10_T8  CAP_M3_T8  0.8
    X_P10_T8  CAP_M4_T8  0.7
    X_P10_T8  CAP_M5_T8  1.7
    X_P10_T8  CAP_M6_T8  1.4
    X_P10_T8  CAP_M7_T8  1.3
    X_P10_T8  CAP_M8_T8  2.9
    X_P10_T8  CAP_M9_T8  1.6
    X_P10_T8  CAP_M10_T8  2.9
    X_P10_T8  CAP_M11_T8  0.7
    X_P11_T8  COST      44.8
    X_P11_T8  BAL_P11_T8  1
    X_P11_T8  CAP_M0_T8  2.4
    X_P11_T8  CAP_M1_T8  1.8
    X_P11_T8  CAP_M2_T8  1.8
    X_P11_T8  CAP_M3_T8  1.5
    X_P11_T8  CAP_M4_T8  2.8
    X_P11_T8  CAP_M5_T8  1.4
    X_P11_T8  CAP_M6_T8  0.7
    X_P11_T8  CAP_M7_T8  0.7
    X_P11_T8  CAP_M8_T8  2
    X_P11_T8  CAP_M9_T8  1.5
    X_P11_T8  CAP_M10_T8  1.7
    X_P11_T8  CAP_M11_T8  2.8
    X_P12_T8  COST      46.6
    X_P12_T8  BAL_P12_T8  1
    X_P12_T8  CAP_M0_T8  2.4
    X_P12_T8  CAP_M1_T8  2.3
    X_P12_T8  CAP_M2_T8  1.7
    X_P12_T8  CAP_M3_T8  2
    X_P12_T8  CAP_M4_T8  1.9
    X_P12_T8  CAP_M5_T8  1.2
    X_P12_T8  CAP_M6_T8  1.7
    X_P12_T8  CAP_M7_T8  1.4
    X_P12_T8  CAP_M8_T8  2
    X_P12_T8  CAP_M9_T8  1.6
    X_P12_T8  CAP_M10_T8  1.3
    X_P12_T8  CAP_M11_T8  2.7
    X_P13_T8  COST      20.1
    X_P13_T8  BAL_P13_T8  1
    X_P13_T8  CAP_M0_T8  2.2
    X_P13_T8  CAP_M1_T8  0.8
    X_P13_T8  CAP_M2_T8  2.7
    X_P13_T8  CAP_M3_T8  2.1
    X_P13_T8  CAP_M4_T8  1.8
    X_P13_T8  CAP_M5_T8  1.2
    X_P13_T8  CAP_M6_T8  1
    X_P13_T8  CAP_M7_T8  1.2
    X_P13_T8  CAP_M8_T8  1.8
    X_P13_T8  CAP_M9_T8  1
    X_P13_T8  CAP_M10_T8  1.3
    X_P13_T8  CAP_M11_T8  1.2
    X_P14_T8  COST      28.9
    X_P14_T8  BAL_P14_T8  1
    X_P14_T8  CAP_M0_T8  1.1
    X_P14_T8  CAP_M1_T8  1.8
    X_P14_T8  CAP_M2_T8  1.9
    X_P14_T8  CAP_M3_T8  1.4
    X_P14_T8  CAP_M4_T8  1.5
    X_P14_T8  CAP_M5_T8  1.9
    X_P14_T8  CAP_M6_T8  2.7
    X_P14_T8  CAP_M7_T8  0.8
    X_P14_T8  CAP_M8_T8  1.7
    X_P14_T8  CAP_M9_T8  2.2
    X_P14_T8  CAP_M10_T8  2.7
    X_P14_T8  CAP_M11_T8  1.2
    X_P15_T8  COST      31.5
    X_P15_T8  BAL_P15_T8  1
    X_P15_T8  CAP_M0_T8  0.8
    X_P15_T8  CAP_M1_T8  0.8
    X_P15_T8  CAP_M2_T8  2.4
    X_P15_T8  CAP_M3_T8  2.3
    X_P15_T8  CAP_M4_T8  1.8
    X_P15_T8  CAP_M5_T8  0.8
    X_P15_T8  CAP_M6_T8  0.8
    X_P15_T8  CAP_M7_T8  1.4
    X_P15_T8  CAP_M8_T8  1.3
    X_P15_T8  CAP_M9_T8  1.8
    X_P15_T8  CAP_M10_T8  2.1
    X_P15_T8  CAP_M11_T8  1.5
    X_P16_T8  COST      30.6
    X_P16_T8  BAL_P16_T8  1
    X_P16_T8  CAP_M0_T8  1.1
    X_P16_T8  CAP_M1_T8  0.5
    X_P16_T8  CAP_M2_T8  1.2
    X_P16_T8  CAP_M3_T8  2.8
    X_P16_T8  CAP_M4_T8  1.1
    X_P16_T8  CAP_M5_T8  1
    X_P16_T8  CAP_M6_T8  1.8
    X_P16_T8  CAP_M7_T8  1.8
    X_P16_T8  CAP_M8_T8  2.5
    X_P16_T8  CAP_M9_T8  1.6
    X_P16_T8  CAP_M10_T8  2.7
    X_P16_T8  CAP_M11_T8  1.3
    X_P17_T8  COST      16.1
    X_P17_T8  BAL_P17_T8  1
    X_P17_T8  CAP_M0_T8  1.8
    X_P17_T8  CAP_M1_T8  2.2
    X_P17_T8  CAP_M2_T8  2.7
    X_P17_T8  CAP_M3_T8  2.2
    X_P17_T8  CAP_M4_T8  1.2
    X_P17_T8  CAP_M5_T8  1.3
    X_P17_T8  CAP_M6_T8  0.7
    X_P17_T8  CAP_M7_T8  1.3
    X_P17_T8  CAP_M8_T8  2.8
    X_P17_T8  CAP_M9_T8  1.4
    X_P17_T8  CAP_M10_T8  2.7
    X_P17_T8  CAP_M11_T8  2.2
    X_P18_T8  COST      23.2
    X_P18_T8  BAL_P18_T8  1
    X_P18_T8  CAP_M0_T8  1.3
    X_P18_T8  CAP_M1_T8  2.9
    X_P18_T8  CAP_M2_T8  1.7
    X_P18_T8  CAP_M3_T8  0.5
    X_P18_T8  CAP_M4_T8  2.4
    X_P18_T8  CAP_M5_T8  2.9
    X_P18_T8  CAP_M6_T8  2.1
    X_P18_T8  CAP_M7_T8  2.7
    X_P18_T8  CAP_M8_T8  1.4
    X_P18_T8  CAP_M9_T8  0.5
    X_P18_T8  CAP_M10_T8  2.1
    X_P18_T8  CAP_M11_T8  1.1
    X_P19_T8  COST      31.7
    X_P19_T8  BAL_P19_T8  1
    X_P19_T8  CAP_M0_T8  2.2
    X_P19_T8  CAP_M1_T8  2.8
    X_P19_T8  CAP_M2_T8  1.6
    X_P19_T8  CAP_M3_T8  2.6
    X_P19_T8  CAP_M4_T8  1.7
    X_P19_T8  CAP_M5_T8  1.3
    X_P19_T8  CAP_M6_T8  1
    X_P19_T8  CAP_M7_T8  1.5
    X_P19_T8  CAP_M8_T8  0.6
    X_P19_T8  CAP_M9_T8  2.8
    X_P19_T8  CAP_M10_T8  0.8
    X_P19_T8  CAP_M11_T8  0.8
    X_P20_T8  COST      22.7
    X_P20_T8  BAL_P20_T8  1
    X_P20_T8  CAP_M0_T8  1.2
    X_P20_T8  CAP_M1_T8  2
    X_P20_T8  CAP_M2_T8  1.4
    X_P20_T8  CAP_M3_T8  2.3
    X_P20_T8  CAP_M4_T8  1.5
    X_P20_T8  CAP_M5_T8  1.6
    X_P20_T8  CAP_M6_T8  2.6
    X_P20_T8  CAP_M7_T8  2.1
    X_P20_T8  CAP_M8_T8  1.2
    X_P20_T8  CAP_M9_T8  1
    X_P20_T8  CAP_M10_T8  2.3
    X_P20_T8  CAP_M11_T8  1.8
    X_P21_T8  COST      17.8
    X_P21_T8  BAL_P21_T8  1
    X_P21_T8  CAP_M0_T8  2.4
    X_P21_T8  CAP_M1_T8  1.9
    X_P21_T8  CAP_M2_T8  2.9
    X_P21_T8  CAP_M3_T8  2.7
    X_P21_T8  CAP_M4_T8  2.7
    X_P21_T8  CAP_M5_T8  1.7
    X_P21_T8  CAP_M6_T8  2.8
    X_P21_T8  CAP_M7_T8  2.5
    X_P21_T8  CAP_M8_T8  3
    X_P21_T8  CAP_M9_T8  2.7
    X_P21_T8  CAP_M10_T8  2.4
    X_P21_T8  CAP_M11_T8  2.4
    X_P22_T8  COST      49.1
    X_P22_T8  BAL_P22_T8  1
    X_P22_T8  CAP_M0_T8  0.6
    X_P22_T8  CAP_M1_T8  2.9
    X_P22_T8  CAP_M2_T8  2.1
    X_P22_T8  CAP_M3_T8  2.1
    X_P22_T8  CAP_M4_T8  2
    X_P22_T8  CAP_M5_T8  2.4
    X_P22_T8  CAP_M6_T8  2.2
    X_P22_T8  CAP_M7_T8  0.7
    X_P22_T8  CAP_M8_T8  0.5
    X_P22_T8  CAP_M9_T8  1.8
    X_P22_T8  CAP_M10_T8  1.1
    X_P22_T8  CAP_M11_T8  2.6
    X_P23_T8  COST      16.9
    X_P23_T8  BAL_P23_T8  1
    X_P23_T8  CAP_M0_T8  2.9
    X_P23_T8  CAP_M1_T8  1.2
    X_P23_T8  CAP_M2_T8  1.8
    X_P23_T8  CAP_M3_T8  1.8
    X_P23_T8  CAP_M4_T8  1.5
    X_P23_T8  CAP_M5_T8  0.5
    X_P23_T8  CAP_M6_T8  2.8
    X_P23_T8  CAP_M7_T8  1.9
    X_P23_T8  CAP_M8_T8  2.2
    X_P23_T8  CAP_M9_T8  2.9
    X_P23_T8  CAP_M10_T8  2.1
    X_P23_T8  CAP_M11_T8  2.2
    X_P24_T8  COST      38.5
    X_P24_T8  BAL_P24_T8  1
    X_P24_T8  CAP_M0_T8  1.1
    X_P24_T8  CAP_M1_T8  2.5
    X_P24_T8  CAP_M2_T8  1.3
    X_P24_T8  CAP_M3_T8  2.8
    X_P24_T8  CAP_M4_T8  1.1
    X_P24_T8  CAP_M5_T8  2
    X_P24_T8  CAP_M6_T8  1.4
    X_P24_T8  CAP_M7_T8  0.5
    X_P24_T8  CAP_M8_T8  1.2
    X_P24_T8  CAP_M9_T8  2.4
    X_P24_T8  CAP_M10_T8  0.6
    X_P24_T8  CAP_M11_T8  1.9
    S_P0_T8   COST      2.7
    S_P0_T8   BAL_P0_T8  -1
    S_P0_T8   STORAGE_T8  1
    S_P0_T8   BAL_P0_T9  1
    S_P1_T8   COST      2.8
    S_P1_T8   BAL_P1_T8  -1
    S_P1_T8   STORAGE_T8  1
    S_P1_T8   BAL_P1_T9  1
    S_P2_T8   COST      2.7
    S_P2_T8   BAL_P2_T8  -1
    S_P2_T8   STORAGE_T8  1
    S_P2_T8   BAL_P2_T9  1
    S_P3_T8   COST      4.3
    S_P3_T8   BAL_P3_T8  -1
    S_P3_T8   STORAGE_T8  1
    S_P3_T8   BAL_P3_T9  1
    S_P4_T8   COST      2.3
    S_P4_T8   BAL_P4_T8  -1
    S_P4_T8   STORAGE_T8  1
    S_P4_T8   BAL_P4_T9  1
    S_P5_T8   COST      4.1
    S_P5_T8   BAL_P5_T8  -1
    S_P5_T8   STORAGE_T8  1
    S_P5_T8   BAL_P5_T9  1
    S_P6_T8   COST      3
    S_P6_T8   BAL_P6_T8  -1
    S_P6_T8   STORAGE_T8  1
    S_P6_T8   BAL_P6_T9  1
    S_P7_T8   COST      2
    S_P7_T8   BAL_P7_T8  -1
    S_P7_T8   STORAGE_T8  1
    S_P7_T8   BAL_P7_T9  1
    S_P8_T8   COST      3.2
    S_P8_T8   BAL_P8_T8  -1
    S_P8_T8   STORAGE_T8  1
    S_P8_T8   BAL_P8_T9  1
    S_P9_T8   COST      4.2
    S_P9_T8   BAL_P9_T8  -1
    S_P9_T8   STORAGE_T8  1
    S_P9_T8   BAL_P9_T9  1
    S_P10_T8  COST      1.2
    S_P10_T8  BAL_P10_T8  -1
    S_P10_T8  STORAGE_T8  1
    S_P10_T8  BAL_P10_T9  1
    S_P11_T8  COST      1.8
    S_P11_T8  BAL_P11_T8  -1
    S_P11_T8  STORAGE_T8  1
    S_P11_T8  BAL_P11_T9  1
    S_P12_T8  COST      3.6
    S_P12_T8  BAL_P12_T8  -1
    S_P12_T8  STORAGE_T8  1
    S_P12_T8  BAL_P12_T9  1
    S_P13_T8  COST      2.3
    S_P13_T8  BAL_P13_T8  -1
    S_P13_T8  STORAGE_T8  1
    S_P13_T8  BAL_P13_T9  1
    S_P14_T8  COST      2.6
    S_P14_T8  BAL_P14_T8  -1
    S_P14_T8  STORAGE_T8  1
    S_P14_T8  BAL_P14_T9  1
    S_P15_T8  COST      1.9
    S_P15_T8  BAL_P15_T8  -1
    S_P15_T8  STORAGE_T8  1
    S_P15_T8  BAL_P15_T9  1
    S_P16_T8  COST      3.6
    S_P16_T8  BAL_P16_T8  -1
    S_P16_T8  STORAGE_T8  1
    S_P16_T8  BAL_P16_T9  1
    S_P17_T8  COST      2.6
    S_P17_T8  BAL_P17_T8  -1
    S_P17_T8  STORAGE_T8  1
    S_P17_T8  BAL_P17_T9  1
    S_P18_T8  COST      1.3
    S_P18_T8  BAL_P18_T8  -1
    S_P18_T8  STORAGE_T8  1
    S_P18_T8  BAL_P18_T9  1
    S_P19_T8  COST      4.1
    S_P19_T8  BAL_P19_T8  -1
    S_P19_T8  STORAGE_T8  1
    S_P19_T8  BAL_P19_T9  1
    S_P20_T8  COST      4.9
    S_P20_T8  BAL_P20_T8  -1
    S_P20_T8  STORAGE_T8  1
    S_P20_T8  BAL_P20_T9  1
    S_P21_T8  COST      1.9
    S_P21_T8  BAL_P21_T8  -1
    S_P21_T8  STORAGE_T8  1
    S_P21_T8  BAL_P21_T9  1
    S_P22_T8  COST      1.6
    S_P22_T8  BAL_P22_T8  -1
    S_P22_T8  STORAGE_T8  1
    S_P22_T8  BAL_P22_T9  1
    S_P23_T8  COST      4.2
    S_P23_T8  BAL_P23_T8  -1
    S_P23_T8  STORAGE_T8  1
    S_P23_T8  BAL_P23_T9  1
    S_P24_T8  COST      1.9
    S_P24_T8  BAL_P24_T8  -1
    S_P24_T8  STORAGE_T8  1
    S_P24_T8  BAL_P24_T9  1
    X_P0_T9   COST      19.7
    X_P0_T9   BAL_P0_T9  1
    X_P0_T9   CAP_M0_T9  1.4
    X_P0_T9   CAP_M1_T9  2.4
    X_P0_T9   CAP_M2_T9  0.5
    X_P0_T9   CAP_M3_T9  1
    X_P0_T9   CAP_M4_T9  1.3
    X_P0_T9   CAP_M5_T9  0.8
    X_P0_T9   CAP_M6_T9  1
    X_P0_T9   CAP_M7_T9  1.7
    X_P0_T9   CAP_M8_T9  0.7
    X_P0_T9   CAP_M9_T9  1.5
    X_P0_T9   CAP_M10_T9  2.4
    X_P0_T9   CAP_M11_T9  0.9
    X_P1_T9   COST      46.3
    X_P1_T9   BAL_P1_T9  1
    X_P1_T9   CAP_M0_T9  1
    X_P1_T9   CAP_M1_T9  2.2
    X_P1_T9   CAP_M2_T9  1
    X_P1_T9   CAP_M3_T9  2.4
    X_P1_T9   CAP_M4_T9  3
    X_P1_T9   CAP_M5_T9  2.2
    X_P1_T9   CAP_M6_T9  2.7
    X_P1_T9   CAP_M7_T9  1.4
    X_P1_T9   CAP_M8_T9  1.9
    X_P1_T9   CAP_M9_T9  0.9
    X_P1_T9   CAP_M10_T9  2.9
    X_P1_T9   CAP_M11_T9  2.2
    X_P2_T9   COST      37.9
    X_P2_T9   BAL_P2_T9  1
    X_P2_T9   CAP_M0_T9  2.6
    X_P2_T9   CAP_M1_T9  1.4
    X_P2_T9   CAP_M2_T9  0.8
    X_P2_T9   CAP_M3_T9  2.3
    X_P2_T9   CAP_M4_T9  2.5
    X_P2_T9   CAP_M5_T9  1
    X_P2_T9   CAP_M6_T9  1.2
    X_P2_T9   CAP_M7_T9  1
    X_P2_T9   CAP_M8_T9  1.1
    X_P2_T9   CAP_M9_T9  1.9
    X_P2_T9   CAP_M10_T9  3
    X_P2_T9   CAP_M11_T9  0.8
    X_P3_T9   COST      14.3
    X_P3_T9   BAL_P3_T9  1
    X_P3_T9   CAP_M0_T9  1.8
    X_P3_T9   CAP_M1_T9  2.8
    X_P3_T9   CAP_M2_T9  2.1
    X_P3_T9   CAP_M3_T9  1.6
    X_P3_T9   CAP_M4_T9  1.1
    X_P3_T9   CAP_M5_T9  0.7
    X_P3_T9   CAP_M6_T9  2
    X_P3_T9   CAP_M7_T9  2.7
    X_P3_T9   CAP_M8_T9  1.9
    X_P3_T9   CAP_M9_T9  2.6
    X_P3_T9   CAP_M10_T9  2.1
    X_P3_T9   CAP_M11_T9  2.3
    X_P4_T9   COST      16.5
    X_P4_T9   BAL_P4_T9  1
    X_P4_T9   CAP_M0_T9  1.9
    X_P4_T9   CAP_M1_T9  2
    X_P4_T9   CAP_M2_T9  2.5
    X_P4_T9   CAP_M3_T9  2.7
    X_P4_T9   CAP_M4_T9  2.1
    X_P4_T9   CAP_M5_T9  1.2
    X_P4_T9   CAP_M6_T9  1.6
    X_P4_T9   CAP_M7_T9  1.6
    X_P4_T9   CAP_M8_T9  2.1
    X_P4_T9   CAP_M9_T9  1.7
    X_P4_T9   CAP_M10_T9  0.8
    X_P4_T9   CAP_M11_T9  1.6
    X_P5_T9   COST      34.7
    X_P5_T9   BAL_P5_T9  1
    X_P5_T9   CAP_M0_T9  2.1
    X_P5_T9   CAP_M1_T9  0.7
    X_P5_T9   CAP_M2_T9  2.9
    X_P5_T9   CAP_M3_T9  1.3
    X_P5_T9   CAP_M4_T9  2.6
    X_P5_T9   CAP_M5_T9  1.9
    X_P5_T9   CAP_M6_T9  2.4
    X_P5_T9   CAP_M7_T9  1.8
    X_P5_T9   CAP_M8_T9  1.4
    X_P5_T9   CAP_M9_T9  0.7
    X_P5_T9   CAP_M10_T9  0.6
    X_P5_T9   CAP_M11_T9  2.9
    X_P6_T9   COST      14.4
    X_P6_T9   BAL_P6_T9  1
    X_P6_T9   CAP_M0_T9  1.3
    X_P6_T9   CAP_M1_T9  1.8
    X_P6_T9   CAP_M2_T9  2.5
    X_P6_T9   CAP_M3_T9  2.2
    X_P6_T9   CAP_M4_T9  0.7
    X_P6_T9   CAP_M5_T9  1.5
    X_P6_T9   CAP_M6_T9  0.6
    X_P6_T9   CAP_M7_T9  1.9
    X_P6_T9   CAP_M8_T9  1.3
    X_P6_T9   CAP_M9_T9  2.1
    X_P6_T9   CAP_M10_T9  2.4
    X_P6_T9   CAP_M11_T9  1.1
    X_P7_T9   COST      31.4
    X_P7_T9   BAL_P7_T9  1
    X_P7_T9   CAP_M0_T9  1.1
    X_P7_T9   CAP_M1_T9  2.2
    X_P7_T9   CAP_M2_T9  2.5
    X_P7_T9   CAP_M3_T9  2.9
    X_P7_T9   CAP_M4_T9  1
    X_P7_T9   CAP_M5_T9  2.9
    X_P7_T9   CAP_M6_T9  2.4
    X_P7_T9   CAP_M7_T9  1.6
    X_P7_T9   CAP_M8_T9  1.4
    X_P7_T9   CAP_M9_T9  0.6
    X_P7_T9   CAP_M10_T9  1.6
    X_P7_T9   CAP_M11_T9  1.7
    X_P8_T9   COST      19.3
    X_P8_T9   BAL_P8_T9  1
    X_P8_T9   CAP_M0_T9  1.8
    X_P8_T9   CAP_M1_T9  0.7
    X_P8_T9   CAP_M2_T9  2.7
    X_P8_T9   CAP_M3_T9  2.3
    X_P8_T9   CAP_M4_T9  1.6
    X_P8_T9   CAP_M5_T9  1.3
    X_P8_T9   CAP_M6_T9  2.9
    X_P8_T9   CAP_M7_T9  1.1
    X_P8_T9   CAP_M8_T9  1.5
    X_P8_T9   CAP_M9_T9  2.1
    X_P8_T9   CAP_M10_T9  1.6
    X_P8_T9   CAP_M11_T9  0.7
    X_P9_T9   COST      32.9
    X_P9_T9   BAL_P9_T9  1
    X_P9_T9   CAP_M0_T9  1.3
    X_P9_T9   CAP_M1_T9  2.8
    X_P9_T9   CAP_M2_T9  1.3
    X_P9_T9   CAP_M3_T9  0.6
    X_P9_T9   CAP_M4_T9  1.7
    X_P9_T9   CAP_M5_T9  2.5
    X_P9_T9   CAP_M6_T9  1
    X_P9_T9   CAP_M7_T9  2.5
    X_P9_T9   CAP_M8_T9  2.7
    X_P9_T9   CAP_M9_T9  1.1
    X_P9_T9   CAP_M10_T9  1.8
    X_P9_T9   CAP_M11_T9  2.8
    X_P10_T9  COST      12.1
    X_P10_T9  BAL_P10_T9  1
    X_P10_T9  CAP_M0_T9  0.8
    X_P10_T9  CAP_M1_T9  0.8
    X_P10_T9  CAP_M2_T9  1.3
    X_P10_T9  CAP_M3_T9  0.8
    X_P10_T9  CAP_M4_T9  0.7
    X_P10_T9  CAP_M5_T9  1.7
    X_P10_T9  CAP_M6_T9  1.4
    X_P10_T9  CAP_M7_T9  1.3
    X_P10_T9  CAP_M8_T9  2.9
    X_P10_T9  CAP_M9_T9  1.6
    X_P10_T9  CAP_M10_T9  2.9
    X_P10_T9  CAP_M11_T9  0.7
    X_P11_T9  COST      34.3
    X_P11_T9  BAL_P11_T9  1
    X_P11_T9  CAP_M0_T9  2.4
    X_P11_T9  CAP_M1_T9  1.8
    X_P11_T9  CAP_M2_T9  1.8
    X_P11_T9  CAP_M3_T9  1.5
    X_P11_T9  CAP_M4_T9  2.8
    X_P11_T9  CAP_M5_T9  1.4
    X_P11_T9  CAP_M6_T9  0.7
    X_P11_T9  CAP_M7_T9  0.7
    X_P11_T9  CAP_M8_T9  2
    X_P11_T9  CAP_M9_T9  1.5
    X_P11_T9  CAP_M10_T9  1.7
    X_P11_T9  CAP_M11_T9  2.8
    X_P12_T9  COST      39.8
    X_P12_T9  BAL_P12_T9  1
    X_P12_T9  CAP_M0_T9  2.4
    X_P12_T9  CAP_M1_T9  2.3
    X_P12_T9  CAP_M2_T9  1.7
    X_P12_T9  CAP_M3_T9  2
    X_P12_T9  CAP_M4_T9  1.9
    X_P12_T9  CAP_M5_T9  1.2
    X_P12_T9  CAP_M6_T9  1.7
    X_P12_T9  CAP_M7_T9  1.4
    X_P12_T9  CAP_M8_T9  2
    X_P12_T9  CAP_M9_T9  1.6
    X_P12_T9  CAP_M10_T9  1.3
    X_P12_T9  CAP_M11_T9  2.7
    X_P13_T9  COST      15.9
    X_P13_T9  BAL_P13_T9  1
    X_P13_T9  CAP_M0_T9  2.2
    X_P13_T9  CAP_M1_T9  0.8
    X_P13_T9  CAP_M2_T9  2.7
    X_P13_T9  CAP_M3_T9  2.1
    X_P13_T9  CAP_M4_T9  1.8
    X_P13_T9  CAP_M5_T9  1.2
    X_P13_T9  CAP_M6_T9  1
    X_P13_T9  CAP_M7_T9  1.2
    X_P13_T9  CAP_M8_T9  1.8
    X_P13_T9  CAP_M9_T9  1
    X_P13_T9  CAP_M10_T9  1.3
    X_P13_T9  CAP_M11_T9  1.2
    X_P14_T9  COST      24.8
    X_P14_T9  BAL_P14_T9  1
    X_P14_T9  CAP_M0_T9  1.1
    X_P14_T9  CAP_M1_T9  1.8
    X_P14_T9  CAP_M2_T9  1.9
    X_P14_T9  CAP_M3_T9  1.4
    X_P14_T9  CAP_M4_T9  1.5
    X_P14_T9  CAP_M5_T9  1.9
    X_P14_T9  CAP_M6_T9  2.7
    X_P14_T9  CAP_M7_T9  0.8
    X_P14_T9  CAP_M8_T9  1.7
    X_P14_T9  CAP_M9_T9  2.2
    X_P14_T9  CAP_M10_T9  2.7
    X_P14_T9  CAP_M11_T9  1.2
    X_P15_T9  COST      28.6
    X_P15_T9  BAL_P15_T9  1
    X_P15_T9  CAP_M0_T9  0.8
    X_P15_T9  CAP_M1_T9  0.8
    X_P15_T9  CAP_M2_T9  2.4
    X_P15_T9  CAP_M3_T9  2.3
    X_P15_T9  CAP_M4_T9  1.8
    X_P15_T9  CAP_M5_T9  0.8
    X_P15_T9  CAP_M6_T9  0.8
    X_P15_T9  CAP_M7_T9  1.4
    X_P15_T9  CAP_M8_T9  1.3
    X_P15_T9  CAP_M9_T9  1.8
    X_P15_T9  CAP_M10_T9  2.1
    X_P15_T9  CAP_M11_T9  1.5
    X_P16_T9  COST      49.2
    X_P16_T9  BAL_P16_T9  1
    X_P16_T9  CAP_M0_T9  1.1
    X_P16_T9  CAP_M1_T9  0.5
    X_P16_T9  CAP_M2_T9  1.2
    X_P16_T9  CAP_M3_T9  2.8
    X_P16_T9  CAP_M4_T9  1.1
    X_P16_T9  CAP_M5_T9  1
    X_P16_T9  CAP_M6_T9  1.8
    X_P16_T9  CAP_M7_T9  1.8
    X_P16_T9  CAP_M8_T9  2.5
    X_P16_T9  CAP_M9_T9  1.6
    X_P16_T9  CAP_M10_T9  2.7
    X_P16_T9  CAP_M11_T9  1.3
    X_P17_T9  COST      20.6
    X_P17_T9  BAL_P17_T9  1
    X_P17_T9  CAP_M0_T9  1.8
    X_P17_T9  CAP_M1_T9  2.2
    X_P17_T9  CAP_M2_T9  2.7
    X_P17_T9  CAP_M3_T9  2.2
    X_P17_T9  CAP_M4_T9  1.2
    X_P17_T9  CAP_M5_T9  1.3
    X_P17_T9  CAP_M6_T9  0.7
    X_P17_T9  CAP_M7_T9  1.3
    X_P17_T9  CAP_M8_T9  2.8
    X_P17_T9  CAP_M9_T9  1.4
    X_P17_T9  CAP_M10_T9  2.7
    X_P17_T9  CAP_M11_T9  2.2
    X_P18_T9  COST      35.4
    X_P18_T9  BAL_P18_T9  1
    X_P18_T9  CAP_M0_T9  1.3
    X_P18_T9  CAP_M1_T9  2.9
    X_P18_T9  CAP_M2_T9  1.7
    X_P18_T9  CAP_M3_T9  0.5
    X_P18_T9  CAP_M4_T9  2.4
    X_P18_T9  CAP_M5_T9  2.9
    X_P18_T9  CAP_M6_T9  2.1
    X_P18_T9  CAP_M7_T9  2.7
    X_P18_T9  CAP_M8_T9  1.4
    X_P18_T9  CAP_M9_T9  0.5
    X_P18_T9  CAP_M10_T9  2.1
    X_P18_T9  CAP_M11_T9  1.1
    X_P19_T9  COST      29.7
    X_P19_T9  BAL_P19_T9  1
    X_P19_T9  CAP_M0_T9  2.2
    X_P19_T9  CAP_M1_T9  2.8
    X_P19_T9  CAP_M2_T9  1.6
    X_P19_T9  CAP_M3_T9  2.6
    X_P19_T9  CAP_M4_T9  1.7
    X_P19_T9  CAP_M5_T9  1.3
    X_P19_T9  CAP_M6_T9  1
    X_P19_T9  CAP_M7_T9  1.5
    X_P19_T9  CAP_M8_T9  0.6
    X_P19_T9  CAP_M9_T9  2.8
    X_P19_T9  CAP_M10_T9  0.8
    X_P19_T9  CAP_M11_T9  0.8
    X_P20_T9  COST      48.5
    X_P20_T9  BAL_P20_T9  1
    X_P20_T9  CAP_M0_T9  1.2
    X_P20_T9  CAP_M1_T9  2
    X_P20_T9  CAP_M2_T9  1.4
    X_P20_T9  CAP_M3_T9  2.3
    X_P20_T9  CAP_M4_T9  1.5
    X_P20_T9  CAP_M5_T9  1.6
    X_P20_T9  CAP_M6_T9  2.6
    X_P20_T9  CAP_M7_T9  2.1
    X_P20_T9  CAP_M8_T9  1.2
    X_P20_T9  CAP_M9_T9  1
    X_P20_T9  CAP_M10_T9  2.3
    X_P20_T9  CAP_M11_T9  1.8
    X_P21_T9  COST      19.1
    X_P21_T9  BAL_P21_T9  1
    X_P21_T9  CAP_M0_T9  2.4
    X_P21_T9  CAP_M1_T9  1.9
    X_P21_T9  CAP_M2_T9  2.9
    X_P21_T9  CAP_M3_T9  2.7
    X_P21_T9  CAP_M4_T9  2.7
    X_P21_T9  CAP_M5_T9  1.7
    X_P21_T9  CAP_M6_T9  2.8
    X_P21_T9  CAP_M7_T9  2.5
    X_P21_T9  CAP_M8_T9  3
    X_P21_T9  CAP_M9_T9  2.7
    X_P21_T9  CAP_M10_T9  2.4
    X_P21_T9  CAP_M11_T9  2.4
    X_P22_T9  COST      42.7
    X_P22_T9  BAL_P22_T9  1
    X_P22_T9  CAP_M0_T9  0.6
    X_P22_T9  CAP_M1_T9  2.9
    X_P22_T9  CAP_M2_T9  2.1
    X_P22_T9  CAP_M3_T9  2.1
    X_P22_T9  CAP_M4_T9  2
    X_P22_T9  CAP_M5_T9  2.4
    X_P22_T9  CAP_M6_T9  2.2
    X_P22_T9  CAP_M7_T9  0.7
    X_P22_T9  CAP_M8_T9  0.5
    X_P22_T9  CAP_M9_T9  1.8
    X_P22_T9  CAP_M10_T9  1.1
    X_P22_T9  CAP_M11_T9  2.6
    X_P23_T9  COST      35.9
    X_P23_T9  BAL_P23_T9  1
    X_P23_T9  CAP_M0_T9  2.9
    X_P23_T9  CAP_M1_T9  1.2
    X_P23_T9  CAP_M2_T9  1.8
    X_P23_T9  CAP_M3_T9  1.8
    X_P23_T9  CAP_M4_T9  1.5
    X_P23_T9  CAP_M5_T9  0.5
    X_P23_T9  CAP_M6_T9  2.8
    X_P23_T9  CAP_M7_T9  1.9
    X_P23_T9  CAP_M8_T9  2.2
    X_P23_T9  CAP_M9_T9  2.9
    X_P23_T9  CAP_M10_T9  2.1
    X_P23_T9  CAP_M11_T9  2.2
    X_P24_T9  COST      11.9
    X_P24_T9  BAL_P24_T9  1
    X_P24_T9  CAP_M0_T9  1.1
    X_P24_T9  CAP_M1_T9  2.5
    X_P24_T9  CAP_M2_T9  1.3
    X_P24_T9  CAP_M3_T9  2.8
    X_P24_T9  CAP_M4_T9  1.1
    X_P24_T9  CAP_M5_T9  2
    X_P24_T9  CAP_M6_T9  1.4
    X_P24_T9  CAP_M7_T9  0.5
    X_P24_T9  CAP_M8_T9  1.2
    X_P24_T9  CAP_M9_T9  2.4
    X_P24_T9  CAP_M10_T9  0.6
    X_P24_T9  CAP_M11_T9  1.9
    S_P0_T9   COST      2.5
    S_P0_T9   BAL_P0_T9  -1
    S_P0_T9   STORAGE_T9  1
    S_P0_T9   BAL_P0_T10  1
    S_P1_T9   COST      3
    S_P1_T9   BAL_P1_T9  -1
    S_P1_T9   STORAGE_T9  1
    S_P1_T9   BAL_P1_T10  1
    S_P2_T9   COST      3.8
    S_P2_T9   BAL_P2_T9  -1
    S_P2_T9   STORAGE_T9  1
    S_P2_T9   BAL_P2_T10  1
    S_P3_T9   COST      4.9
    S_P3_T9   BAL_P3_T9  -1
    S_P3_T9   STORAGE_T9  1
    S_P3_T9   BAL_P3_T10  1
    S_P4_T9   COST      2.8
    S_P4_T9   BAL_P4_T9  -1
    S_P4_T9   STORAGE_T9  1
    S_P4_T9   BAL_P4_T10  1
    S_P5_T9   COST      1.8
    S_P5_T9   BAL_P5_T9  -1
    S_P5_T9   STORAGE_T9  1
    S_P5_T9   BAL_P5_T10  1
    S_P6_T9   COST      3.8
    S_P6_T9   BAL_P6_T9  -1
    S_P6_T9   STORAGE_T9  1
    S_P6_T9   BAL_P6_T10  1
    S_P7_T9   COST      4.2
    S_P7_T9   BAL_P7_T9  -1
    S_P7_T9   STORAGE_T9  1
    S_P7_T9   BAL_P7_T10  1
    S_P8_T9   COST      3.3
    S_P8_T9   BAL_P8_T9  -1
    S_P8_T9   STORAGE_T9  1
    S_P8_T9   BAL_P8_T10  1
    S_P9_T9   COST      2.9
    S_P9_T9   BAL_P9_T9  -1
    S_P9_T9   STORAGE_T9  1
    S_P9_T9   BAL_P9_T10  1
    S_P10_T9  COST      1.1
    S_P10_T9  BAL_P10_T9  -1
    S_P10_T9  STORAGE_T9  1
    S_P10_T9  BAL_P10_T10  1
    S_P11_T9  COST      4.2
    S_P11_T9  BAL_P11_T9  -1
    S_P11_T9  STORAGE_T9  1
    S_P11_T9  BAL_P11_T10  1
    S_P12_T9  COST      1.4
    S_P12_T9  BAL_P12_T9  -1
    S_P12_T9  STORAGE_T9  1
    S_P12_T9  BAL_P12_T10  1
    S_P13_T9  COST      2
    S_P13_T9  BAL_P13_T9  -1
    S_P13_T9  STORAGE_T9  1
    S_P13_T9  BAL_P13_T10  1
    S_P14_T9  COST      1.2
    S_P14_T9  BAL_P14_T9  -1
    S_P14_T9  STORAGE_T9  1
    S_P14_T9  BAL_P14_T10  1
    S_P15_T9  COST      3
    S_P15_T9  BAL_P15_T9  -1
    S_P15_T9  STORAGE_T9  1
    S_P15_T9  BAL_P15_T10  1
    S_P16_T9  COST      1.9
    S_P16_T9  BAL_P16_T9  -1
    S_P16_T9  STORAGE_T9  1
    S_P16_T9  BAL_P16_T10  1
    S_P17_T9  COST      1.2
    S_P17_T9  BAL_P17_T9  -1
    S_P17_T9  STORAGE_T9  1
    S_P17_T9  BAL_P17_T10  1
    S_P18_T9  COST      2.3
    S_P18_T9  BAL_P18_T9  -1
    S_P18_T9  STORAGE_T9  1
    S_P18_T9  BAL_P18_T10  1
    S_P19_T9  COST      4.7
    S_P19_T9  BAL_P19_T9  -1
    S_P19_T9  STORAGE_T9  1
    S_P19_T9  BAL_P19_T10  1
    S_P20_T9  COST      2.4
    S_P20_T9  BAL_P20_T9  -1
    S_P20_T9  STORAGE_T9  1
    S_P20_T9  BAL_P20_T10  1
    S_P21_T9  COST      1.4
    S_P21_T9  BAL_P21_T9  -1
    S_P21_T9  STORAGE_T9  1
    S_P21_T9  BAL_P21_T10  1
    S_P22_T9  COST      4.4
    S_P22_T9  BAL_P22_T9  -1
    S_P22_T9  STORAGE_T9  1
    S_P22_T9  BAL_P22_T10  1
    S_P23_T9  COST      4.7
    S_P23_T9  BAL_P23_T9  -1
    S_P23_T9  STORAGE_T9  1
    S_P23_T9  BAL_P23_T10  1
    S_P24_T9  COST      4.2
    S_P24_T9  BAL_P24_T9  -1
    S_P24_T9  STORAGE_T9  1
    S_P24_T9  BAL_P24_T10  1
    X_P0_T10  COST      15.9
    X_P0_T10  BAL_P0_T10  1
    X_P0_T10  CAP_M0_T10  1.4
    X_P0_T10  CAP_M1_T10  2.4
    X_P0_T10  CAP_M2_T10  0.5
    X_P0_T10  CAP_M3_T10  1
    X_P0_T10  CAP_M4_T10  1.3
    X_P0_T10  CAP_M5_T10  0.8
    X_P0_T10  CAP_M6_T10  1
    X_P0_T10  CAP_M7_T10  1.7
    X_P0_T10  CAP_M8_T10  0.7
    X_P0_T10  CAP_M9_T10  1.5
    X_P0_T10  CAP_M10_T10  2.4
    X_P0_T10  CAP_M11_T10  0.9
    X_P1_T10  COST      16.4
    X_P1_T10  BAL_P1_T10  1
    X_P1_T10  CAP_M0_T10  1
    X_P1_T10  CAP_M1_T10  2.2
    X_P1_T10  CAP_M2_T10  1
    X_P1_T10  CAP_M3_T10  2.4
    X_P1_T10  CAP_M4_T10  3
    X_P1_T10  CAP_M5_T10  2.2
    X_P1_T10  CAP_M6_T10  2.7
    X_P1_T10  CAP_M7_T10  1.4
    X_P1_T10  CAP_M8_T10  1.9
    X_P1_T10  CAP_M9_T10  0.9
    X_P1_T10  CAP_M10_T10  2.9
    X_P1_T10  CAP_M11_T10  2.2
    X_P2_T10  COST      21.8
    X_P2_T10  BAL_P2_T10  1
    X_P2_T10  CAP_M0_T10  2.6
    X_P2_T10  CAP_M1_T10  1.4
    X_P2_T10  CAP_M2_T10  0.8
    X_P2_T10  CAP_M3_T10  2.3
    X_P2_T10  CAP_M4_T10  2.5
    X_P2_T10  CAP_M5_T10  1
    X_P2_T10  CAP_M6_T10  1.2
    X_P2_T10  CAP_M7_T10  1
    X_P2_T10  CAP_M8_T10  1.1
    X_P2_T10  CAP_M9_T10  1.9
    X_P2_T10  CAP_M10_T10  3
    X_P2_T10  CAP_M11_T10  0.8
    X_P3_T10  COST      30.3
    X_P3_T10  BAL_P3_T10  1
    X_P3_T10  CAP_M0_T10  1.8
    X_P3_T10  CAP_M1_T10  2.8
    X_P3_T10  CAP_M2_T10  2.1
    X_P3_T10  CAP_M3_T10  1.6
    X_P3_T10  CAP_M4_T10  1.1
    X_P3_T10  CAP_M5_T10  0.7
    X_P3_T10  CAP_M6_T10  2
    X_P3_T10  CAP_M7_T10  2.7
    X_P3_T10  CAP_M8_T10  1.9
    X_P3_T10  CAP_M9_T10  2.6
    X_P3_T10  CAP_M10_T10  2.1
    X_P3_T10  CAP_M11_T10  2.3
    X_P4_T10  COST      33.8
    X_P4_T10  BAL_P4_T10  1
    X_P4_T10  CAP_M0_T10  1.9
    X_P4_T10  CAP_M1_T10  2
    X_P4_T10  CAP_M2_T10  2.5
    X_P4_T10  CAP_M3_T10  2.7
    X_P4_T10  CAP_M4_T10  2.1
    X_P4_T10  CAP_M5_T10  1.2
    X_P4_T10  CAP_M6_T10  1.6
    X_P4_T10  CAP_M7_T10  1.6
    X_P4_T10  CAP_M8_T10  2.1
    X_P4_T10  CAP_M9_T10  1.7
    X_P4_T10  CAP_M10_T10  0.8
    X_P4_T10  CAP_M11_T10  1.6
    X_P5_T10  COST      45.8
    X_P5_T10  BAL_P5_T10  1
    X_P5_T10  CAP_M0_T10  2.1
    X_P5_T10  CAP_M1_T10  0.7
    X_P5_T10  CAP_M2_T10  2.9
    X_P5_T10  CAP_M3_T10  1.3
    X_P5_T10  CAP_M4_T10  2.6
    X_P5_T10  CAP_M5_T10  1.9
    X_P5_T10  CAP_M6_T10  2.4
    X_P5_T10  CAP_M7_T10  1.8
    X_P5_T10  CAP_M8_T10  1.4
    X_P5_T10  CAP_M9_T10  0.7
    X_P5_T10  CAP_M10_T10  0.6
    X_P5_T10  CAP_M11_T10  2.9
    X_P6_T10  COST      18.3
    X_P6_T10  BAL_P6_T10  1
    X_P6_T10  CAP_M0_T10  1.3
    X_P6_T10  CAP_M1_T10  1.8
    X_P6_T10  CAP_M2_T10  2.5
    X_P6_T10  CAP_M3_T10  2.2
    X_P6_T10  CAP_M4_T10  0.7
    X_P6_T10  CAP_M5_T10  1.5
    X_P6_T10  CAP_M6_T10  0.6
    X_P6_T10  CAP_M7_T10  1.9
    X_P6_T10  CAP_M8_T10  1.3
    X_P6_T10  CAP_M9_T10  2.1
    X_P6_T10  CAP_M10_T10  2.4
    X_P6_T10  CAP_M11_T10  1.1
    X_P7_T10  COST      13.1
    X_P7_T10  BAL_P7_T10  1
    X_P7_T10  CAP_M0_T10  1.1
    X_P7_T10  CAP_M1_T10  2.2
    X_P7_T10  CAP_M2_T10  2.5
    X_P7_T10  CAP_M3_T10  2.9
    X_P7_T10  CAP_M4_T10  1
    X_P7_T10  CAP_M5_T10  2.9
    X_P7_T10  CAP_M6_T10  2.4
    X_P7_T10  CAP_M7_T10  1.6
    X_P7_T10  CAP_M8_T10  1.4
    X_P7_T10  CAP_M9_T10  0.6
    X_P7_T10  CAP_M10_T10  1.6
    X_P7_T10  CAP_M11_T10  1.7
    X_P8_T10  COST      34.6
    X_P8_T10  BAL_P8_T10  1
    X_P8_T10  CAP_M0_T10  1.8
    X_P8_T10  CAP_M1_T10  0.7
    X_P8_T10  CAP_M2_T10  2.7
    X_P8_T10  CAP_M3_T10  2.3
    X_P8_T10  CAP_M4_T10  1.6
    X_P8_T10  CAP_M5_T10  1.3
    X_P8_T10  CAP_M6_T10  2.9
    X_P8_T10  CAP_M7_T10  1.1
    X_P8_T10  CAP_M8_T10  1.5
    X_P8_T10  CAP_M9_T10  2.1
    X_P8_T10  CAP_M10_T10  1.6
    X_P8_T10  CAP_M11_T10  0.7
    X_P9_T10  COST      32.6
    X_P9_T10  BAL_P9_T10  1
    X_P9_T10  CAP_M0_T10  1.3
    X_P9_T10  CAP_M1_T10  2.8
    X_P9_T10  CAP_M2_T10  1.3
    X_P9_T10  CAP_M3_T10  0.6
    X_P9_T10  CAP_M4_T10  1.7
    X_P9_T10  CAP_M5_T10  2.5
    X_P9_T10  CAP_M6_T10  1
    X_P9_T10  CAP_M7_T10  2.5
    X_P9_T10  CAP_M8_T10  2.7
    X_P9_T10  CAP_M9_T10  1.1
    X_P9_T10  CAP_M10_T10  1.8
    X_P9_T10  CAP_M11_T10  2.8
    X_P10_T10  COST      42.3
    X_P10_T10  BAL_P10_T10  1
    X_P10_T10  CAP_M0_T10  0.8
    X_P10_T10  CAP_M1_T10  0.8
    X_P10_T10  CAP_M2_T10  1.3
    X_P10_T10  CAP_M3_T10  0.8
    X_P10_T10  CAP_M4_T10  0.7
    X_P10_T10  CAP_M5_T10  1.7
    X_P10_T10  CAP_M6_T10  1.4
    X_P10_T10  CAP_M7_T10  1.3
    X_P10_T10  CAP_M8_T10  2.9
    X_P10_T10  CAP_M9_T10  1.6
    X_P10_T10  CAP_M10_T10  2.9
    X_P10_T10  CAP_M11_T10  0.7
    X_P11_T10  COST      41.8
    X_P11_T10  BAL_P11_T10  1
    X_P11_T10  CAP_M0_T10  2.4
    X_P11_T10  CAP_M1_T10  1.8
    X_P11_T10  CAP_M2_T10  1.8
    X_P11_T10  CAP_M3_T10  1.5
    X_P11_T10  CAP_M4_T10  2.8
    X_P11_T10  CAP_M5_T10  1.4
    X_P11_T10  CAP_M6_T10  0.7
    X_P11_T10  CAP_M7_T10  0.7
    X_P11_T10  CAP_M8_T10  2
    X_P11_T10  CAP_M9_T10  1.5
    X_P11_T10  CAP_M10_T10  1.7
    X_P11_T10  CAP_M11_T10  2.8
    X_P12_T10  COST      29.7
    X_P12_T10  BAL_P12_T10  1
    X_P12_T10  CAP_M0_T10  2.4
    X_P12_T10  CAP_M1_T10  2.3
    X_P12_T10  CAP_M2_T10  1.7
    X_P12_T10  CAP_M3_T10  2
    X_P12_T10  CAP_M4_T10  1.9
    X_P12_T10  CAP_M5_T10  1.2
    X_P12_T10  CAP_M6_T10  1.7
    X_P12_T10  CAP_M7_T10  1.4
    X_P12_T10  CAP_M8_T10  2
    X_P12_T10  CAP_M9_T10  1.6
    X_P12_T10  CAP_M10_T10  1.3
    X_P12_T10  CAP_M11_T10  2.7
    X_P13_T10  COST      11.7
    X_P13_T10  BAL_P13_T10  1
    X_P13_T10  CAP_M0_T10  2.2
    X_P13_T10  CAP_M1_T10  0.8
    X_P13_T10  CAP_M2_T10  2.7
    X_P13_T10  CAP_M3_T10  2.1
    X_P13_T10  CAP_M4_T10  1.8
    X_P13_T10  CAP_M5_T10  1.2
    X_P13_T10  CAP_M6_T10  1
    X_P13_T10  CAP_M7_T10  1.2
    X_P13_T10  CAP_M8_T10  1.8
    X_P13_T10  CAP_M9_T10  1
    X_P13_T10  CAP_M10_T10  1.3
    X_P13_T10  CAP_M11_T10  1.2
    X_P14_T10  COST      40.2
    X_P14_T10  BAL_P14_T10  1
    X_P14_T10  CAP_M0_T10  1.1
    X_P14_T10  CAP_M1_T10  1.8
    X_P14_T10  CAP_M2_T10  1.9
    X_P14_T10  CAP_M3_T10  1.4
    X_P14_T10  CAP_M4_T10  1.5
    X_P14_T10  CAP_M5_T10  1.9
    X_P14_T10  CAP_M6_T10  2.7
    X_P14_T10  CAP_M7_T10  0.8
    X_P14_T10  CAP_M8_T10  1.7
    X_P14_T10  CAP_M9_T10  2.2
    X_P14_T10  CAP_M10_T10  2.7
    X_P14_T10  CAP_M11_T10  1.2
    X_P15_T10  COST      34.1
    X_P15_T10  BAL_P15_T10  1
    X_P15_T10  CAP_M0_T10  0.8
    X_P15_T10  CAP_M1_T10  0.8
    X_P15_T10  CAP_M2_T10  2.4
    X_P15_T10  CAP_M3_T10  2.3
    X_P15_T10  CAP_M4_T10  1.8
    X_P15_T10  CAP_M5_T10  0.8
    X_P15_T10  CAP_M6_T10  0.8
    X_P15_T10  CAP_M7_T10  1.4
    X_P15_T10  CAP_M8_T10  1.3
    X_P15_T10  CAP_M9_T10  1.8
    X_P15_T10  CAP_M10_T10  2.1
    X_P15_T10  CAP_M11_T10  1.5
    X_P16_T10  COST      32
    X_P16_T10  BAL_P16_T10  1
    X_P16_T10  CAP_M0_T10  1.1
    X_P16_T10  CAP_M1_T10  0.5
    X_P16_T10  CAP_M2_T10  1.2
    X_P16_T10  CAP_M3_T10  2.8
    X_P16_T10  CAP_M4_T10  1.1
    X_P16_T10  CAP_M5_T10  1
    X_P16_T10  CAP_M6_T10  1.8
    X_P16_T10  CAP_M7_T10  1.8
    X_P16_T10  CAP_M8_T10  2.5
    X_P16_T10  CAP_M9_T10  1.6
    X_P16_T10  CAP_M10_T10  2.7
    X_P16_T10  CAP_M11_T10  1.3
    X_P17_T10  COST      47.4
    X_P17_T10  BAL_P17_T10  1
    X_P17_T10  CAP_M0_T10  1.8
    X_P17_T10  CAP_M1_T10  2.2
    X_P17_T10  CAP_M2_T10  2.7
    X_P17_T10  CAP_M3_T10  2.2
    X_P17_T10  CAP_M4_T10  1.2
    X_P17_T10  CAP_M5_T10  1.3
    X_P17_T10  CAP_M6_T10  0.7
    X_P17_T10  CAP_M7_T10  1.3
    X_P17_T10  CAP_M8_T10  2.8
    X_P17_T10  CAP_M9_T10  1.4
    X_P17_T10  CAP_M10_T10  2.7
    X_P17_T10  CAP_M11_T10  2.2
    X_P18_T10  COST      33.5
    X_P18_T10  BAL_P18_T10  1
    X_P18_T10  CAP_M0_T10  1.3
    X_P18_T10  CAP_M1_T10  2.9
    X_P18_T10  CAP_M2_T10  1.7
    X_P18_T10  CAP_M3_T10  0.5
    X_P18_T10  CAP_M4_T10  2.4
    X_P18_T10  CAP_M5_T10  2.9
    X_P18_T10  CAP_M6_T10  2.1
    X_P18_T10  CAP_M7_T10  2.7
    X_P18_T10  CAP_M8_T10  1.4
    X_P18_T10  CAP_M9_T10  0.5
    X_P18_T10  CAP_M10_T10  2.1
    X_P18_T10  CAP_M11_T10  1.1
    X_P19_T10  COST      17.2
    X_P19_T10  BAL_P19_T10  1
    X_P19_T10  CAP_M0_T10  2.2
    X_P19_T10  CAP_M1_T10  2.8
    X_P19_T10  CAP_M2_T10  1.6
    X_P19_T10  CAP_M3_T10  2.6
    X_P19_T10  CAP_M4_T10  1.7
    X_P19_T10  CAP_M5_T10  1.3
    X_P19_T10  CAP_M6_T10  1
    X_P19_T10  CAP_M7_T10  1.5
    X_P19_T10  CAP_M8_T10  0.6
    X_P19_T10  CAP_M9_T10  2.8
    X_P19_T10  CAP_M10_T10  0.8
    X_P19_T10  CAP_M11_T10  0.8
    X_P20_T10  COST      15.5
    X_P20_T10  BAL_P20_T10  1
    X_P20_T10  CAP_M0_T10  1.2
    X_P20_T10  CAP_M1_T10  2
    X_P20_T10  CAP_M2_T10  1.4
    X_P20_T10  CAP_M3_T10  2.3
    X_P20_T10  CAP_M4_T10  1.5
    X_P20_T10  CAP_M5_T10  1.6
    X_P20_T10  CAP_M6_T10  2.6
    X_P20_T10  CAP_M7_T10  2.1
    X_P20_T10  CAP_M8_T10  1.2
    X_P20_T10  CAP_M9_T10  1
    X_P20_T10  CAP_M10_T10  2.3
    X_P20_T10  CAP_M11_T10  1.8
    X_P21_T10  COST      17.6
    X_P21_T10  BAL_P21_T10  1
    X_P21_T10  CAP_M0_T10  2.4
    X_P21_T10  CAP_M1_T10  1.9
    X_P21_T10  CAP_M2_T10  2.9
    X_P21_T10  CAP_M3_T10  2.7
    X_P21_T10  CAP_M4_T10  2.7
    X_P21_T10  CAP_M5_T10  1.7
    X_P21_T10  CAP_M6_T10  2.8
    X_P21_T10  CAP_M7_T10  2.5
    X_P21_T10  CAP_M8_T10  3
    X_P21_T10  CAP_M9_T10  2.7
    X_P21_T10  CAP_M10_T10  2.4
    X_P21_T10  CAP_M11_T10  2.4
    X_P22_T10  COST      33.8
    X_P22_T10  BAL_P22_T10  1
    X_P22_T10  CAP_M0_T10  0.6
    X_P22_T10  CAP_M1_T10  2.9
    X_P22_T10  CAP_M2_T10  2.1
    X_P22_T10  CAP_M3_T10  2.1
    X_P22_T10  CAP_M4_T10  2
    X_P22_T10  CAP_M5_T10  2.4
    X_P22_T10  CAP_M6_T10  2.2
    X_P22_T10  CAP_M7_T10  0.7
    X_P22_T10  CAP_M8_T10  0.5
    X_P22_T10  CAP_M9_T10  1.8
    X_P22_T10  CAP_M10_T10  1.1
    X_P22_T10  CAP_M11_T10  2.6
    X_P23_T10  COST      46.8
    X_P23_T10  BAL_P23_T10  1
    X_P23_T10  CAP_M0_T10  2.9
    X_P23_T10  CAP_M1_T10  1.2
    X_P23_T10  CAP_M2_T10  1.8
    X_P23_T10  CAP_M3_T10  1.8
    X_P23_T10  CAP_M4_T10  1.5
    X_P23_T10  CAP_M5_T10  0.5
    X_P23_T10  CAP_M6_T10  2.8
    X_P23_T10  CAP_M7_T10  1.9
    X_P23_T10  CAP_M8_T10  2.2
    X_P23_T10  CAP_M9_T10  2.9
    X_P23_T10  CAP_M10_T10  2.1
    X_P23_T10  CAP_M11_T10  2.2
    X_P24_T10  COST      38.1
    X_P24_T10  BAL_P24_T10  1
    X_P24_T10  CAP_M0_T10  1.1
    X_P24_T10  CAP_M1_T10  2.5
    X_P24_T10  CAP_M2_T10  1.3
    X_P24_T10  CAP_M3_T10  2.8
    X_P24_T10  CAP_M4_T10  1.1
    X_P24_T10  CAP_M5_T10  2
    X_P24_T10  CAP_M6_T10  1.4
    X_P24_T10  CAP_M7_T10  0.5
    X_P24_T10  CAP_M8_T10  1.2
    X_P24_T10  CAP_M9_T10  2.4
    X_P24_T10  CAP_M10_T10  0.6
    X_P24_T10  CAP_M11_T10  1.9
    S_P0_T10  COST      3.8
    S_P0_T10  BAL_P0_T10  -1
    S_P0_T10  STORAGE_T10  1
    S_P0_T10  BAL_P0_T11  1
    S_P1_T10  COST      1.1
    S_P1_T10  BAL_P1_T10  -1
    S_P1_T10  STORAGE_T10  1
    S_P1_T10  BAL_P1_T11  1
    S_P2_T10  COST      1.8
    S_P2_T10  BAL_P2_T10  -1
    S_P2_T10  STORAGE_T10  1
    S_P2_T10  BAL_P2_T11  1
    S_P3_T10  COST      4.3
    S_P3_T10  BAL_P3_T10  -1
    S_P3_T10  STORAGE_T10  1
    S_P3_T10  BAL_P3_T11  1
    S_P4_T10  COST      2.3
    S_P4_T10  BAL_P4_T10  -1
    S_P4_T10  STORAGE_T10  1
    S_P4_T10  BAL_P4_T11  1
    S_P5_T10  COST      2.5
    S_P5_T10  BAL_P5_T10  -1
    S_P5_T10  STORAGE_T10  1
    S_P5_T10  BAL_P5_T11  1
    S_P6_T10  COST      3.2
    S_P6_T10  BAL_P6_T10  -1
    S_P6_T10  STORAGE_T10  1
    S_P6_T10  BAL_P6_T11  1
    S_P7_T10  COST      5
    S_P7_T10  BAL_P7_T10  -1
    S_P7_T10  STORAGE_T10  1
    S_P7_T10  BAL_P7_T11  1
    S_P8_T10  COST      4.1
    S_P8_T10  BAL_P8_T10  -1
    S_P8_T10  STORAGE_T10  1
    S_P8_T10  BAL_P8_T11  1
    S_P9_T10  COST      4.3
    S_P9_T10  BAL_P9_T10  -1
    S_P9_T10  STORAGE_T10  1
    S_P9_T10  BAL_P9_T11  1
    S_P10_T10  COST      4.1
    S_P10_T10  BAL_P10_T10  -1
    S_P10_T10  STORAGE_T10  1
    S_P10_T10  BAL_P10_T11  1
    S_P11_T10  COST      4
    S_P11_T10  BAL_P11_T10  -1
    S_P11_T10  STORAGE_T10  1
    S_P11_T10  BAL_P11_T11  1
    S_P12_T10  COST      4.6
    S_P12_T10  BAL_P12_T10  -1
    S_P12_T10  STORAGE_T10  1
    S_P12_T10  BAL_P12_T11  1
    S_P13_T10  COST      1.7
    S_P13_T10  BAL_P13_T10  -1
    S_P13_T10  STORAGE_T10  1
    S_P13_T10  BAL_P13_T11  1
    S_P14_T10  COST      4.9
    S_P14_T10  BAL_P14_T10  -1
    S_P14_T10  STORAGE_T10  1
    S_P14_T10  BAL_P14_T11  1
    S_P15_T10  COST      2.8
    S_P15_T10  BAL_P15_T10  -1
    S_P15_T10  STORAGE_T10  1
    S_P15_T10  BAL_P15_T11  1
    S_P16_T10  COST      1.4
    S_P16_T10  BAL_P16_T10  -1
    S_P16_T10  STORAGE_T10  1
    S_P16_T10  BAL_P16_T11  1
    S_P17_T10  COST      3.1
    S_P17_T10  BAL_P17_T10  -1
    S_P17_T10  STORAGE_T10  1
    S_P17_T10  BAL_P17_T11  1
    S_P18_T10  COST      2.9
    S_P18_T10  BAL_P18_T10  -1
    S_P18_T10  STORAGE_T10  1
    S_P18_T10  BAL_P18_T11  1
    S_P19_T10  COST      4.8
    S_P19_T10  BAL_P19_T10  -1
    S_P19_T10  STORAGE_T10  1
    S_P19_T10  BAL_P19_T11  1
    S_P20_T10  COST      1.7
    S_P20_T10  BAL_P20_T10  -1
    S_P20_T10  STORAGE_T10  1
    S_P20_T10  BAL_P20_T11  1
    S_P21_T10  COST      2.5
    S_P21_T10  BAL_P21_T10  -1
    S_P21_T10  STORAGE_T10  1
    S_P21_T10  BAL_P21_T11  1
    S_P22_T10  COST      4.2
    S_P22_T10  BAL_P22_T10  -1
    S_P22_T10  STORAGE_T10  1
    S_P22_T10  BAL_P22_T11  1
    S_P23_T10  COST      4.6
    S_P23_T10  BAL_P23_T10  -1
    S_P23_T10  STORAGE_T10  1
    S_P23_T10  BAL_P23_T11  1
    S_P24_T10  COST      2.4
    S_P24_T10  BAL_P24_T10  -1
    S_P24_T10  STORAGE_T10  1
    S_P24_T10  BAL_P24_T11  1
    X_P0_T11  COST      14.9
    X_P0_T11  BAL_P0_T11  1
    X_P0_T11  CAP_M0_T11  1.4
    X_P0_T11  CAP_M1_T11  2.4
    X_P0_T11  CAP_M2_T11  0.5
    X_P0_T11  CAP_M3_T11  1
    X_P0_T11  CAP_M4_T11  1.3
    X_P0_T11  CAP_M5_T11  0.8
    X_P0_T11  CAP_M6_T11  1
    X_P0_T11  CAP_M7_T11  1.7
    X_P0_T11  CAP_M8_T11  0.7
    X_P0_T11  CAP_M9_T11  1.5
    X_P0_T11  CAP_M10_T11  2.4
    X_P0_T11  CAP_M11_T11  0.9
    X_P1_T11  COST      34.3
    X_P1_T11  BAL_P1_T11  1
    X_P1_T11  CAP_M0_T11  1
    X_P1_T11  CAP_M1_T11  2.2
    X_P1_T11  CAP_M2_T11  1
    X_P1_T11  CAP_M3_T11  2.4
    X_P1_T11  CAP_M4_T11  3
    X_P1_T11  CAP_M5_T11  2.2
    X_P1_T11  CAP_M6_T11  2.7
    X_P1_T11  CAP_M7_T11  1.4
    X_P1_T11  CAP_M8_T11  1.9
    X_P1_T11  CAP_M9_T11  0.9
    X_P1_T11  CAP_M10_T11  2.9
    X_P1_T11  CAP_M11_T11  2.2
    X_P2_T11  COST      28.7
    X_P2_T11  BAL_P2_T11  1
    X_P2_T11  CAP_M0_T11  2.6
    X_P2_T11  CAP_M1_T11  1.4
    X_P2_T11  CAP_M2_T11  0.8
    X_P2_T11  CAP_M3_T11  2.3
    X_P2_T11  CAP_M4_T11  2.5
    X_P2_T11  CAP_M5_T11  1
    X_P2_T11  CAP_M6_T11  1.2
    X_P2_T11  CAP_M7_T11  1
    X_P2_T11  CAP_M8_T11  1.1
    X_P2_T11  CAP_M9_T11  1.9
    X_P2_T11  CAP_M10_T11  3
    X_P2_T11  CAP_M11_T11  0.8
    X_P3_T11  COST      46.4
    X_P3_T11  BAL_P3_T11  1
    X_P3_T11  CAP_M0_T11  1.8
    X_P3_T11  CAP_M1_T11  2.8
    X_P3_T11  CAP_M2_T11  2.1
    X_P3_T11  CAP_M3_T11  1.6
    X_P3_T11  CAP_M4_T11  1.1
    X_P3_T11  CAP_M5_T11  0.7
    X_P3_T11  CAP_M6_T11  2
    X_P3_T11  CAP_M7_T11  2.7
    X_P3_T11  CAP_M8_T11  1.9
    X_P3_T11  CAP_M9_T11  2.6
    X_P3_T11  CAP_M10_T11  2.1
    X_P3_T11  CAP_M11_T11  2.3
    X_P4_T11  COST      45.4
    X_P4_T11  BAL_P4_T11  1
    X_P4_T11  CAP_M0_T11  1.9
    X_P4_T11  CAP_M1_T11  2
    X_P4_T11  CAP_M2_T11  2.5
    X_P4_T11  CAP_M3_T11  2.7
    X_P4_T11  CAP_M4_T11  2.1
    X_P4_T11  CAP_M5_T11  1.2
    X_P4_T11  CAP_M6_T11  1.6
    X_P4_T11  CAP_M7_T11  1.6
    X_P4_T11  CAP_M8_T11  2.1
    X_P4_T11  CAP_M9_T11  1.7
    X_P4_T11  CAP_M10_T11  0.8
    X_P4_T11  CAP_M11_T11  1.6
    X_P5_T11  COST      39.1
    X_P5_T11  BAL_P5_T11  1
    X_P5_T11  CAP_M0_T11  2.1
    X_P5_T11  CAP_M1_T11  0.7
    X_P5_T11  CAP_M2_T11  2.9
    X_P5_T11  CAP_M3_T11  1.3
    X_P5_T11  CAP_M4_T11  2.6
    X_P5_T11  CAP_M5_T11  1.9
    X_P5_T11  CAP_M6_T11  2.4
    X_P5_T11  CAP_M7_T11  1.8
    X_P5_T11  CAP_M8_T11  1.4
    X_P5_T11  CAP_M9_T11  0.7
    X_P5_T11  CAP_M10_T11  0.6
    X_P5_T11  CAP_M11_T11  2.9
    X_P6_T11  COST      23
    X_P6_T11  BAL_P6_T11  1
    X_P6_T11  CAP_M0_T11  1.3
    X_P6_T11  CAP_M1_T11  1.8
    X_P6_T11  CAP_M2_T11  2.5
    X_P6_T11  CAP_M3_T11  2.2
    X_P6_T11  CAP_M4_T11  0.7
    X_P6_T11  CAP_M5_T11  1.5
    X_P6_T11  CAP_M6_T11  0.6
    X_P6_T11  CAP_M7_T11  1.9
    X_P6_T11  CAP_M8_T11  1.3
    X_P6_T11  CAP_M9_T11  2.1
    X_P6_T11  CAP_M10_T11  2.4
    X_P6_T11  CAP_M11_T11  1.1
    X_P7_T11  COST      44.5
    X_P7_T11  BAL_P7_T11  1
    X_P7_T11  CAP_M0_T11  1.1
    X_P7_T11  CAP_M1_T11  2.2
    X_P7_T11  CAP_M2_T11  2.5
    X_P7_T11  CAP_M3_T11  2.9
    X_P7_T11  CAP_M4_T11  1
    X_P7_T11  CAP_M5_T11  2.9
    X_P7_T11  CAP_M6_T11  2.4
    X_P7_T11  CAP_M7_T11  1.6
    X_P7_T11  CAP_M8_T11  1.4
    X_P7_T11  CAP_M9_T11  0.6
    X_P7_T11  CAP_M10_T11  1.6
    X_P7_T11  CAP_M11_T11  1.7
    X_P8_T11  COST      33.4
    X_P8_T11  BAL_P8_T11  1
    X_P8_T11  CAP_M0_T11  1.8
    X_P8_T11  CAP_M1_T11  0.7
    X_P8_T11  CAP_M2_T11  2.7
    X_P8_T11  CAP_M3_T11  2.3
    X_P8_T11  CAP_M4_T11  1.6
    X_P8_T11  CAP_M5_T11  1.3
    X_P8_T11  CAP_M6_T11  2.9
    X_P8_T11  CAP_M7_T11  1.1
    X_P8_T11  CAP_M8_T11  1.5
    X_P8_T11  CAP_M9_T11  2.1
    X_P8_T11  CAP_M10_T11  1.6
    X_P8_T11  CAP_M11_T11  0.7
    X_P9_T11  COST      10.3
    X_P9_T11  BAL_P9_T11  1
    X_P9_T11  CAP_M0_T11  1.3
    X_P9_T11  CAP_M1_T11  2.8
    X_P9_T11  CAP_M2_T11  1.3
    X_P9_T11  CAP_M3_T11  0.6
    X_P9_T11  CAP_M4_T11  1.7
    X_P9_T11  CAP_M5_T11  2.5
    X_P9_T11  CAP_M6_T11  1
    X_P9_T11  CAP_M7_T11  2.5
    X_P9_T11  CAP_M8_T11  2.7
    X_P9_T11  CAP_M9_T11  1.1
    X_P9_T11  CAP_M10_T11  1.8
    X_P9_T11  CAP_M11_T11  2.8
    X_P10_T11  COST      45.8
    X_P10_T11  BAL_P10_T11  1
    X_P10_T11  CAP_M0_T11  0.8
    X_P10_T11  CAP_M1_T11  0.8
    X_P10_T11  CAP_M2_T11  1.3
    X_P10_T11  CAP_M3_T11  0.8
    X_P10_T11  CAP_M4_T11  0.7
    X_P10_T11  CAP_M5_T11  1.7
    X_P10_T11  CAP_M6_T11  1.4
    X_P10_T11  CAP_M7_T11  1.3
    X_P10_T11  CAP_M8_T11  2.9
    X_P10_T11  CAP_M9_T11  1.6
    X_P10_T11  CAP_M10_T11  2.9
    X_P10_T11  CAP_M11_T11  0.7
    X_P11_T11  COST      33.2
    X_P11_T11  BAL_P11_T11  1
    X_P11_T11  CAP_M0_T11  2.4
    X_P11_T11  CAP_M1_T11  1.8
    X_P11_T11  CAP_M2_T11  1.8
    X_P11_T11  CAP_M3_T11  1.5
    X_P11_T11  CAP_M4_T11  2.8
    X_P11_T11  CAP_M5_T11  1.4
    X_P11_T11  CAP_M6_T11  0.7
    X_P11_T11  CAP_M7_T11  0.7
    X_P11_T11  CAP_M8_T11  2
    X_P11_T11  CAP_M9_T11  1.5
    X_P11_T11  CAP_M10_T11  1.7
    X_P11_T11  CAP_M11_T11  2.8
    X_P12_T11  COST      33.4
    X_P12_T11  BAL_P12_T11  1
    X_P12_T11  CAP_M0_T11  2.4
    X_P12_T11  CAP_M1_T11  2.3
    X_P12_T11  CAP_M2_T11  1.7
    X_P12_T11  CAP_M3_T11  2
    X_P12_T11  CAP_M4_T11  1.9
    X_P12_T11  CAP_M5_T11  1.2
    X_P12_T11  CAP_M6_T11  1.7
    X_P12_T11  CAP_M7_T11  1.4
    X_P12_T11  CAP_M8_T11  2
    X_P12_T11  CAP_M9_T11  1.6
    X_P12_T11  CAP_M10_T11  1.3
    X_P12_T11  CAP_M11_T11  2.7
    X_P13_T11  COST      26.7
    X_P13_T11  BAL_P13_T11  1
    X_P13_T11  CAP_M0_T11  2.2
    X_P13_T11  CAP_M1_T11  0.8
    X_P13_T11  CAP_M2_T11  2.7
    X_P13_T11  CAP_M3_T11  2.1
    X_P13_T11  CAP_M4_T11  1.8
    X_P13_T11  CAP_M5_T11  1.2
    X_P13_T11  CAP_M6_T11  1
    X_P13_T11  CAP_M7_T11  1.2
    X_P13_T11  CAP_M8_T11  1.8
    X_P13_T11  CAP_M9_T11  1
    X_P13_T11  CAP_M10_T11  1.3
    X_P13_T11  CAP_M11_T11  1.2
    X_P14_T11  COST      31.5
    X_P14_T11  BAL_P14_T11  1
    X_P14_T11  CAP_M0_T11  1.1
    X_P14_T11  CAP_M1_T11  1.8
    X_P14_T11  CAP_M2_T11  1.9
    X_P14_T11  CAP_M3_T11  1.4
    X_P14_T11  CAP_M4_T11  1.5
    X_P14_T11  CAP_M5_T11  1.9
    X_P14_T11  CAP_M6_T11  2.7
    X_P14_T11  CAP_M7_T11  0.8
    X_P14_T11  CAP_M8_T11  1.7
    X_P14_T11  CAP_M9_T11  2.2
    X_P14_T11  CAP_M10_T11  2.7
    X_P14_T11  CAP_M11_T11  1.2
    X_P15_T11  COST      48.8
    X_P15_T11  BAL_P15_T11  1
    X_P15_T11  CAP_M0_T11  0.8
    X_P15_T11  CAP_M1_T11  0.8
    X_P15_T11  CAP_M2_T11  2.4
    X_P15_T11  CAP_M3_T11  2.3
    X_P15_T11  CAP_M4_T11  1.8
    X_P15_T11  CAP_M5_T11  0.8
    X_P15_T11  CAP_M6_T11  0.8
    X_P15_T11  CAP_M7_T11  1.4
    X_P15_T11  CAP_M8_T11  1.3
    X_P15_T11  CAP_M9_T11  1.8
    X_P15_T11  CAP_M10_T11  2.1
    X_P15_T11  CAP_M11_T11  1.5
    X_P16_T11  COST      34.9
    X_P16_T11  BAL_P16_T11  1
    X_P16_T11  CAP_M0_T11  1.1
    X_P16_T11  CAP_M1_T11  0.5
    X_P16_T11  CAP_M2_T11  1.2
    X_P16_T11  CAP_M3_T11  2.8
    X_P16_T11  CAP_M4_T11  1.1
    X_P16_T11  CAP_M5_T11  1
    X_P16_T11  CAP_M6_T11  1.8
    X_P16_T11  CAP_M7_T11  1.8
    X_P16_T11  CAP_M8_T11  2.5
    X_P16_T11  CAP_M9_T11  1.6
    X_P16_T11  CAP_M10_T11  2.7
    X_P16_T11  CAP_M11_T11  1.3
    X_P17_T11  COST      26.2
    X_P17_T11  BAL_P17_T11  1
    X_P17_T11  CAP_M0_T11  1.8
    X_P17_T11  CAP_M1_T11  2.2
    X_P17_T11  CAP_M2_T11  2.7
    X_P17_T11  CAP_M3_T11  2.2
    X_P17_T11  CAP_M4_T11  1.2
    X_P17_T11  CAP_M5_T11  1.3
    X_P17_T11  CAP_M6_T11  0.7
    X_P17_T11  CAP_M7_T11  1.3
    X_P17_T11  CAP_M8_T11  2.8
    X_P17_T11  CAP_M9_T11  1.4
    X_P17_T11  CAP_M10_T11  2.7
    X_P17_T11  CAP_M11_T11  2.2
    X_P18_T11  COST      49.4
    X_P18_T11  BAL_P18_T11  1
    X_P18_T11  CAP_M0_T11  1.3
    X_P18_T11  CAP_M1_T11  2.9
    X_P18_T11  CAP_M2_T11  1.7
    X_P18_T11  CAP_M3_T11  0.5
    X_P18_T11  CAP_M4_T11  2.4
    X_P18_T11  CAP_M5_T11  2.9
    X_P18_T11  CAP_M6_T11  2.1
    X_P18_T11  CAP_M7_T11  2.7
    X_P18_T11  CAP_M8_T11  1.4
    X_P18_T11  CAP_M9_T11  0.5
    X_P18_T11  CAP_M10_T11  2.1
    X_P18_T11  CAP_M11_T11  1.1
    X_P19_T11  COST      23.9
    X_P19_T11  BAL_P19_T11  1
    X_P19_T11  CAP_M0_T11  2.2
    X_P19_T11  CAP_M1_T11  2.8
    X_P19_T11  CAP_M2_T11  1.6
    X_P19_T11  CAP_M3_T11  2.6
    X_P19_T11  CAP_M4_T11  1.7
    X_P19_T11  CAP_M5_T11  1.3
    X_P19_T11  CAP_M6_T11  1
    X_P19_T11  CAP_M7_T11  1.5
    X_P19_T11  CAP_M8_T11  0.6
    X_P19_T11  CAP_M9_T11  2.8
    X_P19_T11  CAP_M10_T11  0.8
    X_P19_T11  CAP_M11_T11  0.8
    X_P20_T11  COST      16
    X_P20_T11  BAL_P20_T11  1
    X_P20_T11  CAP_M0_T11  1.2
    X_P20_T11  CAP_M1_T11  2
    X_P20_T11  CAP_M2_T11  1.4
    X_P20_T11  CAP_M3_T11  2.3
    X_P20_T11  CAP_M4_T11  1.5
    X_P20_T11  CAP_M5_T11  1.6
    X_P20_T11  CAP_M6_T11  2.6
    X_P20_T11  CAP_M7_T11  2.1
    X_P20_T11  CAP_M8_T11  1.2
    X_P20_T11  CAP_M9_T11  1
    X_P20_T11  CAP_M10_T11  2.3
    X_P20_T11  CAP_M11_T11  1.8
    X_P21_T11  COST      19.6
    X_P21_T11  BAL_P21_T11  1
    X_P21_T11  CAP_M0_T11  2.4
    X_P21_T11  CAP_M1_T11  1.9
    X_P21_T11  CAP_M2_T11  2.9
    X_P21_T11  CAP_M3_T11  2.7
    X_P21_T11  CAP_M4_T11  2.7
    X_P21_T11  CAP_M5_T11  1.7
    X_P21_T11  CAP_M6_T11  2.8
    X_P21_T11  CAP_M7_T11  2.5
    X_P21_T11  CAP_M8_T11  3
    X_P21_T11  CAP_M9_T11  2.7
    X_P21_T11  CAP_M10_T11  2.4
    X_P21_T11  CAP_M11_T11  2.4
    X_P22_T11  COST      36.3
    X_P22_T11  BAL_P22_T11  1
    X_P22_T11  CAP_M0_T11  0.6
    X_P22_T11  CAP_M1_T11  2.9
    X_P22_T11  CAP_M2_T11  2.1
    X_P22_T11  CAP_M3_T11  2.1
    X_P22_T11  CAP_M4_T11  2
    X_P22_T11  CAP_M5_T11  2.4
    X_P22_T11  CAP_M6_T11  2.2
    X_P22_T11  CAP_M7_T11  0.7
    X_P22_T11  CAP_M8_T11  0.5
    X_P22_T11  CAP_M9_T11  1.8
    X_P22_T11  CAP_M10_T11  1.1
    X_P22_T11  CAP_M11_T11  2.6
    X_P23_T11  COST      20.4
    X_P23_T11  BAL_P23_T11  1
    X_P23_T11  CAP_M0_T11  2.9
    X_P23_T11  CAP_M1_T11  1.2
    X_P23_T11  CAP_M2_T11  1.8
    X_P23_T11  CAP_M3_T11  1.8
    X_P23_T11  CAP_M4_T11  1.5
    X_P23_T11  CAP_M5_T11  0.5
    X_P23_T11  CAP_M6_T11  2.8
    X_P23_T11  CAP_M7_T11  1.9
    X_P23_T11  CAP_M8_T11  2.2
    X_P23_T11  CAP_M9_T11  2.9
    X_P23_T11  CAP_M10_T11  2.1
    X_P23_T11  CAP_M11_T11  2.2
    X_P24_T11  COST      28.4
    X_P24_T11  BAL_P24_T11  1
    X_P24_T11  CAP_M0_T11  1.1
    X_P24_T11  CAP_M1_T11  2.5
    X_P24_T11  CAP_M2_T11  1.3
    X_P24_T11  CAP_M3_T11  2.8
    X_P24_T11  CAP_M4_T11  1.1
    X_P24_T11  CAP_M5_T11  2
    X_P24_T11  CAP_M6_T11  1.4
    X_P24_T11  CAP_M7_T11  0.5
    X_P24_T11  CAP_M8_T11  1.2
    X_P24_T11  CAP_M9_T11  2.4
    X_P24_T11  CAP_M10_T11  0.6
    X_P24_T11  CAP_M11_T11  1.9
    S_P0_T11  COST      2.8
    S_P0_T11  BAL_P0_T11  -1
    S_P0_T11  STORAGE_T11  1
    S_P0_T11  BAL_P0_T12  1
    S_P1_T11  COST      4.8
    S_P1_T11  BAL_P1_T11  -1
    S_P1_T11  STORAGE_T11  1
    S_P1_T11  BAL_P1_T12  1
    S_P2_T11  COST      2.2
    S_P2_T11  BAL_P2_T11  -1
    S_P2_T11  STORAGE_T11  1
    S_P2_T11  BAL_P2_T12  1
    S_P3_T11  COST      4.2
    S_P3_T11  BAL_P3_T11  -1
    S_P3_T11  STORAGE_T11  1
    S_P3_T11  BAL_P3_T12  1
    S_P4_T11  COST      3
    S_P4_T11  BAL_P4_T11  -1
    S_P4_T11  STORAGE_T11  1
    S_P4_T11  BAL_P4_T12  1
    S_P5_T11  COST      2
    S_P5_T11  BAL_P5_T11  -1
    S_P5_T11  STORAGE_T11  1
    S_P5_T11  BAL_P5_T12  1
    S_P6_T11  COST      3.3
    S_P6_T11  BAL_P6_T11  -1
    S_P6_T11  STORAGE_T11  1
    S_P6_T11  BAL_P6_T12  1
    S_P7_T11  COST      3.2
    S_P7_T11  BAL_P7_T11  -1
    S_P7_T11  STORAGE_T11  1
    S_P7_T11  BAL_P7_T12  1
    S_P8_T11  COST      4.6
    S_P8_T11  BAL_P8_T11  -1
    S_P8_T11  STORAGE_T11  1
    S_P8_T11  BAL_P8_T12  1
    S_P9_T11  COST      2.2
    S_P9_T11  BAL_P9_T11  -1
    S_P9_T11  STORAGE_T11  1
    S_P9_T11  BAL_P9_T12  1
    S_P10_T11  COST      1.7
    S_P10_T11  BAL_P10_T11  -1
    S_P10_T11  STORAGE_T11  1
    S_P10_T11  BAL_P10_T12  1
    S_P11_T11  COST      3.6
    S_P11_T11  BAL_P11_T11  -1
    S_P11_T11  STORAGE_T11  1
    S_P11_T11  BAL_P11_T12  1
    S_P12_T11  COST      2.1
    S_P12_T11  BAL_P12_T11  -1
    S_P12_T11  STORAGE_T11  1
    S_P12_T11  BAL_P12_T12  1
    S_P13_T11  COST      3.6
    S_P13_T11  BAL_P13_T11  -1
    S_P13_T11  STORAGE_T11  1
    S_P13_T11  BAL_P13_T12  1
    S_P14_T11  COST      4.4
    S_P14_T11  BAL_P14_T11  -1
    S_P14_T11  STORAGE_T11  1
    S_P14_T11  BAL_P14_T12  1
    S_P15_T11  COST      4.2
    S_P15_T11  BAL_P15_T11  -1
    S_P15_T11  STORAGE_T11  1
    S_P15_T11  BAL_P15_T12  1
    S_P16_T11  COST      4.4
    S_P16_T11  BAL_P16_T11  -1
    S_P16_T11  STORAGE_T11  1
    S_P16_T11  BAL_P16_T12  1
    S_P17_T11  COST      3
    S_P17_T11  BAL_P17_T11  -1
    S_P17_T11  STORAGE_T11  1
    S_P17_T11  BAL_P17_T12  1
    S_P18_T11  COST      1.9
    S_P18_T11  BAL_P18_T11  -1
    S_P18_T11  STORAGE_T11  1
    S_P18_T11  BAL_P18_T12  1
    S_P19_T11  COST      4.7
    S_P19_T11  BAL_P19_T11  -1
    S_P19_T11  STORAGE_T11  1
    S_P19_T11  BAL_P19_T12  1
    S_P20_T11  COST      4.5
    S_P20_T11  BAL_P20_T11  -1
    S_P20_T11  STORAGE_T11  1
    S_P20_T11  BAL_P20_T12  1
    S_P21_T11  COST      2.6
    S_P21_T11  BAL_P21_T11  -1
    S_P21_T11  STORAGE_T11  1
    S_P21_T11  BAL_P21_T12  1
    S_P22_T11  COST      2.1
    S_P22_T11  BAL_P22_T11  -1
    S_P22_T11  STORAGE_T11  1
    S_P22_T11  BAL_P22_T12  1
    S_P23_T11  COST      1.4
    S_P23_T11  BAL_P23_T11  -1
    S_P23_T11  STORAGE_T11  1
    S_P23_T11  BAL_P23_T12  1
    S_P24_T11  COST      1.5
    S_P24_T11  BAL_P24_T11  -1
    S_P24_T11  STORAGE_T11  1
    S_P24_T11  BAL_P24_T12  1
    X_P0_T12  COST      32.1
    X_P0_T12  BAL_P0_T12  1
    X_P0_T12  CAP_M0_T12  1.4
    X_P0_T12  CAP_M1_T12  2.4
    X_P0_T12  CAP_M2_T12  0.5
    X_P0_T12  CAP_M3_T12  1
    X_P0_T12  CAP_M4_T12  1.3
    X_P0_T12  CAP_M5_T12  0.8
    X_P0_T12  CAP_M6_T12  1
    X_P0_T12  CAP_M7_T12  1.7
    X_P0_T12  CAP_M8_T12  0.7
    X_P0_T12  CAP_M9_T12  1.5
    X_P0_T12  CAP_M10_T12  2.4
    X_P0_T12  CAP_M11_T12  0.9
    X_P1_T12  COST      31.6
    X_P1_T12  BAL_P1_T12  1
    X_P1_T12  CAP_M0_T12  1
    X_P1_T12  CAP_M1_T12  2.2
    X_P1_T12  CAP_M2_T12  1
    X_P1_T12  CAP_M3_T12  2.4
    X_P1_T12  CAP_M4_T12  3
    X_P1_T12  CAP_M5_T12  2.2
    X_P1_T12  CAP_M6_T12  2.7
    X_P1_T12  CAP_M7_T12  1.4
    X_P1_T12  CAP_M8_T12  1.9
    X_P1_T12  CAP_M9_T12  0.9
    X_P1_T12  CAP_M10_T12  2.9
    X_P1_T12  CAP_M11_T12  2.2
    X_P2_T12  COST      43
    X_P2_T12  BAL_P2_T12  1
    X_P2_T12  CAP_M0_T12  2.6
    X_P2_T12  CAP_M1_T12  1.4
    X_P2_T12  CAP_M2_T12  0.8
    X_P2_T12  CAP_M3_T12  2.3
    X_P2_T12  CAP_M4_T12  2.5
    X_P2_T12  CAP_M5_T12  1
    X_P2_T12  CAP_M6_T12  1.2
    X_P2_T12  CAP_M7_T12  1
    X_P2_T12  CAP_M8_T12  1.1
    X_P2_T12  CAP_M9_T12  1.9
    X_P2_T12  CAP_M10_T12  3
    X_P2_T12  CAP_M11_T12  0.8
    X_P3_T12  COST      34.5
    X_P3_T12  BAL_P3_T12  1
    X_P3_T12  CAP_M0_T12  1.8
    X_P3_T12  CAP_M1_T12  2.8
    X_P3_T12  CAP_M2_T12  2.1
    X_P3_T12  CAP_M3_T12  1.6
    X_P3_T12  CAP_M4_T12  1.1
    X_P3_T12  CAP_M5_T12  0.7
    X_P3_T12  CAP_M6_T12  2
    X_P3_T12  CAP_M7_T12  2.7
    X_P3_T12  CAP_M8_T12  1.9
    X_P3_T12  CAP_M9_T12  2.6
    X_P3_T12  CAP_M10_T12  2.1
    X_P3_T12  CAP_M11_T12  2.3
    X_P4_T12  COST      24.9
    X_P4_T12  BAL_P4_T12  1
    X_P4_T12  CAP_M0_T12  1.9
    X_P4_T12  CAP_M1_T12  2
    X_P4_T12  CAP_M2_T12  2.5
    X_P4_T12  CAP_M3_T12  2.7
    X_P4_T12  CAP_M4_T12  2.1
    X_P4_T12  CAP_M5_T12  1.2
    X_P4_T12  CAP_M6_T12  1.6
    X_P4_T12  CAP_M7_T12  1.6
    X_P4_T12  CAP_M8_T12  2.1
    X_P4_T12  CAP_M9_T12  1.7
    X_P4_T12  CAP_M10_T12  0.8
    X_P4_T12  CAP_M11_T12  1.6
    X_P5_T12  COST      32.4
    X_P5_T12  BAL_P5_T12  1
    X_P5_T12  CAP_M0_T12  2.1
    X_P5_T12  CAP_M1_T12  0.7
    X_P5_T12  CAP_M2_T12  2.9
    X_P5_T12  CAP_M3_T12  1.3
    X_P5_T12  CAP_M4_T12  2.6
    X_P5_T12  CAP_M5_T12  1.9
    X_P5_T12  CAP_M6_T12  2.4
    X_P5_T12  CAP_M7_T12  1.8
    X_P5_T12  CAP_M8_T12  1.4
    X_P5_T12  CAP_M9_T12  0.7
    X_P5_T12  CAP_M10_T12  0.6
    X_P5_T12  CAP_M11_T12  2.9
    X_P6_T12  COST      48.1
    X_P6_T12  BAL_P6_T12  1
    X_P6_T12  CAP_M0_T12  1.3
    X_P6_T12  CAP_M1_T12  1.8
    X_P6_T12  CAP_M2_T12  2.5
    X_P6_T12  CAP_M3_T12  2.2
    X_P6_T12  CAP_M4_T12  0.7
    X_P6_T12  CAP_M5_T12  1.5
    X_P6_T12  CAP_M6_T12  0.6
    X_P6_T12  CAP_M7_T12  1.9
    X_P6_T12  CAP_M8_T12  1.3
    X_P6_T12  CAP_M9_T12  2.1
    X_P6_T12  CAP_M10_T12  2.4
    X_P6_T12  CAP_M11_T12  1.1
    X_P7_T12  COST      18.3
    X_P7_T12  BAL_P7_T12  1
    X_P7_T12  CAP_M0_T12  1.1
    X_P7_T12  CAP_M1_T12  2.2
    X_P7_T12  CAP_M2_T12  2.5
    X_P7_T12  CAP_M3_T12  2.9
    X_P7_T12  CAP_M4_T12  1
    X_P7_T12  CAP_M5_T12  2.9
    X_P7_T12  CAP_M6_T12  2.4
    X_P7_T12  CAP_M7_T12  1.6
    X_P7_T12  CAP_M8_T12  1.4
    X_P7_T12  CAP_M9_T12  0.6
    X_P7_T12  CAP_M10_T12  1.6
    X_P7_T12  CAP_M11_T12  1.7
    X_P8_T12  COST      26.1
    X_P8_T12  BAL_P8_T12  1
    X_P8_T12  CAP_M0_T12  1.8
    X_P8_T12  CAP_M1_T12  0.7
    X_P8_T12  CAP_M2_T12  2.7
    X_P8_T12  CAP_M3_T12  2.3
    X_P8_T12  CAP_M4_T12  1.6
    X_P8_T12  CAP_M5_T12  1.3
    X_P8_T12  CAP_M6_T12  2.9
    X_P8_T12  CAP_M7_T12  1.1
    X_P8_T12  CAP_M8_T12  1.5
    X_P8_T12  CAP_M9_T12  2.1
    X_P8_T12  CAP_M10_T12  1.6
    X_P8_T12  CAP_M11_T12  0.7
    X_P9_T12  COST      17.8
    X_P9_T12  BAL_P9_T12  1
    X_P9_T12  CAP_M0_T12  1.3
    X_P9_T12  CAP_M1_T12  2.8
    X_P9_T12  CAP_M2_T12  1.3
    X_P9_T12  CAP_M3_T12  0.6
    X_P9_T12  CAP_M4_T12  1.7
    X_P9_T12  CAP_M5_T12  2.5
    X_P9_T12  CAP_M6_T12  1
    X_P9_T12  CAP_M7_T12  2.5
    X_P9_T12  CAP_M8_T12  2.7
    X_P9_T12  CAP_M9_T12  1.1
    X_P9_T12  CAP_M10_T12  1.8
    X_P9_T12  CAP_M11_T12  2.8
    X_P10_T12  COST      14.1
    X_P10_T12  BAL_P10_T12  1
    X_P10_T12  CAP_M0_T12  0.8
    X_P10_T12  CAP_M1_T12  0.8
    X_P10_T12  CAP_M2_T12  1.3
    X_P10_T12  CAP_M3_T12  0.8
    X_P10_T12  CAP_M4_T12  0.7
    X_P10_T12  CAP_M5_T12  1.7
    X_P10_T12  CAP_M6_T12  1.4
    X_P10_T12  CAP_M7_T12  1.3
    X_P10_T12  CAP_M8_T12  2.9
    X_P10_T12  CAP_M9_T12  1.6
    X_P10_T12  CAP_M10_T12  2.9
    X_P10_T12  CAP_M11_T12  0.7
    X_P11_T12  COST      41.2
    X_P11_T12  BAL_P11_T12  1
    X_P11_T12  CAP_M0_T12  2.4
    X_P11_T12  CAP_M1_T12  1.8
    X_P11_T12  CAP_M2_T12  1.8
    X_P11_T12  CAP_M3_T12  1.5
    X_P11_T12  CAP_M4_T12  2.8
    X_P11_T12  CAP_M5_T12  1.4
    X_P11_T12  CAP_M6_T12  0.7
    X_P11_T12  CAP_M7_T12  0.7
    X_P11_T12  CAP_M8_T12  2
    X_P11_T12  CAP_M9_T12  1.5
    X_P11_T12  CAP_M10_T12  1.7
    X_P11_T12  CAP_M11_T12  2.8
    X_P12_T12  COST      45.8
    X_P12_T12  BAL_P12_T12  1
    X_P12_T12  CAP_M0_T12  2.4
    X_P12_T12  CAP_M1_T12  2.3
    X_P12_T12  CAP_M2_T12  1.7
    X_P12_T12  CAP_M3_T12  2
    X_P12_T12  CAP_M4_T12  1.9
    X_P12_T12  CAP_M5_T12  1.2
    X_P12_T12  CAP_M6_T12  1.7
    X_P12_T12  CAP_M7_T12  1.4
    X_P12_T12  CAP_M8_T12  2
    X_P12_T12  CAP_M9_T12  1.6
    X_P12_T12  CAP_M10_T12  1.3
    X_P12_T12  CAP_M11_T12  2.7
    X_P13_T12  COST      31
    X_P13_T12  BAL_P13_T12  1
    X_P13_T12  CAP_M0_T12  2.2
    X_P13_T12  CAP_M1_T12  0.8
    X_P13_T12  CAP_M2_T12  2.7
    X_P13_T12  CAP_M3_T12  2.1
    X_P13_T12  CAP_M4_T12  1.8
    X_P13_T12  CAP_M5_T12  1.2
    X_P13_T12  CAP_M6_T12  1
    X_P13_T12  CAP_M7_T12  1.2
    X_P13_T12  CAP_M8_T12  1.8
    X_P13_T12  CAP_M9_T12  1
    X_P13_T12  CAP_M10_T12  1.3
    X_P13_T12  CAP_M11_T12  1.2
    X_P14_T12  COST      16.7
    X_P14_T12  BAL_P14_T12  1
    X_P14_T12  CAP_M0_T12  1.1
    X_P14_T12  CAP_M1_T12  1.8
    X_P14_T12  CAP_M2_T12  1.9
    X_P14_T12  CAP_M3_T12  1.4
    X_P14_T12  CAP_M4_T12  1.5
    X_P14_T12  CAP_M5_T12  1.9
    X_P14_T12  CAP_M6_T12  2.7
    X_P14_T12  CAP_M7_T12  0.8
    X_P14_T12  CAP_M8_T12  1.7
    X_P14_T12  CAP_M9_T12  2.2
    X_P14_T12  CAP_M10_T12  2.7
    X_P14_T12  CAP_M11_T12  1.2
    X_P15_T12  COST      41.6
    X_P15_T12  BAL_P15_T12  1
    X_P15_T12  CAP_M0_T12  0.8
    X_P15_T12  CAP_M1_T12  0.8
    X_P15_T12  CAP_M2_T12  2.4
    X_P15_T12  CAP_M3_T12  2.3
    X_P15_T12  CAP_M4_T12  1.8
    X_P15_T12  CAP_M5_T12  0.8
    X_P15_T12  CAP_M6_T12  0.8
    X_P15_T12  CAP_M7_T12  1.4
    X_P15_T12  CAP_M8_T12  1.3
    X_P15_T12  CAP_M9_T12  1.8
    X_P15_T12  CAP_M10_T12  2.1
    X_P15_T12  CAP_M11_T12  1.5
    X_P16_T12  COST      14.6
    X_P16_T12  BAL_P16_T12  1
    X_P16_T12  CAP_M0_T12  1.1
    X_P16_T12  CAP_M1_T12  0.5
    X_P16_T12  CAP_M2_T12  1.2
    X_P16_T12  CAP_M3_T12  2.8
    X_P16_T12  CAP_M4_T12  1.1
    X_P16_T12  CAP_M5_T12  1
    X_P16_T12  CAP_M6_T12  1.8
    X_P16_T12  CAP_M7_T12  1.8
    X_P16_T12  CAP_M8_T12  2.5
    X_P16_T12  CAP_M9_T12  1.6
    X_P16_T12  CAP_M10_T12  2.7
    X_P16_T12  CAP_M11_T12  1.3
    X_P17_T12  COST      20.6
    X_P17_T12  BAL_P17_T12  1
    X_P17_T12  CAP_M0_T12  1.8
    X_P17_T12  CAP_M1_T12  2.2
    X_P17_T12  CAP_M2_T12  2.7
    X_P17_T12  CAP_M3_T12  2.2
    X_P17_T12  CAP_M4_T12  1.2
    X_P17_T12  CAP_M5_T12  1.3
    X_P17_T12  CAP_M6_T12  0.7
    X_P17_T12  CAP_M7_T12  1.3
    X_P17_T12  CAP_M8_T12  2.8
    X_P17_T12  CAP_M9_T12  1.4
    X_P17_T12  CAP_M10_T12  2.7
    X_P17_T12  CAP_M11_T12  2.2
    X_P18_T12  COST      44.2
    X_P18_T12  BAL_P18_T12  1
    X_P18_T12  CAP_M0_T12  1.3
    X_P18_T12  CAP_M1_T12  2.9
    X_P18_T12  CAP_M2_T12  1.7
    X_P18_T12  CAP_M3_T12  0.5
    X_P18_T12  CAP_M4_T12  2.4
    X_P18_T12  CAP_M5_T12  2.9
    X_P18_T12  CAP_M6_T12  2.1
    X_P18_T12  CAP_M7_T12  2.7
    X_P18_T12  CAP_M8_T12  1.4
    X_P18_T12  CAP_M9_T12  0.5
    X_P18_T12  CAP_M10_T12  2.1
    X_P18_T12  CAP_M11_T12  1.1
    X_P19_T12  COST      39.9
    X_P19_T12  BAL_P19_T12  1
    X_P19_T12  CAP_M0_T12  2.2
    X_P19_T12  CAP_M1_T12  2.8
    X_P19_T12  CAP_M2_T12  1.6
    X_P19_T12  CAP_M3_T12  2.6
    X_P19_T12  CAP_M4_T12  1.7
    X_P19_T12  CAP_M5_T12  1.3
    X_P19_T12  CAP_M6_T12  1
    X_P19_T12  CAP_M7_T12  1.5
    X_P19_T12  CAP_M8_T12  0.6
    X_P19_T12  CAP_M9_T12  2.8
    X_P19_T12  CAP_M10_T12  0.8
    X_P19_T12  CAP_M11_T12  0.8
    X_P20_T12  COST      32.9
    X_P20_T12  BAL_P20_T12  1
    X_P20_T12  CAP_M0_T12  1.2
    X_P20_T12  CAP_M1_T12  2
    X_P20_T12  CAP_M2_T12  1.4
    X_P20_T12  CAP_M3_T12  2.3
    X_P20_T12  CAP_M4_T12  1.5
    X_P20_T12  CAP_M5_T12  1.6
    X_P20_T12  CAP_M6_T12  2.6
    X_P20_T12  CAP_M7_T12  2.1
    X_P20_T12  CAP_M8_T12  1.2
    X_P20_T12  CAP_M9_T12  1
    X_P20_T12  CAP_M10_T12  2.3
    X_P20_T12  CAP_M11_T12  1.8
    X_P21_T12  COST      33
    X_P21_T12  BAL_P21_T12  1
    X_P21_T12  CAP_M0_T12  2.4
    X_P21_T12  CAP_M1_T12  1.9
    X_P21_T12  CAP_M2_T12  2.9
    X_P21_T12  CAP_M3_T12  2.7
    X_P21_T12  CAP_M4_T12  2.7
    X_P21_T12  CAP_M5_T12  1.7
    X_P21_T12  CAP_M6_T12  2.8
    X_P21_T12  CAP_M7_T12  2.5
    X_P21_T12  CAP_M8_T12  3
    X_P21_T12  CAP_M9_T12  2.7
    X_P21_T12  CAP_M10_T12  2.4
    X_P21_T12  CAP_M11_T12  2.4
    X_P22_T12  COST      10.7
    X_P22_T12  BAL_P22_T12  1
    X_P22_T12  CAP_M0_T12  0.6
    X_P22_T12  CAP_M1_T12  2.9
    X_P22_T12  CAP_M2_T12  2.1
    X_P22_T12  CAP_M3_T12  2.1
    X_P22_T12  CAP_M4_T12  2
    X_P22_T12  CAP_M5_T12  2.4
    X_P22_T12  CAP_M6_T12  2.2
    X_P22_T12  CAP_M7_T12  0.7
    X_P22_T12  CAP_M8_T12  0.5
    X_P22_T12  CAP_M9_T12  1.8
    X_P22_T12  CAP_M10_T12  1.1
    X_P22_T12  CAP_M11_T12  2.6
    X_P23_T12  COST      15.1
    X_P23_T12  BAL_P23_T12  1
    X_P23_T12  CAP_M0_T12  2.9
    X_P23_T12  CAP_M1_T12  1.2
    X_P23_T12  CAP_M2_T12  1.8
    X_P23_T12  CAP_M3_T12  1.8
    X_P23_T12  CAP_M4_T12  1.5
    X_P23_T12  CAP_M5_T12  0.5
    X_P23_T12  CAP_M6_T12  2.8
    X_P23_T12  CAP_M7_T12  1.9
    X_P23_T12  CAP_M8_T12  2.2
    X_P23_T12  CAP_M9_T12  2.9
    X_P23_T12  CAP_M10_T12  2.1
    X_P23_T12  CAP_M11_T12  2.2
    X_P24_T12  COST      31.7
    X_P24_T12  BAL_P24_T12  1
    X_P24_T12  CAP_M0_T12  1.1
    X_P24_T12  CAP_M1_T12  2.5
    X_P24_T12  CAP_M2_T12  1.3
    X_P24_T12  CAP_M3_T12  2.8
    X_P24_T12  CAP_M4_T12  1.1
    X_P24_T12  CAP_M5_T12  2
    X_P24_T12  CAP_M6_T12  1.4
    X_P24_T12  CAP_M7_T12  0.5
    X_P24_T12  CAP_M8_T12  1.2
    X_P24_T12  CAP_M9_T12  2.4
    X_P24_T12  CAP_M10_T12  0.6
    X_P24_T12  CAP_M11_T12  1.9
    S_P0_T12  COST      3.5
    S_P0_T12  BAL_P0_T12  -1
    S_P0_T12  STORAGE_T12  1
    S_P0_T12  BAL_P0_T13  1
    S_P1_T12  COST      2.5
    S_P1_T12  BAL_P1_T12  -1
    S_P1_T12  STORAGE_T12  1
    S_P1_T12  BAL_P1_T13  1
    S_P2_T12  COST      1.6
    S_P2_T12  BAL_P2_T12  -1
    S_P2_T12  STORAGE_T12  1
    S_P2_T12  BAL_P2_T13  1
    S_P3_T12  COST      2.1
    S_P3_T12  BAL_P3_T12  -1
    S_P3_T12  STORAGE_T12  1
    S_P3_T12  BAL_P3_T13  1
    S_P4_T12  COST      1.8
    S_P4_T12  BAL_P4_T12  -1
    S_P4_T12  STORAGE_T12  1
    S_P4_T12  BAL_P4_T13  1
    S_P5_T12  COST      3.6
    S_P5_T12  BAL_P5_T12  -1
    S_P5_T12  STORAGE_T12  1
    S_P5_T12  BAL_P5_T13  1
    S_P6_T12  COST      2.5
    S_P6_T12  BAL_P6_T12  -1
    S_P6_T12  STORAGE_T12  1
    S_P6_T12  BAL_P6_T13  1
    S_P7_T12  COST      1.5
    S_P7_T12  BAL_P7_T12  -1
    S_P7_T12  STORAGE_T12  1
    S_P7_T12  BAL_P7_T13  1
    S_P8_T12  COST      3.9
    S_P8_T12  BAL_P8_T12  -1
    S_P8_T12  STORAGE_T12  1
    S_P8_T12  BAL_P8_T13  1
    S_P9_T12  COST      4.2
    S_P9_T12  BAL_P9_T12  -1
    S_P9_T12  STORAGE_T12  1
    S_P9_T12  BAL_P9_T13  1
    S_P10_T12  COST      3.4
    S_P10_T12  BAL_P10_T12  -1
    S_P10_T12  STORAGE_T12  1
    S_P10_T12  BAL_P10_T13  1
    S_P11_T12  COST      1
    S_P11_T12  BAL_P11_T12  -1
    S_P11_T12  STORAGE_T12  1
    S_P11_T12  BAL_P11_T13  1
    S_P12_T12  COST      3.8
    S_P12_T12  BAL_P12_T12  -1
    S_P12_T12  STORAGE_T12  1
    S_P12_T12  BAL_P12_T13  1
    S_P13_T12  COST      4.5
    S_P13_T12  BAL_P13_T12  -1
    S_P13_T12  STORAGE_T12  1
    S_P13_T12  BAL_P13_T13  1
    S_P14_T12  COST      3.1
    S_P14_T12  BAL_P14_T12  -1
    S_P14_T12  STORAGE_T12  1
    S_P14_T12  BAL_P14_T13  1
    S_P15_T12  COST      2.8
    S_P15_T12  BAL_P15_T12  -1
    S_P15_T12  STORAGE_T12  1
    S_P15_T12  BAL_P15_T13  1
    S_P16_T12  COST      2.3
    S_P16_T12  BAL_P16_T12  -1
    S_P16_T12  STORAGE_T12  1
    S_P16_T12  BAL_P16_T13  1
    S_P17_T12  COST      3.5
    S_P17_T12  BAL_P17_T12  -1
    S_P17_T12  STORAGE_T12  1
    S_P17_T12  BAL_P17_T13  1
    S_P18_T12  COST      3.1
    S_P18_T12  BAL_P18_T12  -1
    S_P18_T12  STORAGE_T12  1
    S_P18_T12  BAL_P18_T13  1
    S_P19_T12  COST      1.9
    S_P19_T12  BAL_P19_T12  -1
    S_P19_T12  STORAGE_T12  1
    S_P19_T12  BAL_P19_T13  1
    S_P20_T12  COST      2.2
    S_P20_T12  BAL_P20_T12  -1
    S_P20_T12  STORAGE_T12  1
    S_P20_T12  BAL_P20_T13  1
    S_P21_T12  COST      2.1
    S_P21_T12  BAL_P21_T12  -1
    S_P21_T12  STORAGE_T12  1
    S_P21_T12  BAL_P21_T13  1
    S_P22_T12  COST      4.6
    S_P22_T12  BAL_P22_T12  -1
    S_P22_T12  STORAGE_T12  1
    S_P22_T12  BAL_P22_T13  1
    S_P23_T12  COST      5
    S_P23_T12  BAL_P23_T12  -1
    S_P23_T12  STORAGE_T12  1
    S_P23_T12  BAL_P23_T13  1
    S_P24_T12  COST      3.4
    S_P24_T12  BAL_P24_T12  -1
    S_P24_T12  STORAGE_T12  1
    S_P24_T12  BAL_P24_T13  1
    X_P0_T13  COST      46.5
    X_P0_T13  BAL_P0_T13  1
    X_P0_T13  CAP_M0_T13  1.4
    X_P0_T13  CAP_M1_T13  2.4
    X_P0_T13  CAP_M2_T13  0.5
    X_P0_T13  CAP_M3_T13  1
    X_P0_T13  CAP_M4_T13  1.3
    X_P0_T13  CAP_M5_T13  0.8
    X_P0_T13  CAP_M6_T13  1
    X_P0_T13  CAP_M7_T13  1.7
    X_P0_T13  CAP_M8_T13  0.7
    X_P0_T13  CAP_M9_T13  1.5
    X_P0_T13  CAP_M10_T13  2.4
    X_P0_T13  CAP_M11_T13  0.9
    X_P1_T13  COST      10.6
    X_P1_T13  BAL_P1_T13  1
    X_P1_T13  CAP_M0_T13  1
    X_P1_T13  CAP_M1_T13  2.2
    X_P1_T13  CAP_M2_T13  1
    X_P1_T13  CAP_M3_T13  2.4
    X_P1_T13  CAP_M4_T13  3
    X_P1_T13  CAP_M5_T13  2.2
    X_P1_T13  CAP_M6_T13  2.7
    X_P1_T13  CAP_M7_T13  1.4
    X_P1_T13  CAP_M8_T13  1.9
    X_P1_T13  CAP_M9_T13  0.9
    X_P1_T13  CAP_M10_T13  2.9
    X_P1_T13  CAP_M11_T13  2.2
    X_P2_T13  COST      44.5
    X_P2_T13  BAL_P2_T13  1
    X_P2_T13  CAP_M0_T13  2.6
    X_P2_T13  CAP_M1_T13  1.4
    X_P2_T13  CAP_M2_T13  0.8
    X_P2_T13  CAP_M3_T13  2.3
    X_P2_T13  CAP_M4_T13  2.5
    X_P2_T13  CAP_M5_T13  1
    X_P2_T13  CAP_M6_T13  1.2
    X_P2_T13  CAP_M7_T13  1
    X_P2_T13  CAP_M8_T13  1.1
    X_P2_T13  CAP_M9_T13  1.9
    X_P2_T13  CAP_M10_T13  3
    X_P2_T13  CAP_M11_T13  0.8
    X_P3_T13  COST      25
    X_P3_T13  BAL_P3_T13  1
    X_P3_T13  CAP_M0_T13  1.8
    X_P3_T13  CAP_M1_T13  2.8
    X_P3_T13  CAP_M2_T13  2.1
    X_P3_T13  CAP_M3_T13  1.6
    X_P3_T13  CAP_M4_T13  1.1
    X_P3_T13  CAP_M5_T13  0.7
    X_P3_T13  CAP_M6_T13  2
    X_P3_T13  CAP_M7_T13  2.7
    X_P3_T13  CAP_M8_T13  1.9
    X_P3_T13  CAP_M9_T13  2.6
    X_P3_T13  CAP_M10_T13  2.1
    X_P3_T13  CAP_M11_T13  2.3
    X_P4_T13  COST      21.5
    X_P4_T13  BAL_P4_T13  1
    X_P4_T13  CAP_M0_T13  1.9
    X_P4_T13  CAP_M1_T13  2
    X_P4_T13  CAP_M2_T13  2.5
    X_P4_T13  CAP_M3_T13  2.7
    X_P4_T13  CAP_M4_T13  2.1
    X_P4_T13  CAP_M5_T13  1.2
    X_P4_T13  CAP_M6_T13  1.6
    X_P4_T13  CAP_M7_T13  1.6
    X_P4_T13  CAP_M8_T13  2.1
    X_P4_T13  CAP_M9_T13  1.7
    X_P4_T13  CAP_M10_T13  0.8
    X_P4_T13  CAP_M11_T13  1.6
    X_P5_T13  COST      15.4
    X_P5_T13  BAL_P5_T13  1
    X_P5_T13  CAP_M0_T13  2.1
    X_P5_T13  CAP_M1_T13  0.7
    X_P5_T13  CAP_M2_T13  2.9
    X_P5_T13  CAP_M3_T13  1.3
    X_P5_T13  CAP_M4_T13  2.6
    X_P5_T13  CAP_M5_T13  1.9
    X_P5_T13  CAP_M6_T13  2.4
    X_P5_T13  CAP_M7_T13  1.8
    X_P5_T13  CAP_M8_T13  1.4
    X_P5_T13  CAP_M9_T13  0.7
    X_P5_T13  CAP_M10_T13  0.6
    X_P5_T13  CAP_M11_T13  2.9
    X_P6_T13  COST      12.8
    X_P6_T13  BAL_P6_T13  1
    X_P6_T13  CAP_M0_T13  1.3
    X_P6_T13  CAP_M1_T13  1.8
    X_P6_T13  CAP_M2_T13  2.5
    X_P6_T13  CAP_M3_T13  2.2
    X_P6_T13  CAP_M4_T13  0.7
    X_P6_T13  CAP_M5_T13  1.5
    X_P6_T13  CAP_M6_T13  0.6
    X_P6_T13  CAP_M7_T13  1.9
    X_P6_T13  CAP_M8_T13  1.3
    X_P6_T13  CAP_M9_T13  2.1
    X_P6_T13  CAP_M10_T13  2.4
    X_P6_T13  CAP_M11_T13  1.1
    X_P7_T13  COST      12.6
    X_P7_T13  BAL_P7_T13  1
    X_P7_T13  CAP_M0_T13  1.1
    X_P7_T13  CAP_M1_T13  2.2
    X_P7_T13  CAP_M2_T13  2.5
    X_P7_T13  CAP_M3_T13  2.9
    X_P7_T13  CAP_M4_T13  1
    X_P7_T13  CAP_M5_T13  2.9
    X_P7_T13  CAP_M6_T13  2.4
    X_P7_T13  CAP_M7_T13  1.6
    X_P7_T13  CAP_M8_T13  1.4
    X_P7_T13  CAP_M9_T13  0.6
    X_P7_T13  CAP_M10_T13  1.6
    X_P7_T13  CAP_M11_T13  1.7
    X_P8_T13  COST      18.3
    X_P8_T13  BAL_P8_T13  1
    X_P8_T13  CAP_M0_T13  1.8
    X_P8_T13  CAP_M1_T13  0.7
    X_P8_T13  CAP_M2_T13  2.7
    X_P8_T13  CAP_M3_T13  2.3
    X_P8_T13  CAP_M4_T13  1.6
    X_P8_T13  CAP_M5_T13  1.3
    X_P8_T13  CAP_M6_T13  2.9
    X_P8_T13  CAP_M7_T13  1.1
    X_P8_T13  CAP_M8_T13  1.5
    X_P8_T13  CAP_M9_T13  2.1
    X_P8_T13  CAP_M10_T13  1.6
    X_P8_T13  CAP_M11_T13  0.7
    X_P9_T13  COST      37.8
    X_P9_T13  BAL_P9_T13  1
    X_P9_T13  CAP_M0_T13  1.3
    X_P9_T13  CAP_M1_T13  2.8
    X_P9_T13  CAP_M2_T13  1.3
    X_P9_T13  CAP_M3_T13  0.6
    X_P9_T13  CAP_M4_T13  1.7
    X_P9_T13  CAP_M5_T13  2.5
    X_P9_T13  CAP_M6_T13  1
    X_P9_T13  CAP_M7_T13  2.5
    X_P9_T13  CAP_M8_T13  2.7
    X_P9_T13  CAP_M9_T13  1.1
    X_P9_T13  CAP_M10_T13  1.8
    X_P9_T13  CAP_M11_T13  2.8
    X_P10_T13  COST      26.7
    X_P10_T13  BAL_P10_T13  1
    X_P10_T13  CAP_M0_T13  0.8
    X_P10_T13  CAP_M1_T13  0.8
    X_P10_T13  CAP_M2_T13  1.3
    X_P10_T13  CAP_M3_T13  0.8
    X_P10_T13  CAP_M4_T13  0.7
    X_P10_T13  CAP_M5_T13  1.7
    X_P10_T13  CAP_M6_T13  1.4
    X_P10_T13  CAP_M7_T13  1.3
    X_P10_T13  CAP_M8_T13  2.9
    X_P10_T13  CAP_M9_T13  1.6
    X_P10_T13  CAP_M10_T13  2.9
    X_P10_T13  CAP_M11_T13  0.7
    X_P11_T13  COST      37.9
    X_P11_T13  BAL_P11_T13  1
    X_P11_T13  CAP_M0_T13  2.4
    X_P11_T13  CAP_M1_T13  1.8
    X_P11_T13  CAP_M2_T13  1.8
    X_P11_T13  CAP_M3_T13  1.5
    X_P11_T13  CAP_M4_T13  2.8
    X_P11_T13  CAP_M5_T13  1.4
    X_P11_T13  CAP_M6_T13  0.7
    X_P11_T13  CAP_M7_T13  0.7
    X_P11_T13  CAP_M8_T13  2
    X_P11_T13  CAP_M9_T13  1.5
    X_P11_T13  CAP_M10_T13  1.7
    X_P11_T13  CAP_M11_T13  2.8
    X_P12_T13  COST      12.1
    X_P12_T13  BAL_P12_T13  1
    X_P12_T13  CAP_M0_T13  2.4
    X_P12_T13  CAP_M1_T13  2.3
    X_P12_T13  CAP_M2_T13  1.7
    X_P12_T13  CAP_M3_T13  2
    X_P12_T13  CAP_M4_T13  1.9
    X_P12_T13  CAP_M5_T13  1.2
    X_P12_T13  CAP_M6_T13  1.7
    X_P12_T13  CAP_M7_T13  1.4
    X_P12_T13  CAP_M8_T13  2
    X_P12_T13  CAP_M9_T13  1.6
    X_P12_T13  CAP_M10_T13  1.3
    X_P12_T13  CAP_M11_T13  2.7
    X_P13_T13  COST      29.7
    X_P13_T13  BAL_P13_T13  1
    X_P13_T13  CAP_M0_T13  2.2
    X_P13_T13  CAP_M1_T13  0.8
    X_P13_T13  CAP_M2_T13  2.7
    X_P13_T13  CAP_M3_T13  2.1
    X_P13_T13  CAP_M4_T13  1.8
    X_P13_T13  CAP_M5_T13  1.2
    X_P13_T13  CAP_M6_T13  1
    X_P13_T13  CAP_M7_T13  1.2
    X_P13_T13  CAP_M8_T13  1.8
    X_P13_T13  CAP_M9_T13  1
    X_P13_T13  CAP_M10_T13  1.3
    X_P13_T13  CAP_M11_T13  1.2
    X_P14_T13  COST      23.4
    X_P14_T13  BAL_P14_T13  1
    X_P14_T13  CAP_M0_T13  1.1
    X_P14_T13  CAP_M1_T13  1.8
    X_P14_T13  CAP_M2_T13  1.9
    X_P14_T13  CAP_M3_T13  1.4
    X_P14_T13  CAP_M4_T13  1.5
    X_P14_T13  CAP_M5_T13  1.9
    X_P14_T13  CAP_M6_T13  2.7
    X_P14_T13  CAP_M7_T13  0.8
    X_P14_T13  CAP_M8_T13  1.7
    X_P14_T13  CAP_M9_T13  2.2
    X_P14_T13  CAP_M10_T13  2.7
    X_P14_T13  CAP_M11_T13  1.2
    X_P15_T13  COST      11.8
    X_P15_T13  BAL_P15_T13  1
    X_P15_T13  CAP_M0_T13  0.8
    X_P15_T13  CAP_M1_T13  0.8
    X_P15_T13  CAP_M2_T13  2.4
    X_P15_T13  CAP_M3_T13  2.3
    X_P15_T13  CAP_M4_T13  1.8
    X_P15_T13  CAP_M5_T13  0.8
    X_P15_T13  CAP_M6_T13  0.8
    X_P15_T13  CAP_M7_T13  1.4
    X_P15_T13  CAP_M8_T13  1.3
    X_P15_T13  CAP_M9_T13  1.8
    X_P15_T13  CAP_M10_T13  2.1
    X_P15_T13  CAP_M11_T13  1.5
    X_P16_T13  COST      37.1
    X_P16_T13  BAL_P16_T13  1
    X_P16_T13  CAP_M0_T13  1.1
    X_P16_T13  CAP_M1_T13  0.5
    X_P16_T13  CAP_M2_T13  1.2
    X_P16_T13  CAP_M3_T13  2.8
    X_P16_T13  CAP_M4_T13  1.1
    X_P16_T13  CAP_M5_T13  1
    X_P16_T13  CAP_M6_T13  1.8
    X_P16_T13  CAP_M7_T13  1.8
    X_P16_T13  CAP_M8_T13  2.5
    X_P16_T13  CAP_M9_T13  1.6
    X_P16_T13  CAP_M10_T13  2.7
    X_P16_T13  CAP_M11_T13  1.3
    X_P17_T13  COST      20.1
    X_P17_T13  BAL_P17_T13  1
    X_P17_T13  CAP_M0_T13  1.8
    X_P17_T13  CAP_M1_T13  2.2
    X_P17_T13  CAP_M2_T13  2.7
    X_P17_T13  CAP_M3_T13  2.2
    X_P17_T13  CAP_M4_T13  1.2
    X_P17_T13  CAP_M5_T13  1.3
    X_P17_T13  CAP_M6_T13  0.7
    X_P17_T13  CAP_M7_T13  1.3
    X_P17_T13  CAP_M8_T13  2.8
    X_P17_T13  CAP_M9_T13  1.4
    X_P17_T13  CAP_M10_T13  2.7
    X_P17_T13  CAP_M11_T13  2.2
    X_P18_T13  COST      39.7
    X_P18_T13  BAL_P18_T13  1
    X_P18_T13  CAP_M0_T13  1.3
    X_P18_T13  CAP_M1_T13  2.9
    X_P18_T13  CAP_M2_T13  1.7
    X_P18_T13  CAP_M3_T13  0.5
    X_P18_T13  CAP_M4_T13  2.4
    X_P18_T13  CAP_M5_T13  2.9
    X_P18_T13  CAP_M6_T13  2.1
    X_P18_T13  CAP_M7_T13  2.7
    X_P18_T13  CAP_M8_T13  1.4
    X_P18_T13  CAP_M9_T13  0.5
    X_P18_T13  CAP_M10_T13  2.1
    X_P18_T13  CAP_M11_T13  1.1
    X_P19_T13  COST      46.5
    X_P19_T13  BAL_P19_T13  1
    X_P19_T13  CAP_M0_T13  2.2
    X_P19_T13  CAP_M1_T13  2.8
    X_P19_T13  CAP_M2_T13  1.6
    X_P19_T13  CAP_M3_T13  2.6
    X_P19_T13  CAP_M4_T13  1.7
    X_P19_T13  CAP_M5_T13  1.3
    X_P19_T13  CAP_M6_T13  1
    X_P19_T13  CAP_M7_T13  1.5
    X_P19_T13  CAP_M8_T13  0.6
    X_P19_T13  CAP_M9_T13  2.8
    X_P19_T13  CAP_M10_T13  0.8
    X_P19_T13  CAP_M11_T13  0.8
    X_P20_T13  COST      18.2
    X_P20_T13  BAL_P20_T13  1
    X_P20_T13  CAP_M0_T13  1.2
    X_P20_T13  CAP_M1_T13  2
    X_P20_T13  CAP_M2_T13  1.4
    X_P20_T13  CAP_M3_T13  2.3
    X_P20_T13  CAP_M4_T13  1.5
    X_P20_T13  CAP_M5_T13  1.6
    X_P20_T13  CAP_M6_T13  2.6
    X_P20_T13  CAP_M7_T13  2.1
    X_P20_T13  CAP_M8_T13  1.2
    X_P20_T13  CAP_M9_T13  1
    X_P20_T13  CAP_M10_T13  2.3
    X_P20_T13  CAP_M11_T13  1.8
    X_P21_T13  COST      33.4
    X_P21_T13  BAL_P21_T13  1
    X_P21_T13  CAP_M0_T13  2.4
    X_P21_T13  CAP_M1_T13  1.9
    X_P21_T13  CAP_M2_T13  2.9
    X_P21_T13  CAP_M3_T13  2.7
    X_P21_T13  CAP_M4_T13  2.7
    X_P21_T13  CAP_M5_T13  1.7
    X_P21_T13  CAP_M6_T13  2.8
    X_P21_T13  CAP_M7_T13  2.5
    X_P21_T13  CAP_M8_T13  3
    X_P21_T13  CAP_M9_T13  2.7
    X_P21_T13  CAP_M10_T13  2.4
    X_P21_T13  CAP_M11_T13  2.4
    X_P22_T13  COST      30.6
    X_P22_T13  BAL_P22_T13  1
    X_P22_T13  CAP_M0_T13  0.6
    X_P22_T13  CAP_M1_T13  2.9
    X_P22_T13  CAP_M2_T13  2.1
    X_P22_T13  CAP_M3_T13  2.1
    X_P22_T13  CAP_M4_T13  2
    X_P22_T13  CAP_M5_T13  2.4
    X_P22_T13  CAP_M6_T13  2.2
    X_P22_T13  CAP_M7_T13  0.7
    X_P22_T13  CAP_M8_T13  0.5
    X_P22_T13  CAP_M9_T13  1.8
    X_P22_T13  CAP_M10_T13  1.1
    X_P22_T13  CAP_M11_T13  2.6
    X_P23_T13  COST      44.5
    X_P23_T13  BAL_P23_T13  1
    X_P23_T13  CAP_M0_T13  2.9
    X_P23_T13  CAP_M1_T13  1.2
    X_P23_T13  CAP_M2_T13  1.8
    X_P23_T13  CAP_M3_T13  1.8
    X_P23_T13  CAP_M4_T13  1.5
    X_P23_T13  CAP_M5_T13  0.5
    X_P23_T13  CAP_M6_T13  2.8
    X_P23_T13  CAP_M7_T13  1.9
    X_P23_T13  CAP_M8_T13  2.2
    X_P23_T13  CAP_M9_T13  2.9
    X_P23_T13  CAP_M10_T13  2.1
    X_P23_T13  CAP_M11_T13  2.2
    X_P24_T13  COST      14
    X_P24_T13  BAL_P24_T13  1
    X_P24_T13  CAP_M0_T13  1.1
    X_P24_T13  CAP_M1_T13  2.5
    X_P24_T13  CAP_M2_T13  1.3
    X_P24_T13  CAP_M3_T13  2.8
    X_P24_T13  CAP_M4_T13  1.1
    X_P24_T13  CAP_M5_T13  2
    X_P24_T13  CAP_M6_T13  1.4
    X_P24_T13  CAP_M7_T13  0.5
    X_P24_T13  CAP_M8_T13  1.2
    X_P24_T13  CAP_M9_T13  2.4
    X_P24_T13  CAP_M10_T13  0.6
    X_P24_T13  CAP_M11_T13  1.9
    S_P0_T13  COST      1.2
    S_P0_T13  BAL_P0_T13  -1
    S_P0_T13  STORAGE_T13  1
    S_P0_T13  BAL_P0_T14  1
    S_P1_T13  COST      3.9
    S_P1_T13  BAL_P1_T13  -1
    S_P1_T13  STORAGE_T13  1
    S_P1_T13  BAL_P1_T14  1
    S_P2_T13  COST      1.3
    S_P2_T13  BAL_P2_T13  -1
    S_P2_T13  STORAGE_T13  1
    S_P2_T13  BAL_P2_T14  1
    S_P3_T13  COST      3.9
    S_P3_T13  BAL_P3_T13  -1
    S_P3_T13  STORAGE_T13  1
    S_P3_T13  BAL_P3_T14  1
    S_P4_T13  COST      4.2
    S_P4_T13  BAL_P4_T13  -1
    S_P4_T13  STORAGE_T13  1
    S_P4_T13  BAL_P4_T14  1
    S_P5_T13  COST      2.5
    S_P5_T13  BAL_P5_T13  -1
    S_P5_T13  STORAGE_T13  1
    S_P5_T13  BAL_P5_T14  1
    S_P6_T13  COST      3.4
    S_P6_T13  BAL_P6_T13  -1
    S_P6_T13  STORAGE_T13  1
    S_P6_T13  BAL_P6_T14  1
    S_P7_T13  COST      3.1
    S_P7_T13  BAL_P7_T13  -1
    S_P7_T13  STORAGE_T13  1
    S_P7_T13  BAL_P7_T14  1
    S_P8_T13  COST      1.2
    S_P8_T13  BAL_P8_T13  -1
    S_P8_T13  STORAGE_T13  1
    S_P8_T13  BAL_P8_T14  1
    S_P9_T13  COST      2.6
    S_P9_T13  BAL_P9_T13  -1
    S_P9_T13  STORAGE_T13  1
    S_P9_T13  BAL_P9_T14  1
    S_P10_T13  COST      2.4
    S_P10_T13  BAL_P10_T13  -1
    S_P10_T13  STORAGE_T13  1
    S_P10_T13  BAL_P10_T14  1
    S_P11_T13  COST      3.1
    S_P11_T13  BAL_P11_T13  -1
    S_P11_T13  STORAGE_T13  1
    S_P11_T13  BAL_P11_T14  1
    S_P12_T13  COST      4
    S_P12_T13  BAL_P12_T13  -1
    S_P12_T13  STORAGE_T13  1
    S_P12_T13  BAL_P12_T14  1
    S_P13_T13  COST      4.2
    S_P13_T13  BAL_P13_T13  -1
    S_P13_T13  STORAGE_T13  1
    S_P13_T13  BAL_P13_T14  1
    S_P14_T13  COST      3.4
    S_P14_T13  BAL_P14_T13  -1
    S_P14_T13  STORAGE_T13  1
    S_P14_T13  BAL_P14_T14  1
    S_P15_T13  COST      2
    S_P15_T13  BAL_P15_T13  -1
    S_P15_T13  STORAGE_T13  1
    S_P15_T13  BAL_P15_T14  1
    S_P16_T13  COST      1.8
    S_P16_T13  BAL_P16_T13  -1
    S_P16_T13  STORAGE_T13  1
    S_P16_T13  BAL_P16_T14  1
    S_P17_T13  COST      4.1
    S_P17_T13  BAL_P17_T13  -1
    S_P17_T13  STORAGE_T13  1
    S_P17_T13  BAL_P17_T14  1
    S_P18_T13  COST      1
    S_P18_T13  BAL_P18_T13  -1
    S_P18_T13  STORAGE_T13  1
    S_P18_T13  BAL_P18_T14  1
    S_P19_T13  COST      3.3
    S_P19_T13  BAL_P19_T13  -1
    S_P19_T13  STORAGE_T13  1
    S_P19_T13  BAL_P19_T14  1
    S_P20_T13  COST      4.9
    S_P20_T13  BAL_P20_T13  -1
    S_P20_T13  STORAGE_T13  1
    S_P20_T13  BAL_P20_T14  1
    S_P21_T13  COST      2.8
    S_P21_T13  BAL_P21_T13  -1
    S_P21_T13  STORAGE_T13  1
    S_P21_T13  BAL_P21_T14  1
    S_P22_T13  COST      1
    S_P22_T13  BAL_P22_T13  -1
    S_P22_T13  STORAGE_T13  1
    S_P22_T13  BAL_P22_T14  1
    S_P23_T13  COST      4.4
    S_P23_T13  BAL_P23_T13  -1
    S_P23_T13  STORAGE_T13  1
    S_P23_T13  BAL_P23_T14  1
    S_P24_T13  COST      4.9
    S_P24_T13  BAL_P24_T13  -1
    S_P24_T13  STORAGE_T13  1
    S_P24_T13  BAL_P24_T14  1
    X_P0_T14  COST      47
    X_P0_T14  BAL_P0_T14  1
    X_P0_T14  CAP_M0_T14  1.4
    X_P0_T14  CAP_M1_T14  2.4
    X_P0_T14  CAP_M2_T14  0.5
    X_P0_T14  CAP_M3_T14  1
    X_P0_T14  CAP_M4_T14  1.3
    X_P0_T14  CAP_M5_T14  0.8
    X_P0_T14  CAP_M6_T14  1
    X_P0_T14  CAP_M7_T14  1.7
    X_P0_T14  CAP_M8_T14  0.7
    X_P0_T14  CAP_M9_T14  1.5
    X_P0_T14  CAP_M10_T14  2.4
    X_P0_T14  CAP_M11_T14  0.9
    X_P1_T14  COST      30
    X_P1_T14  BAL_P1_T14  1
    X_P1_T14  CAP_M0_T14  1
    X_P1_T14  CAP_M1_T14  2.2
    X_P1_T14  CAP_M2_T14  1
    X_P1_T14  CAP_M3_T14  2.4
    X_P1_T14  CAP_M4_T14  3
    X_P1_T14  CAP_M5_T14  2.2
    X_P1_T14  CAP_M6_T14  2.7
    X_P1_T14  CAP_M7_T14  1.4
    X_P1_T14  CAP_M8_T14  1.9
    X_P1_T14  CAP_M9_T14  0.9
    X_P1_T14  CAP_M10_T14  2.9
    X_P1_T14  CAP_M11_T14  2.2
    X_P2_T14  COST      39
    X_P2_T14  BAL_P2_T14  1
    X_P2_T14  CAP_M0_T14  2.6
    X_P2_T14  CAP_M1_T14  1.4
    X_P2_T14  CAP_M2_T14  0.8
    X_P2_T14  CAP_M3_T14  2.3
    X_P2_T14  CAP_M4_T14  2.5
    X_P2_T14  CAP_M5_T14  1
    X_P2_T14  CAP_M6_T14  1.2
    X_P2_T14  CAP_M7_T14  1
    X_P2_T14  CAP_M8_T14  1.1
    X_P2_T14  CAP_M9_T14  1.9
    X_P2_T14  CAP_M10_T14  3
    X_P2_T14  CAP_M11_T14  0.8
    X_P3_T14  COST      12.1
    X_P3_T14  BAL_P3_T14  1
    X_P3_T14  CAP_M0_T14  1.8
    X_P3_T14  CAP_M1_T14  2.8
    X_P3_T14  CAP_M2_T14  2.1
    X_P3_T14  CAP_M3_T14  1.6
    X_P3_T14  CAP_M4_T14  1.1
    X_P3_T14  CAP_M5_T14  0.7
    X_P3_T14  CAP_M6_T14  2
    X_P3_T14  CAP_M7_T14  2.7
    X_P3_T14  CAP_M8_T14  1.9
    X_P3_T14  CAP_M9_T14  2.6
    X_P3_T14  CAP_M10_T14  2.1
    X_P3_T14  CAP_M11_T14  2.3
    X_P4_T14  COST      47.2
    X_P4_T14  BAL_P4_T14  1
    X_P4_T14  CAP_M0_T14  1.9
    X_P4_T14  CAP_M1_T14  2
    X_P4_T14  CAP_M2_T14  2.5
    X_P4_T14  CAP_M3_T14  2.7
    X_P4_T14  CAP_M4_T14  2.1
    X_P4_T14  CAP_M5_T14  1.2
    X_P4_T14  CAP_M6_T14  1.6
    X_P4_T14  CAP_M7_T14  1.6
    X_P4_T14  CAP_M8_T14  2.1
    X_P4_T14  CAP_M9_T14  1.7
    X_P4_T14  CAP_M10_T14  0.8
    X_P4_T14  CAP_M11_T14  1.6
    X_P5_T14  COST      24.3
    X_P5_T14  BAL_P5_T14  1
    X_P5_T14  CAP_M0_T14  2.1
    X_P5_T14  CAP_M1_T14  0.7
    X_P5_T14  CAP_M2_T14  2.9
    X_P5_T14  CAP_M3_T14  1.3
    X_P5_T14  CAP_M4_T14  2.6
    X_P5_T14  CAP_M5_T14  1.9
    X_P5_T14  CAP_M6_T14  2.4
    X_P5_T14  CAP_M7_T14  1.8
    X_P5_T14  CAP_M8_T14  1.4
    X_P5_T14  CAP_M9_T14  0.7
    X_P5_T14  CAP_M10_T14  0.6
    X_P5_T14  CAP_M11_T14  2.9
    X_P6_T14  COST      33.2
    X_P6_T14  BAL_P6_T14  1
    X_P6_T14  CAP_M0_T14  1.3
    X_P6_T14  CAP_M1_T14  1.8
    X_P6_T14  CAP_M2_T14  2.5
    X_P6_T14  CAP_M3_T14  2.2
    X_P6_T14  CAP_M4_T14  0.7
    X_P6_T14  CAP_M5_T14  1.5
    X_P6_T14  CAP_M6_T14  0.6
    X_P6_T14  CAP_M7_T14  1.9
    X_P6_T14  CAP_M8_T14  1.3
    X_P6_T14  CAP_M9_T14  2.1
    X_P6_T14  CAP_M10_T14  2.4
    X_P6_T14  CAP_M11_T14  1.1
    X_P7_T14  COST      10.4
    X_P7_T14  BAL_P7_T14  1
    X_P7_T14  CAP_M0_T14  1.1
    X_P7_T14  CAP_M1_T14  2.2
    X_P7_T14  CAP_M2_T14  2.5
    X_P7_T14  CAP_M3_T14  2.9
    X_P7_T14  CAP_M4_T14  1
    X_P7_T14  CAP_M5_T14  2.9
    X_P7_T14  CAP_M6_T14  2.4
    X_P7_T14  CAP_M7_T14  1.6
    X_P7_T14  CAP_M8_T14  1.4
    X_P7_T14  CAP_M9_T14  0.6
    X_P7_T14  CAP_M10_T14  1.6
    X_P7_T14  CAP_M11_T14  1.7
    X_P8_T14  COST      29.8
    X_P8_T14  BAL_P8_T14  1
    X_P8_T14  CAP_M0_T14  1.8
    X_P8_T14  CAP_M1_T14  0.7
    X_P8_T14  CAP_M2_T14  2.7
    X_P8_T14  CAP_M3_T14  2.3
    X_P8_T14  CAP_M4_T14  1.6
    X_P8_T14  CAP_M5_T14  1.3
    X_P8_T14  CAP_M6_T14  2.9
    X_P8_T14  CAP_M7_T14  1.1
    X_P8_T14  CAP_M8_T14  1.5
    X_P8_T14  CAP_M9_T14  2.1
    X_P8_T14  CAP_M10_T14  1.6
    X_P8_T14  CAP_M11_T14  0.7
    X_P9_T14  COST      19
    X_P9_T14  BAL_P9_T14  1
    X_P9_T14  CAP_M0_T14  1.3
    X_P9_T14  CAP_M1_T14  2.8
    X_P9_T14  CAP_M2_T14  1.3
    X_P9_T14  CAP_M3_T14  0.6
    X_P9_T14  CAP_M4_T14  1.7
    X_P9_T14  CAP_M5_T14  2.5
    X_P9_T14  CAP_M6_T14  1
    X_P9_T14  CAP_M7_T14  2.5
    X_P9_T14  CAP_M8_T14  2.7
    X_P9_T14  CAP_M9_T14  1.1
    X_P9_T14  CAP_M10_T14  1.8
    X_P9_T14  CAP_M11_T14  2.8
    X_P10_T14  COST      43.1
    X_P10_T14  BAL_P10_T14  1
    X_P10_T14  CAP_M0_T14  0.8
    X_P10_T14  CAP_M1_T14  0.8
    X_P10_T14  CAP_M2_T14  1.3
    X_P10_T14  CAP_M3_T14  0.8
    X_P10_T14  CAP_M4_T14  0.7
    X_P10_T14  CAP_M5_T14  1.7
    X_P10_T14  CAP_M6_T14  1.4
    X_P10_T14  CAP_M7_T14  1.3
    X_P10_T14  CAP_M8_T14  2.9
    X_P10_T14  CAP_M9_T14  1.6
    X_P10_T14  CAP_M10_T14  2.9
    X_P10_T14  CAP_M11_T14  0.7
    X_P11_T14  COST      36.7
    X_P11_T14  BAL_P11_T14  1
    X_P11_T14  CAP_M0_T14  2.4
    X_P11_T14  CAP_M1_T14  1.8
    X_P11_T14  CAP_M2_T14  1.8
    X_P11_T14  CAP_M3_T14  1.5
    X_P11_T14  CAP_M4_T14  2.8
    X_P11_T14  CAP_M5_T14  1.4
    X_P11_T14  CAP_M6_T14  0.7
    X_P11_T14  CAP_M7_T14  0.7
    X_P11_T14  CAP_M8_T14  2
    X_P11_T14  CAP_M9_T14  1.5
    X_P11_T14  CAP_M10_T14  1.7
    X_P11_T14  CAP_M11_T14  2.8
    X_P12_T14  COST      45.2
    X_P12_T14  BAL_P12_T14  1
    X_P12_T14  CAP_M0_T14  2.4
    X_P12_T14  CAP_M1_T14  2.3
    X_P12_T14  CAP_M2_T14  1.7
    X_P12_T14  CAP_M3_T14  2
    X_P12_T14  CAP_M4_T14  1.9
    X_P12_T14  CAP_M5_T14  1.2
    X_P12_T14  CAP_M6_T14  1.7
    X_P12_T14  CAP_M7_T14  1.4
    X_P12_T14  CAP_M8_T14  2
    X_P12_T14  CAP_M9_T14  1.6
    X_P12_T14  CAP_M10_T14  1.3
    X_P12_T14  CAP_M11_T14  2.7
    X_P13_T14  COST      38.1
    X_P13_T14  BAL_P13_T14  1
    X_P13_T14  CAP_M0_T14  2.2
    X_P13_T14  CAP_M1_T14  0.8
    X_P13_T14  CAP_M2_T14  2.7
    X_P13_T14  CAP_M3_T14  2.1
    X_P13_T14  CAP_M4_T14  1.8
    X_P13_T14  CAP_M5_T14  1.2
    X_P13_T14  CAP_M6_T14  1
    X_P13_T14  CAP_M7_T14  1.2
    X_P13_T14  CAP_M8_T14  1.8
    X_P13_T14  CAP_M9_T14  1
    X_P13_T14  CAP_M10_T14  1.3
    X_P13_T14  CAP_M11_T14  1.2
    X_P14_T14  COST      49.9
    X_P14_T14  BAL_P14_T14  1
    X_P14_T14  CAP_M0_T14  1.1
    X_P14_T14  CAP_M1_T14  1.8
    X_P14_T14  CAP_M2_T14  1.9
    X_P14_T14  CAP_M3_T14  1.4
    X_P14_T14  CAP_M4_T14  1.5
    X_P14_T14  CAP_M5_T14  1.9
    X_P14_T14  CAP_M6_T14  2.7
    X_P14_T14  CAP_M7_T14  0.8
    X_P14_T14  CAP_M8_T14  1.7
    X_P14_T14  CAP_M9_T14  2.2
    X_P14_T14  CAP_M10_T14  2.7
    X_P14_T14  CAP_M11_T14  1.2
    X_P15_T14  COST      34.1
    X_P15_T14  BAL_P15_T14  1
    X_P15_T14  CAP_M0_T14  0.8
    X_P15_T14  CAP_M1_T14  0.8
    X_P15_T14  CAP_M2_T14  2.4
    X_P15_T14  CAP_M3_T14  2.3
    X_P15_T14  CAP_M4_T14  1.8
    X_P15_T14  CAP_M5_T14  0.8
    X_P15_T14  CAP_M6_T14  0.8
    X_P15_T14  CAP_M7_T14  1.4
    X_P15_T14  CAP_M8_T14  1.3
    X_P15_T14  CAP_M9_T14  1.8
    X_P15_T14  CAP_M10_T14  2.1
    X_P15_T14  CAP_M11_T14  1.5
    X_P16_T14  COST      42.6
    X_P16_T14  BAL_P16_T14  1
    X_P16_T14  CAP_M0_T14  1.1
    X_P16_T14  CAP_M1_T14  0.5
    X_P16_T14  CAP_M2_T14  1.2
    X_P16_T14  CAP_M3_T14  2.8
    X_P16_T14  CAP_M4_T14  1.1
    X_P16_T14  CAP_M5_T14  1
    X_P16_T14  CAP_M6_T14  1.8
    X_P16_T14  CAP_M7_T14  1.8
    X_P16_T14  CAP_M8_T14  2.5
    X_P16_T14  CAP_M9_T14  1.6
    X_P16_T14  CAP_M10_T14  2.7
    X_P16_T14  CAP_M11_T14  1.3
    X_P17_T14  COST      31.4
    X_P17_T14  BAL_P17_T14  1
    X_P17_T14  CAP_M0_T14  1.8
    X_P17_T14  CAP_M1_T14  2.2
    X_P17_T14  CAP_M2_T14  2.7
    X_P17_T14  CAP_M3_T14  2.2
    X_P17_T14  CAP_M4_T14  1.2
    X_P17_T14  CAP_M5_T14  1.3
    X_P17_T14  CAP_M6_T14  0.7
    X_P17_T14  CAP_M7_T14  1.3
    X_P17_T14  CAP_M8_T14  2.8
    X_P17_T14  CAP_M9_T14  1.4
    X_P17_T14  CAP_M10_T14  2.7
    X_P17_T14  CAP_M11_T14  2.2
    X_P18_T14  COST      36.4
    X_P18_T14  BAL_P18_T14  1
    X_P18_T14  CAP_M0_T14  1.3
    X_P18_T14  CAP_M1_T14  2.9
    X_P18_T14  CAP_M2_T14  1.7
    X_P18_T14  CAP_M3_T14  0.5
    X_P18_T14  CAP_M4_T14  2.4
    X_P18_T14  CAP_M5_T14  2.9
    X_P18_T14  CAP_M6_T14  2.1
    X_P18_T14  CAP_M7_T14  2.7
    X_P18_T14  CAP_M8_T14  1.4
    X_P18_T14  CAP_M9_T14  0.5
    X_P18_T14  CAP_M10_T14  2.1
    X_P18_T14  CAP_M11_T14  1.1
    X_P19_T14  COST      42.2
    X_P19_T14  BAL_P19_T14  1
    X_P19_T14  CAP_M0_T14  2.2
    X_P19_T14  CAP_M1_T14  2.8
    X_P19_T14  CAP_M2_T14  1.6
    X_P19_T14  CAP_M3_T14  2.6
    X_P19_T14  CAP_M4_T14  1.7
    X_P19_T14  CAP_M5_T14  1.3
    X_P19_T14  CAP_M6_T14  1
    X_P19_T14  CAP_M7_T14  1.5
    X_P19_T14  CAP_M8_T14  0.6
    X_P19_T14  CAP_M9_T14  2.8
    X_P19_T14  CAP_M10_T14  0.8
    X_P19_T14  CAP_M11_T14  0.8
    X_P20_T14  COST      18.1
    X_P20_T14  BAL_P20_T14  1
    X_P20_T14  CAP_M0_T14  1.2
    X_P20_T14  CAP_M1_T14  2
    X_P20_T14  CAP_M2_T14  1.4
    X_P20_T14  CAP_M3_T14  2.3
    X_P20_T14  CAP_M4_T14  1.5
    X_P20_T14  CAP_M5_T14  1.6
    X_P20_T14  CAP_M6_T14  2.6
    X_P20_T14  CAP_M7_T14  2.1
    X_P20_T14  CAP_M8_T14  1.2
    X_P20_T14  CAP_M9_T14  1
    X_P20_T14  CAP_M10_T14  2.3
    X_P20_T14  CAP_M11_T14  1.8
    X_P21_T14  COST      43.6
    X_P21_T14  BAL_P21_T14  1
    X_P21_T14  CAP_M0_T14  2.4
    X_P21_T14  CAP_M1_T14  1.9
    X_P21_T14  CAP_M2_T14  2.9
    X_P21_T14  CAP_M3_T14  2.7
    X_P21_T14  CAP_M4_T14  2.7
    X_P21_T14  CAP_M5_T14  1.7
    X_P21_T14  CAP_M6_T14  2.8
    X_P21_T14  CAP_M7_T14  2.5
    X_P21_T14  CAP_M8_T14  3
    X_P21_T14  CAP_M9_T14  2.7
    X_P21_T14  CAP_M10_T14  2.4
    X_P21_T14  CAP_M11_T14  2.4
    X_P22_T14  COST      44.7
    X_P22_T14  BAL_P22_T14  1
    X_P22_T14  CAP_M0_T14  0.6
    X_P22_T14  CAP_M1_T14  2.9
    X_P22_T14  CAP_M2_T14  2.1
    X_P22_T14  CAP_M3_T14  2.1
    X_P22_T14  CAP_M4_T14  2
    X_P22_T14  CAP_M5_T14  2.4
    X_P22_T14  CAP_M6_T14  2.2
    X_P22_T14  CAP_M7_T14  0.7
    X_P22_T14  CAP_M8_T14  0.5
    X_P22_T14  CAP_M9_T14  1.8
    X_P22_T14  CAP_M10_T14  1.1
    X_P22_T14  CAP_M11_T14  2.6
    X_P23_T14  COST      25.4
    X_P23_T14  BAL_P23_T14  1
    X_P23_T14  CAP_M0_T14  2.9
    X_P23_T14  CAP_M1_T14  1.2
    X_P23_T14  CAP_M2_T14  1.8
    X_P23_T14  CAP_M3_T14  1.8
    X_P23_T14  CAP_M4_T14  1.5
    X_P23_T14  CAP_M5_T14  0.5
    X_P23_T14  CAP_M6_T14  2.8
    X_P23_T14  CAP_M7_T14  1.9
    X_P23_T14  CAP_M8_T14  2.2
    X_P23_T14  CAP_M9_T14  2.9
    X_P23_T14  CAP_M10_T14  2.1
    X_P23_T14  CAP_M11_T14  2.2
    X_P24_T14  COST      26.5
    X_P24_T14  BAL_P24_T14  1
    X_P24_T14  CAP_M0_T14  1.1
    X_P24_T14  CAP_M1_T14  2.5
    X_P24_T14  CAP_M2_T14  1.3
    X_P24_T14  CAP_M3_T14  2.8
    X_P24_T14  CAP_M4_T14  1.1
    X_P24_T14  CAP_M5_T14  2
    X_P24_T14  CAP_M6_T14  1.4
    X_P24_T14  CAP_M7_T14  0.5
    X_P24_T14  CAP_M8_T14  1.2
    X_P24_T14  CAP_M9_T14  2.4
    X_P24_T14  CAP_M10_T14  0.6
    X_P24_T14  CAP_M11_T14  1.9
    S_P0_T14  COST      1.9
    S_P0_T14  BAL_P0_T14  -1
    S_P0_T14  STORAGE_T14  1
    S_P0_T14  BAL_P0_T15  1
    S_P1_T14  COST      4.9
    S_P1_T14  BAL_P1_T14  -1
    S_P1_T14  STORAGE_T14  1
    S_P1_T14  BAL_P1_T15  1
    S_P2_T14  COST      3.2
    S_P2_T14  BAL_P2_T14  -1
    S_P2_T14  STORAGE_T14  1
    S_P2_T14  BAL_P2_T15  1
    S_P3_T14  COST      1.9
    S_P3_T14  BAL_P3_T14  -1
    S_P3_T14  STORAGE_T14  1
    S_P3_T14  BAL_P3_T15  1
    S_P4_T14  COST      2
    S_P4_T14  BAL_P4_T14  -1
    S_P4_T14  STORAGE_T14  1
    S_P4_T14  BAL_P4_T15  1
    S_P5_T14  COST      2.8
    S_P5_T14  BAL_P5_T14  -1
    S_P5_T14  STORAGE_T14  1
    S_P5_T14  BAL_P5_T15  1
    S_P6_T14  COST      1.4
    S_P6_T14  BAL_P6_T14  -1
    S_P6_T14  STORAGE_T14  1
    S_P6_T14  BAL_P6_T15  1
    S_P7_T14  COST      2.6
    S_P7_T14  BAL_P7_T14  -1
    S_P7_T14  STORAGE_T14  1
    S_P7_T14  BAL_P7_T15  1
    S_P8_T14  COST      4.1
    S_P8_T14  BAL_P8_T14  -1
    S_P8_T14  STORAGE_T14  1
    S_P8_T14  BAL_P8_T15  1
    S_P9_T14  COST      3.5
    S_P9_T14  BAL_P9_T14  -1
    S_P9_T14  STORAGE_T14  1
    S_P9_T14  BAL_P9_T15  1
    S_P10_T14  COST      2
    S_P10_T14  BAL_P10_T14  -1
    S_P10_T14  STORAGE_T14  1
    S_P10_T14  BAL_P10_T15  1
    S_P11_T14  COST      2.7
    S_P11_T14  BAL_P11_T14  -1
    S_P11_T14  STORAGE_T14  1
    S_P11_T14  BAL_P11_T15  1
    S_P12_T14  COST      2.2
    S_P12_T14  BAL_P12_T14  -1
    S_P12_T14  STORAGE_T14  1
    S_P12_T14  BAL_P12_T15  1
    S_P13_T14  COST      2.1
    S_P13_T14  BAL_P13_T14  -1
    S_P13_T14  STORAGE_T14  1
    S_P13_T14  BAL_P13_T15  1
    S_P14_T14  COST      2.9
    S_P14_T14  BAL_P14_T14  -1
    S_P14_T14  STORAGE_T14  1
    S_P14_T14  BAL_P14_T15  1
    S_P15_T14  COST      1.9
    S_P15_T14  BAL_P15_T14  -1
    S_P15_T14  STORAGE_T14  1
    S_P15_T14  BAL_P15_T15  1
    S_P16_T14  COST      1.8
    S_P16_T14  BAL_P16_T14  -1
    S_P16_T14  STORAGE_T14  1
    S_P16_T14  BAL_P16_T15  1
    S_P17_T14  COST      2.2
    S_P17_T14  BAL_P17_T14  -1
    S_P17_T14  STORAGE_T14  1
    S_P17_T14  BAL_P17_T15  1
    S_P18_T14  COST      4.9
    S_P18_T14  BAL_P18_T14  -1
    S_P18_T14  STORAGE_T14  1
    S_P18_T14  BAL_P18_T15  1
    S_P19_T14  COST      4.6
    S_P19_T14  BAL_P19_T14  -1
    S_P19_T14  STORAGE_T14  1
    S_P19_T14  BAL_P19_T15  1
    S_P20_T14  COST      1.3
    S_P20_T14  BAL_P20_T14  -1
    S_P20_T14  STORAGE_T14  1
    S_P20_T14  BAL_P20_T15  1
    S_P21_T14  COST      3.8
    S_P21_T14  BAL_P21_T14  -1
    S_P21_T14  STORAGE_T14  1
    S_P21_T14  BAL_P21_T15  1
    S_P22_T14  COST      1.6
    S_P22_T14  BAL_P22_T14  -1
    S_P22_T14  STORAGE_T14  1
    S_P22_T14  BAL_P22_T15  1
    S_P23_T14  COST      3.4
    S_P23_T14  BAL_P23_T14  -1
    S_P23_T14  STORAGE_T14  1
    S_P23_T14  BAL_P23_T15  1
    S_P24_T14  COST      1.5
    S_P24_T14  BAL_P24_T14  -1
    S_P24_T14  STORAGE_T14  1
    S_P24_T14  BAL_P24_T15  1
    X_P0_T15  COST      45.4
    X_P0_T15  BAL_P0_T15  1
    X_P0_T15  CAP_M0_T15  1.4
    X_P0_T15  CAP_M1_T15  2.4
    X_P0_T15  CAP_M2_T15  0.5
    X_P0_T15  CAP_M3_T15  1
    X_P0_T15  CAP_M4_T15  1.3
    X_P0_T15  CAP_M5_T15  0.8
    X_P0_T15  CAP_M6_T15  1
    X_P0_T15  CAP_M7_T15  1.7
    X_P0_T15  CAP_M8_T15  0.7
    X_P0_T15  CAP_M9_T15  1.5
    X_P0_T15  CAP_M10_T15  2.4
    X_P0_T15  CAP_M11_T15  0.9
    X_P1_T15  COST      44.5
    X_P1_T15  BAL_P1_T15  1
    X_P1_T15  CAP_M0_T15  1
    X_P1_T15  CAP_M1_T15  2.2
    X_P1_T15  CAP_M2_T15  1
    X_P1_T15  CAP_M3_T15  2.4
    X_P1_T15  CAP_M4_T15  3
    X_P1_T15  CAP_M5_T15  2.2
    X_P1_T15  CAP_M6_T15  2.7
    X_P1_T15  CAP_M7_T15  1.4
    X_P1_T15  CAP_M8_T15  1.9
    X_P1_T15  CAP_M9_T15  0.9
    X_P1_T15  CAP_M10_T15  2.9
    X_P1_T15  CAP_M11_T15  2.2
    X_P2_T15  COST      17.7
    X_P2_T15  BAL_P2_T15  1
    X_P2_T15  CAP_M0_T15  2.6
    X_P2_T15  CAP_M1_T15  1.4
    X_P2_T15  CAP_M2_T15  0.8
    X_P2_T15  CAP_M3_T15  2.3
    X_P2_T15  CAP_M4_T15  2.5
    X_P2_T15  CAP_M5_T15  1
    X_P2_T15  CAP_M6_T15  1.2
    X_P2_T15  CAP_M7_T15  1
    X_P2_T15  CAP_M8_T15  1.1
    X_P2_T15  CAP_M9_T15  1.9
    X_P2_T15  CAP_M10_T15  3
    X_P2_T15  CAP_M11_T15  0.8
    X_P3_T15  COST      44.5
    X_P3_T15  BAL_P3_T15  1
    X_P3_T15  CAP_M0_T15  1.8
    X_P3_T15  CAP_M1_T15  2.8
    X_P3_T15  CAP_M2_T15  2.1
    X_P3_T15  CAP_M3_T15  1.6
    X_P3_T15  CAP_M4_T15  1.1
    X_P3_T15  CAP_M5_T15  0.7
    X_P3_T15  CAP_M6_T15  2
    X_P3_T15  CAP_M7_T15  2.7
    X_P3_T15  CAP_M8_T15  1.9
    X_P3_T15  CAP_M9_T15  2.6
    X_P3_T15  CAP_M10_T15  2.1
    X_P3_T15  CAP_M11_T15  2.3
    X_P4_T15  COST      16.7
    X_P4_T15  BAL_P4_T15  1
    X_P4_T15  CAP_M0_T15  1.9
    X_P4_T15  CAP_M1_T15  2
    X_P4_T15  CAP_M2_T15  2.5
    X_P4_T15  CAP_M3_T15  2.7
    X_P4_T15  CAP_M4_T15  2.1
    X_P4_T15  CAP_M5_T15  1.2
    X_P4_T15  CAP_M6_T15  1.6
    X_P4_T15  CAP_M7_T15  1.6
    X_P4_T15  CAP_M8_T15  2.1
    X_P4_T15  CAP_M9_T15  1.7
    X_P4_T15  CAP_M10_T15  0.8
    X_P4_T15  CAP_M11_T15  1.6
    X_P5_T15  COST      46.4
    X_P5_T15  BAL_P5_T15  1
    X_P5_T15  CAP_M0_T15  2.1
    X_P5_T15  CAP_M1_T15  0.7
    X_P5_T15  CAP_M2_T15  2.9
    X_P5_T15  CAP_M3_T15  1.3
    X_P5_T15  CAP_M4_T15  2.6
    X_P5_T15  CAP_M5_T15  1.9
    X_P5_T15  CAP_M6_T15  2.4
    X_P5_T15  CAP_M7_T15  1.8
    X_P5_T15  CAP_M8_T15  1.4
    X_P5_T15  CAP_M9_T15  0.7
    X_P5_T15  CAP_M10_T15  0.6
    X_P5_T15  CAP_M11_T15  2.9
    X_P6_T15  COST      41.7
    X_P6_T15  BAL_P6_T15  1
    X_P6_T15  CAP_M0_T15  1.3
    X_P6_T15  CAP_M1_T15  1.8
    X_P6_T15  CAP_M2_T15  2.5
    X_P6_T15  CAP_M3_T15  2.2
    X_P6_T15  CAP_M4_T15  0.7
    X_P6_T15  CAP_M5_T15  1.5
    X_P6_T15  CAP_M6_T15  0.6
    X_P6_T15  CAP_M7_T15  1.9
    X_P6_T15  CAP_M8_T15  1.3
    X_P6_T15  CAP_M9_T15  2.1
    X_P6_T15  CAP_M10_T15  2.4
    X_P6_T15  CAP_M11_T15  1.1
    X_P7_T15  COST      35.3
    X_P7_T15  BAL_P7_T15  1
    X_P7_T15  CAP_M0_T15  1.1
    X_P7_T15  CAP_M1_T15  2.2
    X_P7_T15  CAP_M2_T15  2.5
    X_P7_T15  CAP_M3_T15  2.9
    X_P7_T15  CAP_M4_T15  1
    X_P7_T15  CAP_M5_T15  2.9
    X_P7_T15  CAP_M6_T15  2.4
    X_P7_T15  CAP_M7_T15  1.6
    X_P7_T15  CAP_M8_T15  1.4
    X_P7_T15  CAP_M9_T15  0.6
    X_P7_T15  CAP_M10_T15  1.6
    X_P7_T15  CAP_M11_T15  1.7
    X_P8_T15  COST      17.1
    X_P8_T15  BAL_P8_T15  1
    X_P8_T15  CAP_M0_T15  1.8
    X_P8_T15  CAP_M1_T15  0.7
    X_P8_T15  CAP_M2_T15  2.7
    X_P8_T15  CAP_M3_T15  2.3
    X_P8_T15  CAP_M4_T15  1.6
    X_P8_T15  CAP_M5_T15  1.3
    X_P8_T15  CAP_M6_T15  2.9
    X_P8_T15  CAP_M7_T15  1.1
    X_P8_T15  CAP_M8_T15  1.5
    X_P8_T15  CAP_M9_T15  2.1
    X_P8_T15  CAP_M10_T15  1.6
    X_P8_T15  CAP_M11_T15  0.7
    X_P9_T15  COST      28.8
    X_P9_T15  BAL_P9_T15  1
    X_P9_T15  CAP_M0_T15  1.3
    X_P9_T15  CAP_M1_T15  2.8
    X_P9_T15  CAP_M2_T15  1.3
    X_P9_T15  CAP_M3_T15  0.6
    X_P9_T15  CAP_M4_T15  1.7
    X_P9_T15  CAP_M5_T15  2.5
    X_P9_T15  CAP_M6_T15  1
    X_P9_T15  CAP_M7_T15  2.5
    X_P9_T15  CAP_M8_T15  2.7
    X_P9_T15  CAP_M9_T15  1.1
    X_P9_T15  CAP_M10_T15  1.8
    X_P9_T15  CAP_M11_T15  2.8
    X_P10_T15  COST      49.4
    X_P10_T15  BAL_P10_T15  1
    X_P10_T15  CAP_M0_T15  0.8
    X_P10_T15  CAP_M1_T15  0.8
    X_P10_T15  CAP_M2_T15  1.3
    X_P10_T15  CAP_M3_T15  0.8
    X_P10_T15  CAP_M4_T15  0.7
    X_P10_T15  CAP_M5_T15  1.7
    X_P10_T15  CAP_M6_T15  1.4
    X_P10_T15  CAP_M7_T15  1.3
    X_P10_T15  CAP_M8_T15  2.9
    X_P10_T15  CAP_M9_T15  1.6
    X_P10_T15  CAP_M10_T15  2.9
    X_P10_T15  CAP_M11_T15  0.7
    X_P11_T15  COST      24.2
    X_P11_T15  BAL_P11_T15  1
    X_P11_T15  CAP_M0_T15  2.4
    X_P11_T15  CAP_M1_T15  1.8
    X_P11_T15  CAP_M2_T15  1.8
    X_P11_T15  CAP_M3_T15  1.5
    X_P11_T15  CAP_M4_T15  2.8
    X_P11_T15  CAP_M5_T15  1.4
    X_P11_T15  CAP_M6_T15  0.7
    X_P11_T15  CAP_M7_T15  0.7
    X_P11_T15  CAP_M8_T15  2
    X_P11_T15  CAP_M9_T15  1.5
    X_P11_T15  CAP_M10_T15  1.7
    X_P11_T15  CAP_M11_T15  2.8
    X_P12_T15  COST      35.3
    X_P12_T15  BAL_P12_T15  1
    X_P12_T15  CAP_M0_T15  2.4
    X_P12_T15  CAP_M1_T15  2.3
    X_P12_T15  CAP_M2_T15  1.7
    X_P12_T15  CAP_M3_T15  2
    X_P12_T15  CAP_M4_T15  1.9
    X_P12_T15  CAP_M5_T15  1.2
    X_P12_T15  CAP_M6_T15  1.7
    X_P12_T15  CAP_M7_T15  1.4
    X_P12_T15  CAP_M8_T15  2
    X_P12_T15  CAP_M9_T15  1.6
    X_P12_T15  CAP_M10_T15  1.3
    X_P12_T15  CAP_M11_T15  2.7
    X_P13_T15  COST      49.8
    X_P13_T15  BAL_P13_T15  1
    X_P13_T15  CAP_M0_T15  2.2
    X_P13_T15  CAP_M1_T15  0.8
    X_P13_T15  CAP_M2_T15  2.7
    X_P13_T15  CAP_M3_T15  2.1
    X_P13_T15  CAP_M4_T15  1.8
    X_P13_T15  CAP_M5_T15  1.2
    X_P13_T15  CAP_M6_T15  1
    X_P13_T15  CAP_M7_T15  1.2
    X_P13_T15  CAP_M8_T15  1.8
    X_P13_T15  CAP_M9_T15  1
    X_P13_T15  CAP_M10_T15  1.3
    X_P13_T15  CAP_M11_T15  1.2
    X_P14_T15  COST      23.4
    X_P14_T15  BAL_P14_T15  1
    X_P14_T15  CAP_M0_T15  1.1
    X_P14_T15  CAP_M1_T15  1.8
    X_P14_T15  CAP_M2_T15  1.9
    X_P14_T15  CAP_M3_T15  1.4
    X_P14_T15  CAP_M4_T15  1.5
    X_P14_T15  CAP_M5_T15  1.9
    X_P14_T15  CAP_M6_T15  2.7
    X_P14_T15  CAP_M7_T15  0.8
    X_P14_T15  CAP_M8_T15  1.7
    X_P14_T15  CAP_M9_T15  2.2
    X_P14_T15  CAP_M10_T15  2.7
    X_P14_T15  CAP_M11_T15  1.2
    X_P15_T15  COST      29.3
    X_P15_T15  BAL_P15_T15  1
    X_P15_T15  CAP_M0_T15  0.8
    X_P15_T15  CAP_M1_T15  0.8
    X_P15_T15  CAP_M2_T15  2.4
    X_P15_T15  CAP_M3_T15  2.3
    X_P15_T15  CAP_M4_T15  1.8
    X_P15_T15  CAP_M5_T15  0.8
    X_P15_T15  CAP_M6_T15  0.8
    X_P15_T15  CAP_M7_T15  1.4
    X_P15_T15  CAP_M8_T15  1.3
    X_P15_T15  CAP_M9_T15  1.8
    X_P15_T15  CAP_M10_T15  2.1
    X_P15_T15  CAP_M11_T15  1.5
    X_P16_T15  COST      47.8
    X_P16_T15  BAL_P16_T15  1
    X_P16_T15  CAP_M0_T15  1.1
    X_P16_T15  CAP_M1_T15  0.5
    X_P16_T15  CAP_M2_T15  1.2
    X_P16_T15  CAP_M3_T15  2.8
    X_P16_T15  CAP_M4_T15  1.1
    X_P16_T15  CAP_M5_T15  1
    X_P16_T15  CAP_M6_T15  1.8
    X_P16_T15  CAP_M7_T15  1.8
    X_P16_T15  CAP_M8_T15  2.5
    X_P16_T15  CAP_M9_T15  1.6
    X_P16_T15  CAP_M10_T15  2.7
    X_P16_T15  CAP_M11_T15  1.3
    X_P17_T15  COST      43.6
    X_P17_T15  BAL_P17_T15  1
    X_P17_T15  CAP_M0_T15  1.8
    X_P17_T15  CAP_M1_T15  2.2
    X_P17_T15  CAP_M2_T15  2.7
    X_P17_T15  CAP_M3_T15  2.2
    X_P17_T15  CAP_M4_T15  1.2
    X_P17_T15  CAP_M5_T15  1.3
    X_P17_T15  CAP_M6_T15  0.7
    X_P17_T15  CAP_M7_T15  1.3
    X_P17_T15  CAP_M8_T15  2.8
    X_P17_T15  CAP_M9_T15  1.4
    X_P17_T15  CAP_M10_T15  2.7
    X_P17_T15  CAP_M11_T15  2.2
    X_P18_T15  COST      28.3
    X_P18_T15  BAL_P18_T15  1
    X_P18_T15  CAP_M0_T15  1.3
    X_P18_T15  CAP_M1_T15  2.9
    X_P18_T15  CAP_M2_T15  1.7
    X_P18_T15  CAP_M3_T15  0.5
    X_P18_T15  CAP_M4_T15  2.4
    X_P18_T15  CAP_M5_T15  2.9
    X_P18_T15  CAP_M6_T15  2.1
    X_P18_T15  CAP_M7_T15  2.7
    X_P18_T15  CAP_M8_T15  1.4
    X_P18_T15  CAP_M9_T15  0.5
    X_P18_T15  CAP_M10_T15  2.1
    X_P18_T15  CAP_M11_T15  1.1
    X_P19_T15  COST      25.9
    X_P19_T15  BAL_P19_T15  1
    X_P19_T15  CAP_M0_T15  2.2
    X_P19_T15  CAP_M1_T15  2.8
    X_P19_T15  CAP_M2_T15  1.6
    X_P19_T15  CAP_M3_T15  2.6
    X_P19_T15  CAP_M4_T15  1.7
    X_P19_T15  CAP_M5_T15  1.3
    X_P19_T15  CAP_M6_T15  1
    X_P19_T15  CAP_M7_T15  1.5
    X_P19_T15  CAP_M8_T15  0.6
    X_P19_T15  CAP_M9_T15  2.8
    X_P19_T15  CAP_M10_T15  0.8
    X_P19_T15  CAP_M11_T15  0.8
    X_P20_T15  COST      16.5
    X_P20_T15  BAL_P20_T15  1
    X_P20_T15  CAP_M0_T15  1.2
    X_P20_T15  CAP_M1_T15  2
    X_P20_T15  CAP_M2_T15  1.4
    X_P20_T15  CAP_M3_T15  2.3
    X_P20_T15  CAP_M4_T15  1.5
    X_P20_T15  CAP_M5_T15  1.6
    X_P20_T15  CAP_M6_T15  2.6
    X_P20_T15  CAP_M7_T15  2.1
    X_P20_T15  CAP_M8_T15  1.2
    X_P20_T15  CAP_M9_T15  1
    X_P20_T15  CAP_M10_T15  2.3
    X_P20_T15  CAP_M11_T15  1.8
    X_P21_T15  COST      49.1
    X_P21_T15  BAL_P21_T15  1
    X_P21_T15  CAP_M0_T15  2.4
    X_P21_T15  CAP_M1_T15  1.9
    X_P21_T15  CAP_M2_T15  2.9
    X_P21_T15  CAP_M3_T15  2.7
    X_P21_T15  CAP_M4_T15  2.7
    X_P21_T15  CAP_M5_T15  1.7
    X_P21_T15  CAP_M6_T15  2.8
    X_P21_T15  CAP_M7_T15  2.5
    X_P21_T15  CAP_M8_T15  3
    X_P21_T15  CAP_M9_T15  2.7
    X_P21_T15  CAP_M10_T15  2.4
    X_P21_T15  CAP_M11_T15  2.4
    X_P22_T15  COST      30.9
    X_P22_T15  BAL_P22_T15  1
    X_P22_T15  CAP_M0_T15  0.6
    X_P22_T15  CAP_M1_T15  2.9
    X_P22_T15  CAP_M2_T15  2.1
    X_P22_T15  CAP_M3_T15  2.1
    X_P22_T15  CAP_M4_T15  2
    X_P22_T15  CAP_M5_T15  2.4
    X_P22_T15  CAP_M6_T15  2.2
    X_P22_T15  CAP_M7_T15  0.7
    X_P22_T15  CAP_M8_T15  0.5
    X_P22_T15  CAP_M9_T15  1.8
    X_P22_T15  CAP_M10_T15  1.1
    X_P22_T15  CAP_M11_T15  2.6
    X_P23_T15  COST      44.2
    X_P23_T15  BAL_P23_T15  1
    X_P23_T15  CAP_M0_T15  2.9
    X_P23_T15  CAP_M1_T15  1.2
    X_P23_T15  CAP_M2_T15  1.8
    X_P23_T15  CAP_M3_T15  1.8
    X_P23_T15  CAP_M4_T15  1.5
    X_P23_T15  CAP_M5_T15  0.5
    X_P23_T15  CAP_M6_T15  2.8
    X_P23_T15  CAP_M7_T15  1.9
    X_P23_T15  CAP_M8_T15  2.2
    X_P23_T15  CAP_M9_T15  2.9
    X_P23_T15  CAP_M10_T15  2.1
    X_P23_T15  CAP_M11_T15  2.2
    X_P24_T15  COST      26.6
    X_P24_T15  BAL_P24_T15  1
    X_P24_T15  CAP_M0_T15  1.1
    X_P24_T15  CAP_M1_T15  2.5
    X_P24_T15  CAP_M2_T15  1.3
    X_P24_T15  CAP_M3_T15  2.8
    X_P24_T15  CAP_M4_T15  1.1
    X_P24_T15  CAP_M5_T15  2
    X_P24_T15  CAP_M6_T15  1.4
    X_P24_T15  CAP_M7_T15  0.5
    X_P24_T15  CAP_M8_T15  1.2
    X_P24_T15  CAP_M9_T15  2.4
    X_P24_T15  CAP_M10_T15  0.6
    X_P24_T15  CAP_M11_T15  1.9
    S_P0_T15  COST      2.9
    S_P0_T15  BAL_P0_T15  -1
    S_P0_T15  STORAGE_T15  1
    S_P0_T15  BAL_P0_T16  1
    S_P1_T15  COST      4.8
    S_P1_T15  BAL_P1_T15  -1
    S_P1_T15  STORAGE_T15  1
    S_P1_T15  BAL_P1_T16  1
    S_P2_T15  COST      1
    S_P2_T15  BAL_P2_T15  -1
    S_P2_T15  STORAGE_T15  1
    S_P2_T15  BAL_P2_T16  1
    S_P3_T15  COST      2.3
    S_P3_T15  BAL_P3_T15  -1
    S_P3_T15  STORAGE_T15  1
    S_P3_T15  BAL_P3_T16  1
    S_P4_T15  COST      2.5
    S_P4_T15  BAL_P4_T15  -1
    S_P4_T15  STORAGE_T15  1
    S_P4_T15  BAL_P4_T16  1
    S_P5_T15  COST      3.1
    S_P5_T15  BAL_P5_T15  -1
    S_P5_T15  STORAGE_T15  1
    S_P5_T15  BAL_P5_T16  1
    S_P6_T15  COST      4.1
    S_P6_T15  BAL_P6_T15  -1
    S_P6_T15  STORAGE_T15  1
    S_P6_T15  BAL_P6_T16  1
    S_P7_T15  COST      1.5
    S_P7_T15  BAL_P7_T15  -1
    S_P7_T15  STORAGE_T15  1
    S_P7_T15  BAL_P7_T16  1
    S_P8_T15  COST      1.6
    S_P8_T15  BAL_P8_T15  -1
    S_P8_T15  STORAGE_T15  1
    S_P8_T15  BAL_P8_T16  1
    S_P9_T15  COST      4.3
    S_P9_T15  BAL_P9_T15  -1
    S_P9_T15  STORAGE_T15  1
    S_P9_T15  BAL_P9_T16  1
    S_P10_T15  COST      2.7
    S_P10_T15  BAL_P10_T15  -1
    S_P10_T15  STORAGE_T15  1
    S_P10_T15  BAL_P10_T16  1
    S_P11_T15  COST      1.2
    S_P11_T15  BAL_P11_T15  -1
    S_P11_T15  STORAGE_T15  1
    S_P11_T15  BAL_P11_T16  1
    S_P12_T15  COST      1
    S_P12_T15  BAL_P12_T15  -1
    S_P12_T15  STORAGE_T15  1
    S_P12_T15  BAL_P12_T16  1
    S_P13_T15  COST      2.4
    S_P13_T15  BAL_P13_T15  -1
    S_P13_T15  STORAGE_T15  1
    S_P13_T15  BAL_P13_T16  1
    S_P14_T15  COST      2.1
    S_P14_T15  BAL_P14_T15  -1
    S_P14_T15  STORAGE_T15  1
    S_P14_T15  BAL_P14_T16  1
    S_P15_T15  COST      3.9
    S_P15_T15  BAL_P15_T15  -1
    S_P15_T15  STORAGE_T15  1
    S_P15_T15  BAL_P15_T16  1
    S_P16_T15  COST      3.5
    S_P16_T15  BAL_P16_T15  -1
    S_P16_T15  STORAGE_T15  1
    S_P16_T15  BAL_P16_T16  1
    S_P17_T15  COST      3.9
    S_P17_T15  BAL_P17_T15  -1
    S_P17_T15  STORAGE_T15  1
    S_P17_T15  BAL_P17_T16  1
    S_P18_T15  COST      4.4
    S_P18_T15  BAL_P18_T15  -1
    S_P18_T15  STORAGE_T15  1
    S_P18_T15  BAL_P18_T16  1
    S_P19_T15  COST      2.9
    S_P19_T15  BAL_P19_T15  -1
    S_P19_T15  STORAGE_T15  1
    S_P19_T15  BAL_P19_T16  1
    S_P20_T15  COST      3.1
    S_P20_T15  BAL_P20_T15  -1
    S_P20_T15  STORAGE_T15  1
    S_P20_T15  BAL_P20_T16  1
    S_P21_T15  COST      3.9
    S_P21_T15  BAL_P21_T15  -1
    S_P21_T15  STORAGE_T15  1
    S_P21_T15  BAL_P21_T16  1
    S_P22_T15  COST      3.4
    S_P22_T15  BAL_P22_T15  -1
    S_P22_T15  STORAGE_T15  1
    S_P22_T15  BAL_P22_T16  1
    S_P23_T15  COST      3.8
    S_P23_T15  BAL_P23_T15  -1
    S_P23_T15  STORAGE_T15  1
    S_P23_T15  BAL_P23_T16  1
    S_P24_T15  COST      1.1
    S_P24_T15  BAL_P24_T15  -1
    S_P24_T15  STORAGE_T15  1
    S_P24_T15  BAL_P24_T16  1
    X_P0_T16  COST      27.5
    X_P0_T16  BAL_P0_T16  1
    X_P0_T16  CAP_M0_T16  1.4
    X_P0_T16  CAP_M1_T16  2.4
    X_P0_T16  CAP_M2_T16  0.5
    X_P0_T16  CAP_M3_T16  1
    X_P0_T16  CAP_M4_T16  1.3
    X_P0_T16  CAP_M5_T16  0.8
    X_P0_T16  CAP_M6_T16  1
    X_P0_T16  CAP_M7_T16  1.7
    X_P0_T16  CAP_M8_T16  0.7
    X_P0_T16  CAP_M9_T16  1.5
    X_P0_T16  CAP_M10_T16  2.4
    X_P0_T16  CAP_M11_T16  0.9
    X_P1_T16  COST      15.3
    X_P1_T16  BAL_P1_T16  1
    X_P1_T16  CAP_M0_T16  1
    X_P1_T16  CAP_M1_T16  2.2
    X_P1_T16  CAP_M2_T16  1
    X_P1_T16  CAP_M3_T16  2.4
    X_P1_T16  CAP_M4_T16  3
    X_P1_T16  CAP_M5_T16  2.2
    X_P1_T16  CAP_M6_T16  2.7
    X_P1_T16  CAP_M7_T16  1.4
    X_P1_T16  CAP_M8_T16  1.9
    X_P1_T16  CAP_M9_T16  0.9
    X_P1_T16  CAP_M10_T16  2.9
    X_P1_T16  CAP_M11_T16  2.2
    X_P2_T16  COST      10.4
    X_P2_T16  BAL_P2_T16  1
    X_P2_T16  CAP_M0_T16  2.6
    X_P2_T16  CAP_M1_T16  1.4
    X_P2_T16  CAP_M2_T16  0.8
    X_P2_T16  CAP_M3_T16  2.3
    X_P2_T16  CAP_M4_T16  2.5
    X_P2_T16  CAP_M5_T16  1
    X_P2_T16  CAP_M6_T16  1.2
    X_P2_T16  CAP_M7_T16  1
    X_P2_T16  CAP_M8_T16  1.1
    X_P2_T16  CAP_M9_T16  1.9
    X_P2_T16  CAP_M10_T16  3
    X_P2_T16  CAP_M11_T16  0.8
    X_P3_T16  COST      21.1
    X_P3_T16  BAL_P3_T16  1
    X_P3_T16  CAP_M0_T16  1.8
    X_P3_T16  CAP_M1_T16  2.8
    X_P3_T16  CAP_M2_T16  2.1
    X_P3_T16  CAP_M3_T16  1.6
    X_P3_T16  CAP_M4_T16  1.1
    X_P3_T16  CAP_M5_T16  0.7
    X_P3_T16  CAP_M6_T16  2
    X_P3_T16  CAP_M7_T16  2.7
    X_P3_T16  CAP_M8_T16  1.9
    X_P3_T16  CAP_M9_T16  2.6
    X_P3_T16  CAP_M10_T16  2.1
    X_P3_T16  CAP_M11_T16  2.3
    X_P4_T16  COST      37.6
    X_P4_T16  BAL_P4_T16  1
    X_P4_T16  CAP_M0_T16  1.9
    X_P4_T16  CAP_M1_T16  2
    X_P4_T16  CAP_M2_T16  2.5
    X_P4_T16  CAP_M3_T16  2.7
    X_P4_T16  CAP_M4_T16  2.1
    X_P4_T16  CAP_M5_T16  1.2
    X_P4_T16  CAP_M6_T16  1.6
    X_P4_T16  CAP_M7_T16  1.6
    X_P4_T16  CAP_M8_T16  2.1
    X_P4_T16  CAP_M9_T16  1.7
    X_P4_T16  CAP_M10_T16  0.8
    X_P4_T16  CAP_M11_T16  1.6
    X_P5_T16  COST      11.2
    X_P5_T16  BAL_P5_T16  1
    X_P5_T16  CAP_M0_T16  2.1
    X_P5_T16  CAP_M1_T16  0.7
    X_P5_T16  CAP_M2_T16  2.9
    X_P5_T16  CAP_M3_T16  1.3
    X_P5_T16  CAP_M4_T16  2.6
    X_P5_T16  CAP_M5_T16  1.9
    X_P5_T16  CAP_M6_T16  2.4
    X_P5_T16  CAP_M7_T16  1.8
    X_P5_T16  CAP_M8_T16  1.4
    X_P5_T16  CAP_M9_T16  0.7
    X_P5_T16  CAP_M10_T16  0.6
    X_P5_T16  CAP_M11_T16  2.9
    X_P6_T16  COST      38.7
    X_P6_T16  BAL_P6_T16  1
    X_P6_T16  CAP_M0_T16  1.3
    X_P6_T16  CAP_M1_T16  1.8
    X_P6_T16  CAP_M2_T16  2.5
    X_P6_T16  CAP_M3_T16  2.2
    X_P6_T16  CAP_M4_T16  0.7
    X_P6_T16  CAP_M5_T16  1.5
    X_P6_T16  CAP_M6_T16  0.6
    X_P6_T16  CAP_M7_T16  1.9
    X_P6_T16  CAP_M8_T16  1.3
    X_P6_T16  CAP_M9_T16  2.1
    X_P6_T16  CAP_M10_T16  2.4
    X_P6_T16  CAP_M11_T16  1.1
    X_P7_T16  COST      48.1
    X_P7_T16  BAL_P7_T16  1
    X_P7_T16  CAP_M0_T16  1.1
    X_P7_T16  CAP_M1_T16  2.2
    X_P7_T16  CAP_M2_T16  2.5
    X_P7_T16  CAP_M3_T16  2.9
    X_P7_T16  CAP_M4_T16  1
    X_P7_T16  CAP_M5_T16  2.9
    X_P7_T16  CAP_M6_T16  2.4
    X_P7_T16  CAP_M7_T16  1.6
    X_P7_T16  CAP_M8_T16  1.4
    X_P7_T16  CAP_M9_T16  0.6
    X_P7_T16  CAP_M10_T16  1.6
    X_P7_T16  CAP_M11_T16  1.7
    X_P8_T16  COST      26.7
    X_P8_T16  BAL_P8_T16  1
    X_P8_T16  CAP_M0_T16  1.8
    X_P8_T16  CAP_M1_T16  0.7
    X_P8_T16  CAP_M2_T16  2.7
    X_P8_T16  CAP_M3_T16  2.3
    X_P8_T16  CAP_M4_T16  1.6
    X_P8_T16  CAP_M5_T16  1.3
    X_P8_T16  CAP_M6_T16  2.9
    X_P8_T16  CAP_M7_T16  1.1
    X_P8_T16  CAP_M8_T16  1.5
    X_P8_T16  CAP_M9_T16  2.1
    X_P8_T16  CAP_M10_T16  1.6
    X_P8_T16  CAP_M11_T16  0.7
    X_P9_T16  COST      37.8
    X_P9_T16  BAL_P9_T16  1
    X_P9_T16  CAP_M0_T16  1.3
    X_P9_T16  CAP_M1_T16  2.8
    X_P9_T16  CAP_M2_T16  1.3
    X_P9_T16  CAP_M3_T16  0.6
    X_P9_T16  CAP_M4_T16  1.7
    X_P9_T16  CAP_M5_T16  2.5
    X_P9_T16  CAP_M6_T16  1
    X_P9_T16  CAP_M7_T16  2.5
    X_P9_T16  CAP_M8_T16  2.7
    X_P9_T16  CAP_M9_T16  1.1
    X_P9_T16  CAP_M10_T16  1.8
    X_P9_T16  CAP_M11_T16  2.8
    X_P10_T16  COST      13.7
    X_P10_T16  BAL_P10_T16  1
    X_P10_T16  CAP_M0_T16  0.8
    X_P10_T16  CAP_M1_T16  0.8
    X_P10_T16  CAP_M2_T16  1.3
    X_P10_T16  CAP_M3_T16  0.8
    X_P10_T16  CAP_M4_T16  0.7
    X_P10_T16  CAP_M5_T16  1.7
    X_P10_T16  CAP_M6_T16  1.4
    X_P10_T16  CAP_M7_T16  1.3
    X_P10_T16  CAP_M8_T16  2.9
    X_P10_T16  CAP_M9_T16  1.6
    X_P10_T16  CAP_M10_T16  2.9
    X_P10_T16  CAP_M11_T16  0.7
    X_P11_T16  COST      23.6
    X_P11_T16  BAL_P11_T16  1
    X_P11_T16  CAP_M0_T16  2.4
    X_P11_T16  CAP_M1_T16  1.8
    X_P11_T16  CAP_M2_T16  1.8
    X_P11_T16  CAP_M3_T16  1.5
    X_P11_T16  CAP_M4_T16  2.8
    X_P11_T16  CAP_M5_T16  1.4
    X_P11_T16  CAP_M6_T16  0.7
    X_P11_T16  CAP_M7_T16  0.7
    X_P11_T16  CAP_M8_T16  2
    X_P11_T16  CAP_M9_T16  1.5
    X_P11_T16  CAP_M10_T16  1.7
    X_P11_T16  CAP_M11_T16  2.8
    X_P12_T16  COST      34.9
    X_P12_T16  BAL_P12_T16  1
    X_P12_T16  CAP_M0_T16  2.4
    X_P12_T16  CAP_M1_T16  2.3
    X_P12_T16  CAP_M2_T16  1.7
    X_P12_T16  CAP_M3_T16  2
    X_P12_T16  CAP_M4_T16  1.9
    X_P12_T16  CAP_M5_T16  1.2
    X_P12_T16  CAP_M6_T16  1.7
    X_P12_T16  CAP_M7_T16  1.4
    X_P12_T16  CAP_M8_T16  2
    X_P12_T16  CAP_M9_T16  1.6
    X_P12_T16  CAP_M10_T16  1.3
    X_P12_T16  CAP_M11_T16  2.7
    X_P13_T16  COST      27.8
    X_P13_T16  BAL_P13_T16  1
    X_P13_T16  CAP_M0_T16  2.2
    X_P13_T16  CAP_M1_T16  0.8
    X_P13_T16  CAP_M2_T16  2.7
    X_P13_T16  CAP_M3_T16  2.1
    X_P13_T16  CAP_M4_T16  1.8
    X_P13_T16  CAP_M5_T16  1.2
    X_P13_T16  CAP_M6_T16  1
    X_P13_T16  CAP_M7_T16  1.2
    X_P13_T16  CAP_M8_T16  1.8
    X_P13_T16  CAP_M9_T16  1
    X_P13_T16  CAP_M10_T16  1.3
    X_P13_T16  CAP_M11_T16  1.2
    X_P14_T16  COST      37.9
    X_P14_T16  BAL_P14_T16  1
    X_P14_T16  CAP_M0_T16  1.1
    X_P14_T16  CAP_M1_T16  1.8
    X_P14_T16  CAP_M2_T16  1.9
    X_P14_T16  CAP_M3_T16  1.4
    X_P14_T16  CAP_M4_T16  1.5
    X_P14_T16  CAP_M5_T16  1.9
    X_P14_T16  CAP_M6_T16  2.7
    X_P14_T16  CAP_M7_T16  0.8
    X_P14_T16  CAP_M8_T16  1.7
    X_P14_T16  CAP_M9_T16  2.2
    X_P14_T16  CAP_M10_T16  2.7
    X_P14_T16  CAP_M11_T16  1.2
    X_P15_T16  COST      36
    X_P15_T16  BAL_P15_T16  1
    X_P15_T16  CAP_M0_T16  0.8
    X_P15_T16  CAP_M1_T16  0.8
    X_P15_T16  CAP_M2_T16  2.4
    X_P15_T16  CAP_M3_T16  2.3
    X_P15_T16  CAP_M4_T16  1.8
    X_P15_T16  CAP_M5_T16  0.8
    X_P15_T16  CAP_M6_T16  0.8
    X_P15_T16  CAP_M7_T16  1.4
    X_P15_T16  CAP_M8_T16  1.3
    X_P15_T16  CAP_M9_T16  1.8
    X_P15_T16  CAP_M10_T16  2.1
    X_P15_T16  CAP_M11_T16  1.5
    X_P16_T16  COST      29.1
    X_P16_T16  BAL_P16_T16  1
    X_P16_T16  CAP_M0_T16  1.1
    X_P16_T16  CAP_M1_T16  0.5
    X_P16_T16  CAP_M2_T16  1.2
    X_P16_T16  CAP_M3_T16  2.8
    X_P16_T16  CAP_M4_T16  1.1
    X_P16_T16  CAP_M5_T16  1
    X_P16_T16  CAP_M6_T16  1.8
    X_P16_T16  CAP_M7_T16  1.8
    X_P16_T16  CAP_M8_T16  2.5
    X_P16_T16  CAP_M9_T16  1.6
    X_P16_T16  CAP_M10_T16  2.7
    X_P16_T16  CAP_M11_T16  1.3
    X_P17_T16  COST      36.3
    X_P17_T16  BAL_P17_T16  1
    X_P17_T16  CAP_M0_T16  1.8
    X_P17_T16  CAP_M1_T16  2.2
    X_P17_T16  CAP_M2_T16  2.7
    X_P17_T16  CAP_M3_T16  2.2
    X_P17_T16  CAP_M4_T16  1.2
    X_P17_T16  CAP_M5_T16  1.3
    X_P17_T16  CAP_M6_T16  0.7
    X_P17_T16  CAP_M7_T16  1.3
    X_P17_T16  CAP_M8_T16  2.8
    X_P17_T16  CAP_M9_T16  1.4
    X_P17_T16  CAP_M10_T16  2.7
    X_P17_T16  CAP_M11_T16  2.2
    X_P18_T16  COST      19.7
    X_P18_T16  BAL_P18_T16  1
    X_P18_T16  CAP_M0_T16  1.3
    X_P18_T16  CAP_M1_T16  2.9
    X_P18_T16  CAP_M2_T16  1.7
    X_P18_T16  CAP_M3_T16  0.5
    X_P18_T16  CAP_M4_T16  2.4
    X_P18_T16  CAP_M5_T16  2.9
    X_P18_T16  CAP_M6_T16  2.1
    X_P18_T16  CAP_M7_T16  2.7
    X_P18_T16  CAP_M8_T16  1.4
    X_P18_T16  CAP_M9_T16  0.5
    X_P18_T16  CAP_M10_T16  2.1
    X_P18_T16  CAP_M11_T16  1.1
    X_P19_T16  COST      16.3
    X_P19_T16  BAL_P19_T16  1
    X_P19_T16  CAP_M0_T16  2.2
    X_P19_T16  CAP_M1_T16  2.8
    X_P19_T16  CAP_M2_T16  1.6
    X_P19_T16  CAP_M3_T16  2.6
    X_P19_T16  CAP_M4_T16  1.7
    X_P19_T16  CAP_M5_T16  1.3
    X_P19_T16  CAP_M6_T16  1
    X_P19_T16  CAP_M7_T16  1.5
    X_P19_T16  CAP_M8_T16  0.6
    X_P19_T16  CAP_M9_T16  2.8
    X_P19_T16  CAP_M10_T16  0.8
    X_P19_T16  CAP_M11_T16  0.8
    X_P20_T16  COST      39.3
    X_P20_T16  BAL_P20_T16  1
    X_P20_T16  CAP_M0_T16  1.2
    X_P20_T16  CAP_M1_T16  2
    X_P20_T16  CAP_M2_T16  1.4
    X_P20_T16  CAP_M3_T16  2.3
    X_P20_T16  CAP_M4_T16  1.5
    X_P20_T16  CAP_M5_T16  1.6
    X_P20_T16  CAP_M6_T16  2.6
    X_P20_T16  CAP_M7_T16  2.1
    X_P20_T16  CAP_M8_T16  1.2
    X_P20_T16  CAP_M9_T16  1
    X_P20_T16  CAP_M10_T16  2.3
    X_P20_T16  CAP_M11_T16  1.8
    X_P21_T16  COST      44.6
    X_P21_T16  BAL_P21_T16  1
    X_P21_T16  CAP_M0_T16  2.4
    X_P21_T16  CAP_M1_T16  1.9
    X_P21_T16  CAP_M2_T16  2.9
    X_P21_T16  CAP_M3_T16  2.7
    X_P21_T16  CAP_M4_T16  2.7
    X_P21_T16  CAP_M5_T16  1.7
    X_P21_T16  CAP_M6_T16  2.8
    X_P21_T16  CAP_M7_T16  2.5
    X_P21_T16  CAP_M8_T16  3
    X_P21_T16  CAP_M9_T16  2.7
    X_P21_T16  CAP_M10_T16  2.4
    X_P21_T16  CAP_M11_T16  2.4
    X_P22_T16  COST      37.3
    X_P22_T16  BAL_P22_T16  1
    X_P22_T16  CAP_M0_T16  0.6
    X_P22_T16  CAP_M1_T16  2.9
    X_P22_T16  CAP_M2_T16  2.1
    X_P22_T16  CAP_M3_T16  2.1
    X_P22_T16  CAP_M4_T16  2
    X_P22_T16  CAP_M5_T16  2.4
    X_P22_T16  CAP_M6_T16  2.2
    X_P22_T16  CAP_M7_T16  0.7
    X_P22_T16  CAP_M8_T16  0.5
    X_P22_T16  CAP_M9_T16  1.8
    X_P22_T16  CAP_M10_T16  1.1
    X_P22_T16  CAP_M11_T16  2.6
    X_P23_T16  COST      37.2
    X_P23_T16  BAL_P23_T16  1
    X_P23_T16  CAP_M0_T16  2.9
    X_P23_T16  CAP_M1_T16  1.2
    X_P23_T16  CAP_M2_T16  1.8
    X_P23_T16  CAP_M3_T16  1.8
    X_P23_T16  CAP_M4_T16  1.5
    X_P23_T16  CAP_M5_T16  0.5
    X_P23_T16  CAP_M6_T16  2.8
    X_P23_T16  CAP_M7_T16  1.9
    X_P23_T16  CAP_M8_T16  2.2
    X_P23_T16  CAP_M9_T16  2.9
    X_P23_T16  CAP_M10_T16  2.1
    X_P23_T16  CAP_M11_T16  2.2
    X_P24_T16  COST      20.6
    X_P24_T16  BAL_P24_T16  1
    X_P24_T16  CAP_M0_T16  1.1
    X_P24_T16  CAP_M1_T16  2.5
    X_P24_T16  CAP_M2_T16  1.3
    X_P24_T16  CAP_M3_T16  2.8
    X_P24_T16  CAP_M4_T16  1.1
    X_P24_T16  CAP_M5_T16  2
    X_P24_T16  CAP_M6_T16  1.4
    X_P24_T16  CAP_M7_T16  0.5
    X_P24_T16  CAP_M8_T16  1.2
    X_P24_T16  CAP_M9_T16  2.4
    X_P24_T16  CAP_M10_T16  0.6
    X_P24_T16  CAP_M11_T16  1.9
    S_P0_T16  COST      4
    S_P0_T16  BAL_P0_T16  -1
    S_P0_T16  STORAGE_T16  1
    S_P0_T16  BAL_P0_T17  1
    S_P1_T16  COST      2.8
    S_P1_T16  BAL_P1_T16  -1
    S_P1_T16  STORAGE_T16  1
    S_P1_T16  BAL_P1_T17  1
    S_P2_T16  COST      4.3
    S_P2_T16  BAL_P2_T16  -1
    S_P2_T16  STORAGE_T16  1
    S_P2_T16  BAL_P2_T17  1
    S_P3_T16  COST      4.5
    S_P3_T16  BAL_P3_T16  -1
    S_P3_T16  STORAGE_T16  1
    S_P3_T16  BAL_P3_T17  1
    S_P4_T16  COST      4.3
    S_P4_T16  BAL_P4_T16  -1
    S_P4_T16  STORAGE_T16  1
    S_P4_T16  BAL_P4_T17  1
    S_P5_T16  COST      3.8
    S_P5_T16  BAL_P5_T16  -1
    S_P5_T16  STORAGE_T16  1
    S_P5_T16  BAL_P5_T17  1
    S_P6_T16  COST      4.6
    S_P6_T16  BAL_P6_T16  -1
    S_P6_T16  STORAGE_T16  1
    S_P6_T16  BAL_P6_T17  1
    S_P7_T16  COST      2.1
    S_P7_T16  BAL_P7_T16  -1
    S_P7_T16  STORAGE_T16  1
    S_P7_T16  BAL_P7_T17  1
    S_P8_T16  COST      4.4
    S_P8_T16  BAL_P8_T16  -1
    S_P8_T16  STORAGE_T16  1
    S_P8_T16  BAL_P8_T17  1
    S_P9_T16  COST      2.1
    S_P9_T16  BAL_P9_T16  -1
    S_P9_T16  STORAGE_T16  1
    S_P9_T16  BAL_P9_T17  1
    S_P10_T16  COST      2.8
    S_P10_T16  BAL_P10_T16  -1
    S_P10_T16  STORAGE_T16  1
    S_P10_T16  BAL_P10_T17  1
    S_P11_T16  COST      1.6
    S_P11_T16  BAL_P11_T16  -1
    S_P11_T16  STORAGE_T16  1
    S_P11_T16  BAL_P11_T17  1
    S_P12_T16  COST      4.5
    S_P12_T16  BAL_P12_T16  -1
    S_P12_T16  STORAGE_T16  1
    S_P12_T16  BAL_P12_T17  1
    S_P13_T16  COST      5
    S_P13_T16  BAL_P13_T16  -1
    S_P13_T16  STORAGE_T16  1
    S_P13_T16  BAL_P13_T17  1
    S_P14_T16  COST      2.5
    S_P14_T16  BAL_P14_T16  -1
    S_P14_T16  STORAGE_T16  1
    S_P14_T16  BAL_P14_T17  1
    S_P15_T16  COST      1.5
    S_P15_T16  BAL_P15_T16  -1
    S_P15_T16  STORAGE_T16  1
    S_P15_T16  BAL_P15_T17  1
    S_P16_T16  COST      1.2
    S_P16_T16  BAL_P16_T16  -1
    S_P16_T16  STORAGE_T16  1
    S_P16_T16  BAL_P16_T17  1
    S_P17_T16  COST      3.7
    S_P17_T16  BAL_P17_T16  -1
    S_P17_T16  STORAGE_T16  1
    S_P17_T16  BAL_P17_T17  1
    S_P18_T16  COST      4.8
    S_P18_T16  BAL_P18_T16  -1
    S_P18_T16  STORAGE_T16  1
    S_P18_T16  BAL_P18_T17  1
    S_P19_T16  COST      1.2
    S_P19_T16  BAL_P19_T16  -1
    S_P19_T16  STORAGE_T16  1
    S_P19_T16  BAL_P19_T17  1
    S_P20_T16  COST      2.2
    S_P20_T16  BAL_P20_T16  -1
    S_P20_T16  STORAGE_T16  1
    S_P20_T16  BAL_P20_T17  1
    S_P21_T16  COST      5
    S_P21_T16  BAL_P21_T16  -1
    S_P21_T16  STORAGE_T16  1
    S_P21_T16  BAL_P21_T17  1
    S_P22_T16  COST      2
    S_P22_T16  BAL_P22_T16  -1
    S_P22_T16  STORAGE_T16  1
    S_P22_T16  BAL_P22_T17  1
    S_P23_T16  COST      3.1
    S_P23_T16  BAL_P23_T16  -1
    S_P23_T16  STORAGE_T16  1
    S_P23_T16  BAL_P23_T17  1
    S_P24_T16  COST      3.8
    S_P24_T16  BAL_P24_T16  -1
    S_P24_T16  STORAGE_T16  1
    S_P24_T16  BAL_P24_T17  1
    X_P0_T17  COST      25.3
    X_P0_T17  BAL_P0_T17  1
    X_P0_T17  CAP_M0_T17  1.4
    X_P0_T17  CAP_M1_T17  2.4
    X_P0_T17  CAP_M2_T17  0.5
    X_P0_T17  CAP_M3_T17  1
    X_P0_T17  CAP_M4_T17  1.3
    X_P0_T17  CAP_M5_T17  0.8
    X_P0_T17  CAP_M6_T17  1
    X_P0_T17  CAP_M7_T17  1.7
    X_P0_T17  CAP_M8_T17  0.7
    X_P0_T17  CAP_M9_T17  1.5
    X_P0_T17  CAP_M10_T17  2.4
    X_P0_T17  CAP_M11_T17  0.9
    X_P1_T17  COST      47.7
    X_P1_T17  BAL_P1_T17  1
    X_P1_T17  CAP_M0_T17  1
    X_P1_T17  CAP_M1_T17  2.2
    X_P1_T17  CAP_M2_T17  1
    X_P1_T17  CAP_M3_T17  2.4
    X_P1_T17  CAP_M4_T17  3
    X_P1_T17  CAP_M5_T17  2.2
    X_P1_T17  CAP_M6_T17  2.7
    X_P1_T17  CAP_M7_T17  1.4
    X_P1_T17  CAP_M8_T17  1.9
    X_P1_T17  CAP_M9_T17  0.9
    X_P1_T17  CAP_M10_T17  2.9
    X_P1_T17  CAP_M11_T17  2.2
    X_P2_T17  COST      44.6
    X_P2_T17  BAL_P2_T17  1
    X_P2_T17  CAP_M0_T17  2.6
    X_P2_T17  CAP_M1_T17  1.4
    X_P2_T17  CAP_M2_T17  0.8
    X_P2_T17  CAP_M3_T17  2.3
    X_P2_T17  CAP_M4_T17  2.5
    X_P2_T17  CAP_M5_T17  1
    X_P2_T17  CAP_M6_T17  1.2
    X_P2_T17  CAP_M7_T17  1
    X_P2_T17  CAP_M8_T17  1.1
    X_P2_T17  CAP_M9_T17  1.9
    X_P2_T17  CAP_M10_T17  3
    X_P2_T17  CAP_M11_T17  0.8
    X_P3_T17  COST      28.1
    X_P3_T17  BAL_P3_T17  1
    X_P3_T17  CAP_M0_T17  1.8
    X_P3_T17  CAP_M1_T17  2.8
    X_P3_T17  CAP_M2_T17  2.1
    X_P3_T17  CAP_M3_T17  1.6
    X_P3_T17  CAP_M4_T17  1.1
    X_P3_T17  CAP_M5_T17  0.7
    X_P3_T17  CAP_M6_T17  2
    X_P3_T17  CAP_M7_T17  2.7
    X_P3_T17  CAP_M8_T17  1.9
    X_P3_T17  CAP_M9_T17  2.6
    X_P3_T17  CAP_M10_T17  2.1
    X_P3_T17  CAP_M11_T17  2.3
    X_P4_T17  COST      14
    X_P4_T17  BAL_P4_T17  1
    X_P4_T17  CAP_M0_T17  1.9
    X_P4_T17  CAP_M1_T17  2
    X_P4_T17  CAP_M2_T17  2.5
    X_P4_T17  CAP_M3_T17  2.7
    X_P4_T17  CAP_M4_T17  2.1
    X_P4_T17  CAP_M5_T17  1.2
    X_P4_T17  CAP_M6_T17  1.6
    X_P4_T17  CAP_M7_T17  1.6
    X_P4_T17  CAP_M8_T17  2.1
    X_P4_T17  CAP_M9_T17  1.7
    X_P4_T17  CAP_M10_T17  0.8
    X_P4_T17  CAP_M11_T17  1.6
    X_P5_T17  COST      26.4
    X_P5_T17  BAL_P5_T17  1
    X_P5_T17  CAP_M0_T17  2.1
    X_P5_T17  CAP_M1_T17  0.7
    X_P5_T17  CAP_M2_T17  2.9
    X_P5_T17  CAP_M3_T17  1.3
    X_P5_T17  CAP_M4_T17  2.6
    X_P5_T17  CAP_M5_T17  1.9
    X_P5_T17  CAP_M6_T17  2.4
    X_P5_T17  CAP_M7_T17  1.8
    X_P5_T17  CAP_M8_T17  1.4
    X_P5_T17  CAP_M9_T17  0.7
    X_P5_T17  CAP_M10_T17  0.6
    X_P5_T17  CAP_M11_T17  2.9
    X_P6_T17  COST      10.4
    X_P6_T17  BAL_P6_T17  1
    X_P6_T17  CAP_M0_T17  1.3
    X_P6_T17  CAP_M1_T17  1.8
    X_P6_T17  CAP_M2_T17  2.5
    X_P6_T17  CAP_M3_T17  2.2
    X_P6_T17  CAP_M4_T17  0.7
    X_P6_T17  CAP_M5_T17  1.5
    X_P6_T17  CAP_M6_T17  0.6
    X_P6_T17  CAP_M7_T17  1.9
    X_P6_T17  CAP_M8_T17  1.3
    X_P6_T17  CAP_M9_T17  2.1
    X_P6_T17  CAP_M10_T17  2.4
    X_P6_T17  CAP_M11_T17  1.1
    X_P7_T17  COST      22.7
    X_P7_T17  BAL_P7_T17  1
    X_P7_T17  CAP_M0_T17  1.1
    X_P7_T17  CAP_M1_T17  2.2
    X_P7_T17  CAP_M2_T17  2.5
    X_P7_T17  CAP_M3_T17  2.9
    X_P7_T17  CAP_M4_T17  1
    X_P7_T17  CAP_M5_T17  2.9
    X_P7_T17  CAP_M6_T17  2.4
    X_P7_T17  CAP_M7_T17  1.6
    X_P7_T17  CAP_M8_T17  1.4
    X_P7_T17  CAP_M9_T17  0.6
    X_P7_T17  CAP_M10_T17  1.6
    X_P7_T17  CAP_M11_T17  1.7
    X_P8_T17  COST      19.8
    X_P8_T17  BAL_P8_T17  1
    X_P8_T17  CAP_M0_T17  1.8
    X_P8_T17  CAP_M1_T17  0.7
    X_P8_T17  CAP_M2_T17  2.7
    X_P8_T17  CAP_M3_T17  2.3
    X_P8_T17  CAP_M4_T17  1.6
    X_P8_T17  CAP_M5_T17  1.3
    X_P8_T17  CAP_M6_T17  2.9
    X_P8_T17  CAP_M7_T17  1.1
    X_P8_T17  CAP_M8_T17  1.5
    X_P8_T17  CAP_M9_T17  2.1
    X_P8_T17  CAP_M10_T17  1.6
    X_P8_T17  CAP_M11_T17  0.7
    X_P9_T17  COST      20.6
    X_P9_T17  BAL_P9_T17  1
    X_P9_T17  CAP_M0_T17  1.3
    X_P9_T17  CAP_M1_T17  2.8
    X_P9_T17  CAP_M2_T17  1.3
    X_P9_T17  CAP_M3_T17  0.6
    X_P9_T17  CAP_M4_T17  1.7
    X_P9_T17  CAP_M5_T17  2.5
    X_P9_T17  CAP_M6_T17  1
    X_P9_T17  CAP_M7_T17  2.5
    X_P9_T17  CAP_M8_T17  2.7
    X_P9_T17  CAP_M9_T17  1.1
    X_P9_T17  CAP_M10_T17  1.8
    X_P9_T17  CAP_M11_T17  2.8
    X_P10_T17  COST      10.6
    X_P10_T17  BAL_P10_T17  1
    X_P10_T17  CAP_M0_T17  0.8
    X_P10_T17  CAP_M1_T17  0.8
    X_P10_T17  CAP_M2_T17  1.3
    X_P10_T17  CAP_M3_T17  0.8
    X_P10_T17  CAP_M4_T17  0.7
    X_P10_T17  CAP_M5_T17  1.7
    X_P10_T17  CAP_M6_T17  1.4
    X_P10_T17  CAP_M7_T17  1.3
    X_P10_T17  CAP_M8_T17  2.9
    X_P10_T17  CAP_M9_T17  1.6
    X_P10_T17  CAP_M10_T17  2.9
    X_P10_T17  CAP_M11_T17  0.7
    X_P11_T17  COST      26.5
    X_P11_T17  BAL_P11_T17  1
    X_P11_T17  CAP_M0_T17  2.4
    X_P11_T17  CAP_M1_T17  1.8
    X_P11_T17  CAP_M2_T17  1.8
    X_P11_T17  CAP_M3_T17  1.5
    X_P11_T17  CAP_M4_T17  2.8
    X_P11_T17  CAP_M5_T17  1.4
    X_P11_T17  CAP_M6_T17  0.7
    X_P11_T17  CAP_M7_T17  0.7
    X_P11_T17  CAP_M8_T17  2
    X_P11_T17  CAP_M9_T17  1.5
    X_P11_T17  CAP_M10_T17  1.7
    X_P11_T17  CAP_M11_T17  2.8
    X_P12_T17  COST      12.9
    X_P12_T17  BAL_P12_T17  1
    X_P12_T17  CAP_M0_T17  2.4
    X_P12_T17  CAP_M1_T17  2.3
    X_P12_T17  CAP_M2_T17  1.7
    X_P12_T17  CAP_M3_T17  2
    X_P12_T17  CAP_M4_T17  1.9
    X_P12_T17  CAP_M5_T17  1.2
    X_P12_T17  CAP_M6_T17  1.7
    X_P12_T17  CAP_M7_T17  1.4
    X_P12_T17  CAP_M8_T17  2
    X_P12_T17  CAP_M9_T17  1.6
    X_P12_T17  CAP_M10_T17  1.3
    X_P12_T17  CAP_M11_T17  2.7
    X_P13_T17  COST      38
    X_P13_T17  BAL_P13_T17  1
    X_P13_T17  CAP_M0_T17  2.2
    X_P13_T17  CAP_M1_T17  0.8
    X_P13_T17  CAP_M2_T17  2.7
    X_P13_T17  CAP_M3_T17  2.1
    X_P13_T17  CAP_M4_T17  1.8
    X_P13_T17  CAP_M5_T17  1.2
    X_P13_T17  CAP_M6_T17  1
    X_P13_T17  CAP_M7_T17  1.2
    X_P13_T17  CAP_M8_T17  1.8
    X_P13_T17  CAP_M9_T17  1
    X_P13_T17  CAP_M10_T17  1.3
    X_P13_T17  CAP_M11_T17  1.2
    X_P14_T17  COST      32.3
    X_P14_T17  BAL_P14_T17  1
    X_P14_T17  CAP_M0_T17  1.1
    X_P14_T17  CAP_M1_T17  1.8
    X_P14_T17  CAP_M2_T17  1.9
    X_P14_T17  CAP_M3_T17  1.4
    X_P14_T17  CAP_M4_T17  1.5
    X_P14_T17  CAP_M5_T17  1.9
    X_P14_T17  CAP_M6_T17  2.7
    X_P14_T17  CAP_M7_T17  0.8
    X_P14_T17  CAP_M8_T17  1.7
    X_P14_T17  CAP_M9_T17  2.2
    X_P14_T17  CAP_M10_T17  2.7
    X_P14_T17  CAP_M11_T17  1.2
    X_P15_T17  COST      27.4
    X_P15_T17  BAL_P15_T17  1
    X_P15_T17  CAP_M0_T17  0.8
    X_P15_T17  CAP_M1_T17  0.8
    X_P15_T17  CAP_M2_T17  2.4
    X_P15_T17  CAP_M3_T17  2.3
    X_P15_T17  CAP_M4_T17  1.8
    X_P15_T17  CAP_M5_T17  0.8
    X_P15_T17  CAP_M6_T17  0.8
    X_P15_T17  CAP_M7_T17  1.4
    X_P15_T17  CAP_M8_T17  1.3
    X_P15_T17  CAP_M9_T17  1.8
    X_P15_T17  CAP_M10_T17  2.1
    X_P15_T17  CAP_M11_T17  1.5
    X_P16_T17  COST      40.7
    X_P16_T17  BAL_P16_T17  1
    X_P16_T17  CAP_M0_T17  1.1
    X_P16_T17  CAP_M1_T17  0.5
    X_P16_T17  CAP_M2_T17  1.2
    X_P16_T17  CAP_M3_T17  2.8
    X_P16_T17  CAP_M4_T17  1.1
    X_P16_T17  CAP_M5_T17  1
    X_P16_T17  CAP_M6_T17  1.8
    X_P16_T17  CAP_M7_T17  1.8
    X_P16_T17  CAP_M8_T17  2.5
    X_P16_T17  CAP_M9_T17  1.6
    X_P16_T17  CAP_M10_T17  2.7
    X_P16_T17  CAP_M11_T17  1.3
    X_P17_T17  COST      48.5
    X_P17_T17  BAL_P17_T17  1
    X_P17_T17  CAP_M0_T17  1.8
    X_P17_T17  CAP_M1_T17  2.2
    X_P17_T17  CAP_M2_T17  2.7
    X_P17_T17  CAP_M3_T17  2.2
    X_P17_T17  CAP_M4_T17  1.2
    X_P17_T17  CAP_M5_T17  1.3
    X_P17_T17  CAP_M6_T17  0.7
    X_P17_T17  CAP_M7_T17  1.3
    X_P17_T17  CAP_M8_T17  2.8
    X_P17_T17  CAP_M9_T17  1.4
    X_P17_T17  CAP_M10_T17  2.7
    X_P17_T17  CAP_M11_T17  2.2
    X_P18_T17  COST      29.4
    X_P18_T17  BAL_P18_T17  1
    X_P18_T17  CAP_M0_T17  1.3
    X_P18_T17  CAP_M1_T17  2.9
    X_P18_T17  CAP_M2_T17  1.7
    X_P18_T17  CAP_M3_T17  0.5
    X_P18_T17  CAP_M4_T17  2.4
    X_P18_T17  CAP_M5_T17  2.9
    X_P18_T17  CAP_M6_T17  2.1
    X_P18_T17  CAP_M7_T17  2.7
    X_P18_T17  CAP_M8_T17  1.4
    X_P18_T17  CAP_M9_T17  0.5
    X_P18_T17  CAP_M10_T17  2.1
    X_P18_T17  CAP_M11_T17  1.1
    X_P19_T17  COST      49.7
    X_P19_T17  BAL_P19_T17  1
    X_P19_T17  CAP_M0_T17  2.2
    X_P19_T17  CAP_M1_T17  2.8
    X_P19_T17  CAP_M2_T17  1.6
    X_P19_T17  CAP_M3_T17  2.6
    X_P19_T17  CAP_M4_T17  1.7
    X_P19_T17  CAP_M5_T17  1.3
    X_P19_T17  CAP_M6_T17  1
    X_P19_T17  CAP_M7_T17  1.5
    X_P19_T17  CAP_M8_T17  0.6
    X_P19_T17  CAP_M9_T17  2.8
    X_P19_T17  CAP_M10_T17  0.8
    X_P19_T17  CAP_M11_T17  0.8
    X_P20_T17  COST      47.9
    X_P20_T17  BAL_P20_T17  1
    X_P20_T17  CAP_M0_T17  1.2
    X_P20_T17  CAP_M1_T17  2
    X_P20_T17  CAP_M2_T17  1.4
    X_P20_T17  CAP_M3_T17  2.3
    X_P20_T17  CAP_M4_T17  1.5
    X_P20_T17  CAP_M5_T17  1.6
    X_P20_T17  CAP_M6_T17  2.6
    X_P20_T17  CAP_M7_T17  2.1
    X_P20_T17  CAP_M8_T17  1.2
    X_P20_T17  CAP_M9_T17  1
    X_P20_T17  CAP_M10_T17  2.3
    X_P20_T17  CAP_M11_T17  1.8
    X_P21_T17  COST      33.4
    X_P21_T17  BAL_P21_T17  1
    X_P21_T17  CAP_M0_T17  2.4
    X_P21_T17  CAP_M1_T17  1.9
    X_P21_T17  CAP_M2_T17  2.9
    X_P21_T17  CAP_M3_T17  2.7
    X_P21_T17  CAP_M4_T17  2.7
    X_P21_T17  CAP_M5_T17  1.7
    X_P21_T17  CAP_M6_T17  2.8
    X_P21_T17  CAP_M7_T17  2.5
    X_P21_T17  CAP_M8_T17  3
    X_P21_T17  CAP_M9_T17  2.7
    X_P21_T17  CAP_M10_T17  2.4
    X_P21_T17  CAP_M11_T17  2.4
    X_P22_T17  COST      25.4
    X_P22_T17  BAL_P22_T17  1
    X_P22_T17  CAP_M0_T17  0.6
    X_P22_T17  CAP_M1_T17  2.9
    X_P22_T17  CAP_M2_T17  2.1
    X_P22_T17  CAP_M3_T17  2.1
    X_P22_T17  CAP_M4_T17  2
    X_P22_T17  CAP_M5_T17  2.4
    X_P22_T17  CAP_M6_T17  2.2
    X_P22_T17  CAP_M7_T17  0.7
    X_P22_T17  CAP_M8_T17  0.5
    X_P22_T17  CAP_M9_T17  1.8
    X_P22_T17  CAP_M10_T17  1.1
    X_P22_T17  CAP_M11_T17  2.6
    X_P23_T17  COST      21.7
    X_P23_T17  BAL_P23_T17  1
    X_P23_T17  CAP_M0_T17  2.9
    X_P23_T17  CAP_M1_T17  1.2
    X_P23_T17  CAP_M2_T17  1.8
    X_P23_T17  CAP_M3_T17  1.8
    X_P23_T17  CAP_M4_T17  1.5
    X_P23_T17  CAP_M5_T17  0.5
    X_P23_T17  CAP_M6_T17  2.8
    X_P23_T17  CAP_M7_T17  1.9
    X_P23_T17  CAP_M8_T17  2.2
    X_P23_T17  CAP_M9_T17  2.9
    X_P23_T17  CAP_M10_T17  2.1
    X_P23_T17  CAP_M11_T17  2.2
    X_P24_T17  COST      19
    X_P24_T17  BAL_P24_T17  1
    X_P24_T17  CAP_M0_T17  1.1
    X_P24_T17  CAP_M1_T17  2.5
    X_P24_T17  CAP_M2_T17  1.3
    X_P24_T17  CAP_M3_T17  2.8
    X_P24_T17  CAP_M4_T17  1.1
    X_P24_T17  CAP_M5_T17  2
    X_P24_T17  CAP_M6_T17  1.4
    X_P24_T17  CAP_M7_T17  0.5
    X_P24_T17  CAP_M8_T17  1.2
    X_P24_T17  CAP_M9_T17  2.4
    X_P24_T17  CAP_M10_T17  0.6
    X_P24_T17  CAP_M11_T17  1.9
    S_P0_T17  COST      3.3
    S_P0_T17  BAL_P0_T17  -1
    S_P0_T17  STORAGE_T17  1
    S_P0_T17  BAL_P0_T18  1
    S_P1_T17  COST      4.5
    S_P1_T17  BAL_P1_T17  -1
    S_P1_T17  STORAGE_T17  1
    S_P1_T17  BAL_P1_T18  1
    S_P2_T17  COST      3.8
    S_P2_T17  BAL_P2_T17  -1
    S_P2_T17  STORAGE_T17  1
    S_P2_T17  BAL_P2_T18  1
    S_P3_T17  COST      4.7
    S_P3_T17  BAL_P3_T17  -1
    S_P3_T17  STORAGE_T17  1
    S_P3_T17  BAL_P3_T18  1
    S_P4_T17  COST      3.1
    S_P4_T17  BAL_P4_T17  -1
    S_P4_T17  STORAGE_T17  1
    S_P4_T17  BAL_P4_T18  1
    S_P5_T17  COST      4.2
    S_P5_T17  BAL_P5_T17  -1
    S_P5_T17  STORAGE_T17  1
    S_P5_T17  BAL_P5_T18  1
    S_P6_T17  COST      4.1
    S_P6_T17  BAL_P6_T17  -1
    S_P6_T17  STORAGE_T17  1
    S_P6_T17  BAL_P6_T18  1
    S_P7_T17  COST      4.7
    S_P7_T17  BAL_P7_T17  -1
    S_P7_T17  STORAGE_T17  1
    S_P7_T17  BAL_P7_T18  1
    S_P8_T17  COST      4.6
    S_P8_T17  BAL_P8_T17  -1
    S_P8_T17  STORAGE_T17  1
    S_P8_T17  BAL_P8_T18  1
    S_P9_T17  COST      1.8
    S_P9_T17  BAL_P9_T17  -1
    S_P9_T17  STORAGE_T17  1
    S_P9_T17  BAL_P9_T18  1
    S_P10_T17  COST      3.4
    S_P10_T17  BAL_P10_T17  -1
    S_P10_T17  STORAGE_T17  1
    S_P10_T17  BAL_P10_T18  1
    S_P11_T17  COST      3.8
    S_P11_T17  BAL_P11_T17  -1
    S_P11_T17  STORAGE_T17  1
    S_P11_T17  BAL_P11_T18  1
    S_P12_T17  COST      3.3
    S_P12_T17  BAL_P12_T17  -1
    S_P12_T17  STORAGE_T17  1
    S_P12_T17  BAL_P12_T18  1
    S_P13_T17  COST      4.5
    S_P13_T17  BAL_P13_T17  -1
    S_P13_T17  STORAGE_T17  1
    S_P13_T17  BAL_P13_T18  1
    S_P14_T17  COST      3.2
    S_P14_T17  BAL_P14_T17  -1
    S_P14_T17  STORAGE_T17  1
    S_P14_T17  BAL_P14_T18  1
    S_P15_T17  COST      3.9
    S_P15_T17  BAL_P15_T17  -1
    S_P15_T17  STORAGE_T17  1
    S_P15_T17  BAL_P15_T18  1
    S_P16_T17  COST      4.4
    S_P16_T17  BAL_P16_T17  -1
    S_P16_T17  STORAGE_T17  1
    S_P16_T17  BAL_P16_T18  1
    S_P17_T17  COST      4.7
    S_P17_T17  BAL_P17_T17  -1
    S_P17_T17  STORAGE_T17  1
    S_P17_T17  BAL_P17_T18  1
    S_P18_T17  COST      4.4
    S_P18_T17  BAL_P18_T17  -1
    S_P18_T17  STORAGE_T17  1
    S_P18_T17  BAL_P18_T18  1
    S_P19_T17  COST      1.9
    S_P19_T17  BAL_P19_T17  -1
    S_P19_T17  STORAGE_T17  1
    S_P19_T17  BAL_P19_T18  1
    S_P20_T17  COST      2.8
    S_P20_T17  BAL_P20_T17  -1
    S_P20_T17  STORAGE_T17  1
    S_P20_T17  BAL_P20_T18  1
    S_P21_T17  COST      4.6
    S_P21_T17  BAL_P21_T17  -1
    S_P21_T17  STORAGE_T17  1
    S_P21_T17  BAL_P21_T18  1
    S_P22_T17  COST      5
    S_P22_T17  BAL_P22_T17  -1
    S_P22_T17  STORAGE_T17  1
    S_P22_T17  BAL_P22_T18  1
    S_P23_T17  COST      2.5
    S_P23_T17  BAL_P23_T17  -1
    S_P23_T17  STORAGE_T17  1
    S_P23_T17  BAL_P23_T18  1
    S_P24_T17  COST      2.7
    S_P24_T17  BAL_P24_T17  -1
    S_P24_T17  STORAGE_T17  1
    S_P24_T17  BAL_P24_T18  1
    X_P0_T18  COST      14.7
    X_P0_T18  BAL_P0_T18  1
    X_P0_T18  CAP_M0_T18  1.4
    X_P0_T18  CAP_M1_T18  2.4
    X_P0_T18  CAP_M2_T18  0.5
    X_P0_T18  CAP_M3_T18  1
    X_P0_T18  CAP_M4_T18  1.3
    X_P0_T18  CAP_M5_T18  0.8
    X_P0_T18  CAP_M6_T18  1
    X_P0_T18  CAP_M7_T18  1.7
    X_P0_T18  CAP_M8_T18  0.7
    X_P0_T18  CAP_M9_T18  1.5
    X_P0_T18  CAP_M10_T18  2.4
    X_P0_T18  CAP_M11_T18  0.9
    X_P1_T18  COST      39.4
    X_P1_T18  BAL_P1_T18  1
    X_P1_T18  CAP_M0_T18  1
    X_P1_T18  CAP_M1_T18  2.2
    X_P1_T18  CAP_M2_T18  1
    X_P1_T18  CAP_M3_T18  2.4
    X_P1_T18  CAP_M4_T18  3
    X_P1_T18  CAP_M5_T18  2.2
    X_P1_T18  CAP_M6_T18  2.7
    X_P1_T18  CAP_M7_T18  1.4
    X_P1_T18  CAP_M8_T18  1.9
    X_P1_T18  CAP_M9_T18  0.9
    X_P1_T18  CAP_M10_T18  2.9
    X_P1_T18  CAP_M11_T18  2.2
    X_P2_T18  COST      41.5
    X_P2_T18  BAL_P2_T18  1
    X_P2_T18  CAP_M0_T18  2.6
    X_P2_T18  CAP_M1_T18  1.4
    X_P2_T18  CAP_M2_T18  0.8
    X_P2_T18  CAP_M3_T18  2.3
    X_P2_T18  CAP_M4_T18  2.5
    X_P2_T18  CAP_M5_T18  1
    X_P2_T18  CAP_M6_T18  1.2
    X_P2_T18  CAP_M7_T18  1
    X_P2_T18  CAP_M8_T18  1.1
    X_P2_T18  CAP_M9_T18  1.9
    X_P2_T18  CAP_M10_T18  3
    X_P2_T18  CAP_M11_T18  0.8
    X_P3_T18  COST      38.6
    X_P3_T18  BAL_P3_T18  1
    X_P3_T18  CAP_M0_T18  1.8
    X_P3_T18  CAP_M1_T18  2.8
    X_P3_T18  CAP_M2_T18  2.1
    X_P3_T18  CAP_M3_T18  1.6
    X_P3_T18  CAP_M4_T18  1.1
    X_P3_T18  CAP_M5_T18  0.7
    X_P3_T18  CAP_M6_T18  2
    X_P3_T18  CAP_M7_T18  2.7
    X_P3_T18  CAP_M8_T18  1.9
    X_P3_T18  CAP_M9_T18  2.6
    X_P3_T18  CAP_M10_T18  2.1
    X_P3_T18  CAP_M11_T18  2.3
    X_P4_T18  COST      23.5
    X_P4_T18  BAL_P4_T18  1
    X_P4_T18  CAP_M0_T18  1.9
    X_P4_T18  CAP_M1_T18  2
    X_P4_T18  CAP_M2_T18  2.5
    X_P4_T18  CAP_M3_T18  2.7
    X_P4_T18  CAP_M4_T18  2.1
    X_P4_T18  CAP_M5_T18  1.2
    X_P4_T18  CAP_M6_T18  1.6
    X_P4_T18  CAP_M7_T18  1.6
    X_P4_T18  CAP_M8_T18  2.1
    X_P4_T18  CAP_M9_T18  1.7
    X_P4_T18  CAP_M10_T18  0.8
    X_P4_T18  CAP_M11_T18  1.6
    X_P5_T18  COST      36.3
    X_P5_T18  BAL_P5_T18  1
    X_P5_T18  CAP_M0_T18  2.1
    X_P5_T18  CAP_M1_T18  0.7
    X_P5_T18  CAP_M2_T18  2.9
    X_P5_T18  CAP_M3_T18  1.3
    X_P5_T18  CAP_M4_T18  2.6
    X_P5_T18  CAP_M5_T18  1.9
    X_P5_T18  CAP_M6_T18  2.4
    X_P5_T18  CAP_M7_T18  1.8
    X_P5_T18  CAP_M8_T18  1.4
    X_P5_T18  CAP_M9_T18  0.7
    X_P5_T18  CAP_M10_T18  0.6
    X_P5_T18  CAP_M11_T18  2.9
    X_P6_T18  COST      25.6
    X_P6_T18  BAL_P6_T18  1
    X_P6_T18  CAP_M0_T18  1.3
    X_P6_T18  CAP_M1_T18  1.8
    X_P6_T18  CAP_M2_T18  2.5
    X_P6_T18  CAP_M3_T18  2.2
    X_P6_T18  CAP_M4_T18  0.7
    X_P6_T18  CAP_M5_T18  1.5
    X_P6_T18  CAP_M6_T18  0.6
    X_P6_T18  CAP_M7_T18  1.9
    X_P6_T18  CAP_M8_T18  1.3
    X_P6_T18  CAP_M9_T18  2.1
    X_P6_T18  CAP_M10_T18  2.4
    X_P6_T18  CAP_M11_T18  1.1
    X_P7_T18  COST      39.8
    X_P7_T18  BAL_P7_T18  1
    X_P7_T18  CAP_M0_T18  1.1
    X_P7_T18  CAP_M1_T18  2.2
    X_P7_T18  CAP_M2_T18  2.5
    X_P7_T18  CAP_M3_T18  2.9
    X_P7_T18  CAP_M4_T18  1
    X_P7_T18  CAP_M5_T18  2.9
    X_P7_T18  CAP_M6_T18  2.4
    X_P7_T18  CAP_M7_T18  1.6
    X_P7_T18  CAP_M8_T18  1.4
    X_P7_T18  CAP_M9_T18  0.6
    X_P7_T18  CAP_M10_T18  1.6
    X_P7_T18  CAP_M11_T18  1.7
    X_P8_T18  COST      26.5
    X_P8_T18  BAL_P8_T18  1
    X_P8_T18  CAP_M0_T18  1.8
    X_P8_T18  CAP_M1_T18  0.7
    X_P8_T18  CAP_M2_T18  2.7
    X_P8_T18  CAP_M3_T18  2.3
    X_P8_T18  CAP_M4_T18  1.6
    X_P8_T18  CAP_M5_T18  1.3
    X_P8_T18  CAP_M6_T18  2.9
    X_P8_T18  CAP_M7_T18  1.1
    X_P8_T18  CAP_M8_T18  1.5
    X_P8_T18  CAP_M9_T18  2.1
    X_P8_T18  CAP_M10_T18  1.6
    X_P8_T18  CAP_M11_T18  0.7
    X_P9_T18  COST      37
    X_P9_T18  BAL_P9_T18  1
    X_P9_T18  CAP_M0_T18  1.3
    X_P9_T18  CAP_M1_T18  2.8
    X_P9_T18  CAP_M2_T18  1.3
    X_P9_T18  CAP_M3_T18  0.6
    X_P9_T18  CAP_M4_T18  1.7
    X_P9_T18  CAP_M5_T18  2.5
    X_P9_T18  CAP_M6_T18  1
    X_P9_T18  CAP_M7_T18  2.5
    X_P9_T18  CAP_M8_T18  2.7
    X_P9_T18  CAP_M9_T18  1.1
    X_P9_T18  CAP_M10_T18  1.8
    X_P9_T18  CAP_M11_T18  2.8
    X_P10_T18  COST      12.8
    X_P10_T18  BAL_P10_T18  1
    X_P10_T18  CAP_M0_T18  0.8
    X_P10_T18  CAP_M1_T18  0.8
    X_P10_T18  CAP_M2_T18  1.3
    X_P10_T18  CAP_M3_T18  0.8
    X_P10_T18  CAP_M4_T18  0.7
    X_P10_T18  CAP_M5_T18  1.7
    X_P10_T18  CAP_M6_T18  1.4
    X_P10_T18  CAP_M7_T18  1.3
    X_P10_T18  CAP_M8_T18  2.9
    X_P10_T18  CAP_M9_T18  1.6
    X_P10_T18  CAP_M10_T18  2.9
    X_P10_T18  CAP_M11_T18  0.7
    X_P11_T18  COST      49.8
    X_P11_T18  BAL_P11_T18  1
    X_P11_T18  CAP_M0_T18  2.4
    X_P11_T18  CAP_M1_T18  1.8
    X_P11_T18  CAP_M2_T18  1.8
    X_P11_T18  CAP_M3_T18  1.5
    X_P11_T18  CAP_M4_T18  2.8
    X_P11_T18  CAP_M5_T18  1.4
    X_P11_T18  CAP_M6_T18  0.7
    X_P11_T18  CAP_M7_T18  0.7
    X_P11_T18  CAP_M8_T18  2
    X_P11_T18  CAP_M9_T18  1.5
    X_P11_T18  CAP_M10_T18  1.7
    X_P11_T18  CAP_M11_T18  2.8
    X_P12_T18  COST      25.4
    X_P12_T18  BAL_P12_T18  1
    X_P12_T18  CAP_M0_T18  2.4
    X_P12_T18  CAP_M1_T18  2.3
    X_P12_T18  CAP_M2_T18  1.7
    X_P12_T18  CAP_M3_T18  2
    X_P12_T18  CAP_M4_T18  1.9
    X_P12_T18  CAP_M5_T18  1.2
    X_P12_T18  CAP_M6_T18  1.7
    X_P12_T18  CAP_M7_T18  1.4
    X_P12_T18  CAP_M8_T18  2
    X_P12_T18  CAP_M9_T18  1.6
    X_P12_T18  CAP_M10_T18  1.3
    X_P12_T18  CAP_M11_T18  2.7
    X_P13_T18  COST      26.4
    X_P13_T18  BAL_P13_T18  1
    X_P13_T18  CAP_M0_T18  2.2
    X_P13_T18  CAP_M1_T18  0.8
    X_P13_T18  CAP_M2_T18  2.7
    X_P13_T18  CAP_M3_T18  2.1
    X_P13_T18  CAP_M4_T18  1.8
    X_P13_T18  CAP_M5_T18  1.2
    X_P13_T18  CAP_M6_T18  1
    X_P13_T18  CAP_M7_T18  1.2
    X_P13_T18  CAP_M8_T18  1.8
    X_P13_T18  CAP_M9_T18  1
    X_P13_T18  CAP_M10_T18  1.3
    X_P13_T18  CAP_M11_T18  1.2
    X_P14_T18  COST      38.7
    X_P14_T18  BAL_P14_T18  1
    X_P14_T18  CAP_M0_T18  1.1
    X_P14_T18  CAP_M1_T18  1.8
    X_P14_T18  CAP_M2_T18  1.9
    X_P14_T18  CAP_M3_T18  1.4
    X_P14_T18  CAP_M4_T18  1.5
    X_P14_T18  CAP_M5_T18  1.9
    X_P14_T18  CAP_M6_T18  2.7
    X_P14_T18  CAP_M7_T18  0.8
    X_P14_T18  CAP_M8_T18  1.7
    X_P14_T18  CAP_M9_T18  2.2
    X_P14_T18  CAP_M10_T18  2.7
    X_P14_T18  CAP_M11_T18  1.2
    X_P15_T18  COST      20.6
    X_P15_T18  BAL_P15_T18  1
    X_P15_T18  CAP_M0_T18  0.8
    X_P15_T18  CAP_M1_T18  0.8
    X_P15_T18  CAP_M2_T18  2.4
    X_P15_T18  CAP_M3_T18  2.3
    X_P15_T18  CAP_M4_T18  1.8
    X_P15_T18  CAP_M5_T18  0.8
    X_P15_T18  CAP_M6_T18  0.8
    X_P15_T18  CAP_M7_T18  1.4
    X_P15_T18  CAP_M8_T18  1.3
    X_P15_T18  CAP_M9_T18  1.8
    X_P15_T18  CAP_M10_T18  2.1
    X_P15_T18  CAP_M11_T18  1.5
    X_P16_T18  COST      11.8
    X_P16_T18  BAL_P16_T18  1
    X_P16_T18  CAP_M0_T18  1.1
    X_P16_T18  CAP_M1_T18  0.5
    X_P16_T18  CAP_M2_T18  1.2
    X_P16_T18  CAP_M3_T18  2.8
    X_P16_T18  CAP_M4_T18  1.1
    X_P16_T18  CAP_M5_T18  1
    X_P16_T18  CAP_M6_T18  1.8
    X_P16_T18  CAP_M7_T18  1.8
    X_P16_T18  CAP_M8_T18  2.5
    X_P16_T18  CAP_M9_T18  1.6
    X_P16_T18  CAP_M10_T18  2.7
    X_P16_T18  CAP_M11_T18  1.3
    X_P17_T18  COST      20.8
    X_P17_T18  BAL_P17_T18  1
    X_P17_T18  CAP_M0_T18  1.8
    X_P17_T18  CAP_M1_T18  2.2
    X_P17_T18  CAP_M2_T18  2.7
    X_P17_T18  CAP_M3_T18  2.2
    X_P17_T18  CAP_M4_T18  1.2
    X_P17_T18  CAP_M5_T18  1.3
    X_P17_T18  CAP_M6_T18  0.7
    X_P17_T18  CAP_M7_T18  1.3
    X_P17_T18  CAP_M8_T18  2.8
    X_P17_T18  CAP_M9_T18  1.4
    X_P17_T18  CAP_M10_T18  2.7
    X_P17_T18  CAP_M11_T18  2.2
    X_P18_T18  COST      29.9
    X_P18_T18  BAL_P18_T18  1
    X_P18_T18  CAP_M0_T18  1.3
    X_P18_T18  CAP_M1_T18  2.9
    X_P18_T18  CAP_M2_T18  1.7
    X_P18_T18  CAP_M3_T18  0.5
    X_P18_T18  CAP_M4_T18  2.4
    X_P18_T18  CAP_M5_T18  2.9
    X_P18_T18  CAP_M6_T18  2.1
    X_P18_T18  CAP_M7_T18  2.7
    X_P18_T18  CAP_M8_T18  1.4
    X_P18_T18  CAP_M9_T18  0.5
    X_P18_T18  CAP_M10_T18  2.1
    X_P18_T18  CAP_M11_T18  1.1
    X_P19_T18  COST      41.8
    X_P19_T18  BAL_P19_T18  1
    X_P19_T18  CAP_M0_T18  2.2
    X_P19_T18  CAP_M1_T18  2.8
    X_P19_T18  CAP_M2_T18  1.6
    X_P19_T18  CAP_M3_T18  2.6
    X_P19_T18  CAP_M4_T18  1.7
    X_P19_T18  CAP_M5_T18  1.3
    X_P19_T18  CAP_M6_T18  1
    X_P19_T18  CAP_M7_T18  1.5
    X_P19_T18  CAP_M8_T18  0.6
    X_P19_T18  CAP_M9_T18  2.8
    X_P19_T18  CAP_M10_T18  0.8
    X_P19_T18  CAP_M11_T18  0.8
    X_P20_T18  COST      17.7
    X_P20_T18  BAL_P20_T18  1
    X_P20_T18  CAP_M0_T18  1.2
    X_P20_T18  CAP_M1_T18  2
    X_P20_T18  CAP_M2_T18  1.4
    X_P20_T18  CAP_M3_T18  2.3
    X_P20_T18  CAP_M4_T18  1.5
    X_P20_T18  CAP_M5_T18  1.6
    X_P20_T18  CAP_M6_T18  2.6
    X_P20_T18  CAP_M7_T18  2.1
    X_P20_T18  CAP_M8_T18  1.2
    X_P20_T18  CAP_M9_T18  1
    X_P20_T18  CAP_M10_T18  2.3
    X_P20_T18  CAP_M11_T18  1.8
    X_P21_T18  COST      42.8
    X_P21_T18  BAL_P21_T18  1
    X_P21_T18  CAP_M0_T18  2.4
    X_P21_T18  CAP_M1_T18  1.9
    X_P21_T18  CAP_M2_T18  2.9
    X_P21_T18  CAP_M3_T18  2.7
    X_P21_T18  CAP_M4_T18  2.7
    X_P21_T18  CAP_M5_T18  1.7
    X_P21_T18  CAP_M6_T18  2.8
    X_P21_T18  CAP_M7_T18  2.5
    X_P21_T18  CAP_M8_T18  3
    X_P21_T18  CAP_M9_T18  2.7
    X_P21_T18  CAP_M10_T18  2.4
    X_P21_T18  CAP_M11_T18  2.4
    X_P22_T18  COST      22.8
    X_P22_T18  BAL_P22_T18  1
    X_P22_T18  CAP_M0_T18  0.6
    X_P22_T18  CAP_M1_T18  2.9
    X_P22_T18  CAP_M2_T18  2.1
    X_P22_T18  CAP_M3_T18  2.1
    X_P22_T18  CAP_M4_T18  2
    X_P22_T18  CAP_M5_T18  2.4
    X_P22_T18  CAP_M6_T18  2.2
    X_P22_T18  CAP_M7_T18  0.7
    X_P22_T18  CAP_M8_T18  0.5
    X_P22_T18  CAP_M9_T18  1.8
    X_P22_T18  CAP_M10_T18  1.1
    X_P22_T18  CAP_M11_T18  2.6
    X_P23_T18  COST      12.9
    X_P23_T18  BAL_P23_T18  1
    X_P23_T18  CAP_M0_T18  2.9
    X_P23_T18  CAP_M1_T18  1.2
    X_P23_T18  CAP_M2_T18  1.8
    X_P23_T18  CAP_M3_T18  1.8
    X_P23_T18  CAP_M4_T18  1.5
    X_P23_T18  CAP_M5_T18  0.5
    X_P23_T18  CAP_M6_T18  2.8
    X_P23_T18  CAP_M7_T18  1.9
    X_P23_T18  CAP_M8_T18  2.2
    X_P23_T18  CAP_M9_T18  2.9
    X_P23_T18  CAP_M10_T18  2.1
    X_P23_T18  CAP_M11_T18  2.2
    X_P24_T18  COST      22.1
    X_P24_T18  BAL_P24_T18  1
    X_P24_T18  CAP_M0_T18  1.1
    X_P24_T18  CAP_M1_T18  2.5
    X_P24_T18  CAP_M2_T18  1.3
    X_P24_T18  CAP_M3_T18  2.8
    X_P24_T18  CAP_M4_T18  1.1
    X_P24_T18  CAP_M5_T18  2
    X_P24_T18  CAP_M6_T18  1.4
    X_P24_T18  CAP_M7_T18  0.5
    X_P24_T18  CAP_M8_T18  1.2
    X_P24_T18  CAP_M9_T18  2.4
    X_P24_T18  CAP_M10_T18  0.6
    X_P24_T18  CAP_M11_T18  1.9
    S_P0_T18  COST      2.5
    S_P0_T18  BAL_P0_T18  -1
    S_P0_T18  STORAGE_T18  1
    S_P0_T18  BAL_P0_T19  1
    S_P1_T18  COST      3.2
    S_P1_T18  BAL_P1_T18  -1
    S_P1_T18  STORAGE_T18  1
    S_P1_T18  BAL_P1_T19  1
    S_P2_T18  COST      4.8
    S_P2_T18  BAL_P2_T18  -1
    S_P2_T18  STORAGE_T18  1
    S_P2_T18  BAL_P2_T19  1
    S_P3_T18  COST      1.5
    S_P3_T18  BAL_P3_T18  -1
    S_P3_T18  STORAGE_T18  1
    S_P3_T18  BAL_P3_T19  1
    S_P4_T18  COST      2.6
    S_P4_T18  BAL_P4_T18  -1
    S_P4_T18  STORAGE_T18  1
    S_P4_T18  BAL_P4_T19  1
    S_P5_T18  COST      2.8
    S_P5_T18  BAL_P5_T18  -1
    S_P5_T18  STORAGE_T18  1
    S_P5_T18  BAL_P5_T19  1
    S_P6_T18  COST      1.4
    S_P6_T18  BAL_P6_T18  -1
    S_P6_T18  STORAGE_T18  1
    S_P6_T18  BAL_P6_T19  1
    S_P7_T18  COST      2.7
    S_P7_T18  BAL_P7_T18  -1
    S_P7_T18  STORAGE_T18  1
    S_P7_T18  BAL_P7_T19  1
    S_P8_T18  COST      5
    S_P8_T18  BAL_P8_T18  -1
    S_P8_T18  STORAGE_T18  1
    S_P8_T18  BAL_P8_T19  1
    S_P9_T18  COST      1.2
    S_P9_T18  BAL_P9_T18  -1
    S_P9_T18  STORAGE_T18  1
    S_P9_T18  BAL_P9_T19  1
    S_P10_T18  COST      1.6
    S_P10_T18  BAL_P10_T18  -1
    S_P10_T18  STORAGE_T18  1
    S_P10_T18  BAL_P10_T19  1
    S_P11_T18  COST      2.5
    S_P11_T18  BAL_P11_T18  -1
    S_P11_T18  STORAGE_T18  1
    S_P11_T18  BAL_P11_T19  1
    S_P12_T18  COST      3.1
    S_P12_T18  BAL_P12_T18  -1
    S_P12_T18  STORAGE_T18  1
    S_P12_T18  BAL_P12_T19  1
    S_P13_T18  COST      3.3
    S_P13_T18  BAL_P13_T18  -1
    S_P13_T18  STORAGE_T18  1
    S_P13_T18  BAL_P13_T19  1
    S_P14_T18  COST      3.1
    S_P14_T18  BAL_P14_T18  -1
    S_P14_T18  STORAGE_T18  1
    S_P14_T18  BAL_P14_T19  1
    S_P15_T18  COST      4.3
    S_P15_T18  BAL_P15_T18  -1
    S_P15_T18  STORAGE_T18  1
    S_P15_T18  BAL_P15_T19  1
    S_P16_T18  COST      3.1
    S_P16_T18  BAL_P16_T18  -1
    S_P16_T18  STORAGE_T18  1
    S_P16_T18  BAL_P16_T19  1
    S_P17_T18  COST      3.5
    S_P17_T18  BAL_P17_T18  -1
    S_P17_T18  STORAGE_T18  1
    S_P17_T18  BAL_P17_T19  1
    S_P18_T18  COST      1.8
    S_P18_T18  BAL_P18_T18  -1
    S_P18_T18  STORAGE_T18  1
    S_P18_T18  BAL_P18_T19  1
    S_P19_T18  COST      4.7
    S_P19_T18  BAL_P19_T18  -1
    S_P19_T18  STORAGE_T18  1
    S_P19_T18  BAL_P19_T19  1
    S_P20_T18  COST      4.8
    S_P20_T18  BAL_P20_T18  -1
    S_P20_T18  STORAGE_T18  1
    S_P20_T18  BAL_P20_T19  1
    S_P21_T18  COST      2
    S_P21_T18  BAL_P21_T18  -1
    S_P21_T18  STORAGE_T18  1
    S_P21_T18  BAL_P21_T19  1
    S_P22_T18  COST      4.2
    S_P22_T18  BAL_P22_T18  -1
    S_P22_T18  STORAGE_T18  1
    S_P22_T18  BAL_P22_T19  1
    S_P23_T18  COST      4.9
    S_P23_T18  BAL_P23_T18  -1
    S_P23_T18  STORAGE_T18  1
    S_P23_T18  BAL_P23_T19  1
    S_P24_T18  COST      4.5
    S_P24_T18  BAL_P24_T18  -1
    S_P24_T18  STORAGE_T18  1
    S_P24_T18  BAL_P24_T19  1
    X_P0_T19  COST      33.3
    X_P0_T19  BAL_P0_T19  1
    X_P0_T19  CAP_M0_T19  1.4
    X_P0_T19  CAP_M1_T19  2.4
    X_P0_T19  CAP_M2_T19  0.5
    X_P0_T19  CAP_M3_T19  1
    X_P0_T19  CAP_M4_T19  1.3
    X_P0_T19  CAP_M5_T19  0.8
    X_P0_T19  CAP_M6_T19  1
    X_P0_T19  CAP_M7_T19  1.7
    X_P0_T19  CAP_M8_T19  0.7
    X_P0_T19  CAP_M9_T19  1.5
    X_P0_T19  CAP_M10_T19  2.4
    X_P0_T19  CAP_M11_T19  0.9
    X_P1_T19  COST      21.9
    X_P1_T19  BAL_P1_T19  1
    X_P1_T19  CAP_M0_T19  1
    X_P1_T19  CAP_M1_T19  2.2
    X_P1_T19  CAP_M2_T19  1
    X_P1_T19  CAP_M3_T19  2.4
    X_P1_T19  CAP_M4_T19  3
    X_P1_T19  CAP_M5_T19  2.2
    X_P1_T19  CAP_M6_T19  2.7
    X_P1_T19  CAP_M7_T19  1.4
    X_P1_T19  CAP_M8_T19  1.9
    X_P1_T19  CAP_M9_T19  0.9
    X_P1_T19  CAP_M10_T19  2.9
    X_P1_T19  CAP_M11_T19  2.2
    X_P2_T19  COST      33.7
    X_P2_T19  BAL_P2_T19  1
    X_P2_T19  CAP_M0_T19  2.6
    X_P2_T19  CAP_M1_T19  1.4
    X_P2_T19  CAP_M2_T19  0.8
    X_P2_T19  CAP_M3_T19  2.3
    X_P2_T19  CAP_M4_T19  2.5
    X_P2_T19  CAP_M5_T19  1
    X_P2_T19  CAP_M6_T19  1.2
    X_P2_T19  CAP_M7_T19  1
    X_P2_T19  CAP_M8_T19  1.1
    X_P2_T19  CAP_M9_T19  1.9
    X_P2_T19  CAP_M10_T19  3
    X_P2_T19  CAP_M11_T19  0.8
    X_P3_T19  COST      15.4
    X_P3_T19  BAL_P3_T19  1
    X_P3_T19  CAP_M0_T19  1.8
    X_P3_T19  CAP_M1_T19  2.8
    X_P3_T19  CAP_M2_T19  2.1
    X_P3_T19  CAP_M3_T19  1.6
    X_P3_T19  CAP_M4_T19  1.1
    X_P3_T19  CAP_M5_T19  0.7
    X_P3_T19  CAP_M6_T19  2
    X_P3_T19  CAP_M7_T19  2.7
    X_P3_T19  CAP_M8_T19  1.9
    X_P3_T19  CAP_M9_T19  2.6
    X_P3_T19  CAP_M10_T19  2.1
    X_P3_T19  CAP_M11_T19  2.3
    X_P4_T19  COST      11.4
    X_P4_T19  BAL_P4_T19  1
    X_P4_T19  CAP_M0_T19  1.9
    X_P4_T19  CAP_M1_T19  2
    X_P4_T19  CAP_M2_T19  2.5
    X_P4_T19  CAP_M3_T19  2.7
    X_P4_T19  CAP_M4_T19  2.1
    X_P4_T19  CAP_M5_T19  1.2
    X_P4_T19  CAP_M6_T19  1.6
    X_P4_T19  CAP_M7_T19  1.6
    X_P4_T19  CAP_M8_T19  2.1
    X_P4_T19  CAP_M9_T19  1.7
    X_P4_T19  CAP_M10_T19  0.8
    X_P4_T19  CAP_M11_T19  1.6
    X_P5_T19  COST      13.1
    X_P5_T19  BAL_P5_T19  1
    X_P5_T19  CAP_M0_T19  2.1
    X_P5_T19  CAP_M1_T19  0.7
    X_P5_T19  CAP_M2_T19  2.9
    X_P5_T19  CAP_M3_T19  1.3
    X_P5_T19  CAP_M4_T19  2.6
    X_P5_T19  CAP_M5_T19  1.9
    X_P5_T19  CAP_M6_T19  2.4
    X_P5_T19  CAP_M7_T19  1.8
    X_P5_T19  CAP_M8_T19  1.4
    X_P5_T19  CAP_M9_T19  0.7
    X_P5_T19  CAP_M10_T19  0.6
    X_P5_T19  CAP_M11_T19  2.9
    X_P6_T19  COST      39.8
    X_P6_T19  BAL_P6_T19  1
    X_P6_T19  CAP_M0_T19  1.3
    X_P6_T19  CAP_M1_T19  1.8
    X_P6_T19  CAP_M2_T19  2.5
    X_P6_T19  CAP_M3_T19  2.2
    X_P6_T19  CAP_M4_T19  0.7
    X_P6_T19  CAP_M5_T19  1.5
    X_P6_T19  CAP_M6_T19  0.6
    X_P6_T19  CAP_M7_T19  1.9
    X_P6_T19  CAP_M8_T19  1.3
    X_P6_T19  CAP_M9_T19  2.1
    X_P6_T19  CAP_M10_T19  2.4
    X_P6_T19  CAP_M11_T19  1.1
    X_P7_T19  COST      41.8
    X_P7_T19  BAL_P7_T19  1
    X_P7_T19  CAP_M0_T19  1.1
    X_P7_T19  CAP_M1_T19  2.2
    X_P7_T19  CAP_M2_T19  2.5
    X_P7_T19  CAP_M3_T19  2.9
    X_P7_T19  CAP_M4_T19  1
    X_P7_T19  CAP_M5_T19  2.9
    X_P7_T19  CAP_M6_T19  2.4
    X_P7_T19  CAP_M7_T19  1.6
    X_P7_T19  CAP_M8_T19  1.4
    X_P7_T19  CAP_M9_T19  0.6
    X_P7_T19  CAP_M10_T19  1.6
    X_P7_T19  CAP_M11_T19  1.7
    X_P8_T19  COST      25.7
    X_P8_T19  BAL_P8_T19  1
    X_P8_T19  CAP_M0_T19  1.8
    X_P8_T19  CAP_M1_T19  0.7
    X_P8_T19  CAP_M2_T19  2.7
    X_P8_T19  CAP_M3_T19  2.3
    X_P8_T19  CAP_M4_T19  1.6
    X_P8_T19  CAP_M5_T19  1.3
    X_P8_T19  CAP_M6_T19  2.9
    X_P8_T19  CAP_M7_T19  1.1
    X_P8_T19  CAP_M8_T19  1.5
    X_P8_T19  CAP_M9_T19  2.1
    X_P8_T19  CAP_M10_T19  1.6
    X_P8_T19  CAP_M11_T19  0.7
    X_P9_T19  COST      44.5
    X_P9_T19  BAL_P9_T19  1
    X_P9_T19  CAP_M0_T19  1.3
    X_P9_T19  CAP_M1_T19  2.8
    X_P9_T19  CAP_M2_T19  1.3
    X_P9_T19  CAP_M3_T19  0.6
    X_P9_T19  CAP_M4_T19  1.7
    X_P9_T19  CAP_M5_T19  2.5
    X_P9_T19  CAP_M6_T19  1
    X_P9_T19  CAP_M7_T19  2.5
    X_P9_T19  CAP_M8_T19  2.7
    X_P9_T19  CAP_M9_T19  1.1
    X_P9_T19  CAP_M10_T19  1.8
    X_P9_T19  CAP_M11_T19  2.8
    X_P10_T19  COST      32.1
    X_P10_T19  BAL_P10_T19  1
    X_P10_T19  CAP_M0_T19  0.8
    X_P10_T19  CAP_M1_T19  0.8
    X_P10_T19  CAP_M2_T19  1.3
    X_P10_T19  CAP_M3_T19  0.8
    X_P10_T19  CAP_M4_T19  0.7
    X_P10_T19  CAP_M5_T19  1.7
    X_P10_T19  CAP_M6_T19  1.4
    X_P10_T19  CAP_M7_T19  1.3
    X_P10_T19  CAP_M8_T19  2.9
    X_P10_T19  CAP_M9_T19  1.6
    X_P10_T19  CAP_M10_T19  2.9
    X_P10_T19  CAP_M11_T19  0.7
    X_P11_T19  COST      28.3
    X_P11_T19  BAL_P11_T19  1
    X_P11_T19  CAP_M0_T19  2.4
    X_P11_T19  CAP_M1_T19  1.8
    X_P11_T19  CAP_M2_T19  1.8
    X_P11_T19  CAP_M3_T19  1.5
    X_P11_T19  CAP_M4_T19  2.8
    X_P11_T19  CAP_M5_T19  1.4
    X_P11_T19  CAP_M6_T19  0.7
    X_P11_T19  CAP_M7_T19  0.7
    X_P11_T19  CAP_M8_T19  2
    X_P11_T19  CAP_M9_T19  1.5
    X_P11_T19  CAP_M10_T19  1.7
    X_P11_T19  CAP_M11_T19  2.8
    X_P12_T19  COST      10.3
    X_P12_T19  BAL_P12_T19  1
    X_P12_T19  CAP_M0_T19  2.4
    X_P12_T19  CAP_M1_T19  2.3
    X_P12_T19  CAP_M2_T19  1.7
    X_P12_T19  CAP_M3_T19  2
    X_P12_T19  CAP_M4_T19  1.9
    X_P12_T19  CAP_M5_T19  1.2
    X_P12_T19  CAP_M6_T19  1.7
    X_P12_T19  CAP_M7_T19  1.4
    X_P12_T19  CAP_M8_T19  2
    X_P12_T19  CAP_M9_T19  1.6
    X_P12_T19  CAP_M10_T19  1.3
    X_P12_T19  CAP_M11_T19  2.7
    X_P13_T19  COST      18.3
    X_P13_T19  BAL_P13_T19  1
    X_P13_T19  CAP_M0_T19  2.2
    X_P13_T19  CAP_M1_T19  0.8
    X_P13_T19  CAP_M2_T19  2.7
    X_P13_T19  CAP_M3_T19  2.1
    X_P13_T19  CAP_M4_T19  1.8
    X_P13_T19  CAP_M5_T19  1.2
    X_P13_T19  CAP_M6_T19  1
    X_P13_T19  CAP_M7_T19  1.2
    X_P13_T19  CAP_M8_T19  1.8
    X_P13_T19  CAP_M9_T19  1
    X_P13_T19  CAP_M10_T19  1.3
    X_P13_T19  CAP_M11_T19  1.2
    X_P14_T19  COST      44.8
    X_P14_T19  BAL_P14_T19  1
    X_P14_T19  CAP_M0_T19  1.1
    X_P14_T19  CAP_M1_T19  1.8
    X_P14_T19  CAP_M2_T19  1.9
    X_P14_T19  CAP_M3_T19  1.4
    X_P14_T19  CAP_M4_T19  1.5
    X_P14_T19  CAP_M5_T19  1.9
    X_P14_T19  CAP_M6_T19  2.7
    X_P14_T19  CAP_M7_T19  0.8
    X_P14_T19  CAP_M8_T19  1.7
    X_P14_T19  CAP_M9_T19  2.2
    X_P14_T19  CAP_M10_T19  2.7
    X_P14_T19  CAP_M11_T19  1.2
    X_P15_T19  COST      17.4
    X_P15_T19  BAL_P15_T19  1
    X_P15_T19  CAP_M0_T19  0.8
    X_P15_T19  CAP_M1_T19  0.8
    X_P15_T19  CAP_M2_T19  2.4
    X_P15_T19  CAP_M3_T19  2.3
    X_P15_T19  CAP_M4_T19  1.8
    X_P15_T19  CAP_M5_T19  0.8
    X_P15_T19  CAP_M6_T19  0.8
    X_P15_T19  CAP_M7_T19  1.4
    X_P15_T19  CAP_M8_T19  1.3
    X_P15_T19  CAP_M9_T19  1.8
    X_P15_T19  CAP_M10_T19  2.1
    X_P15_T19  CAP_M11_T19  1.5
    X_P16_T19  COST      30.5
    X_P16_T19  BAL_P16_T19  1
    X_P16_T19  CAP_M0_T19  1.1
    X_P16_T19  CAP_M1_T19  0.5
    X_P16_T19  CAP_M2_T19  1.2
    X_P16_T19  CAP_M3_T19  2.8
    X_P16_T19  CAP_M4_T19  1.1
    X_P16_T19  CAP_M5_T19  1
    X_P16_T19  CAP_M6_T19  1.8
    X_P16_T19  CAP_M7_T19  1.8
    X_P16_T19  CAP_M8_T19  2.5
    X_P16_T19  CAP_M9_T19  1.6
    X_P16_T19  CAP_M10_T19  2.7
    X_P16_T19  CAP_M11_T19  1.3
    X_P17_T19  COST      29
    X_P17_T19  BAL_P17_T19  1
    X_P17_T19  CAP_M0_T19  1.8
    X_P17_T19  CAP_M1_T19  2.2
    X_P17_T19  CAP_M2_T19  2.7
    X_P17_T19  CAP_M3_T19  2.2
    X_P17_T19  CAP_M4_T19  1.2
    X_P17_T19  CAP_M5_T19  1.3
    X_P17_T19  CAP_M6_T19  0.7
    X_P17_T19  CAP_M7_T19  1.3
    X_P17_T19  CAP_M8_T19  2.8
    X_P17_T19  CAP_M9_T19  1.4
    X_P17_T19  CAP_M10_T19  2.7
    X_P17_T19  CAP_M11_T19  2.2
    X_P18_T19  COST      14.6
    X_P18_T19  BAL_P18_T19  1
    X_P18_T19  CAP_M0_T19  1.3
    X_P18_T19  CAP_M1_T19  2.9
    X_P18_T19  CAP_M2_T19  1.7
    X_P18_T19  CAP_M3_T19  0.5
    X_P18_T19  CAP_M4_T19  2.4
    X_P18_T19  CAP_M5_T19  2.9
    X_P18_T19  CAP_M6_T19  2.1
    X_P18_T19  CAP_M7_T19  2.7
    X_P18_T19  CAP_M8_T19  1.4
    X_P18_T19  CAP_M9_T19  0.5
    X_P18_T19  CAP_M10_T19  2.1
    X_P18_T19  CAP_M11_T19  1.1
    X_P19_T19  COST      33.7
    X_P19_T19  BAL_P19_T19  1
    X_P19_T19  CAP_M0_T19  2.2
    X_P19_T19  CAP_M1_T19  2.8
    X_P19_T19  CAP_M2_T19  1.6
    X_P19_T19  CAP_M3_T19  2.6
    X_P19_T19  CAP_M4_T19  1.7
    X_P19_T19  CAP_M5_T19  1.3
    X_P19_T19  CAP_M6_T19  1
    X_P19_T19  CAP_M7_T19  1.5
    X_P19_T19  CAP_M8_T19  0.6
    X_P19_T19  CAP_M9_T19  2.8
    X_P19_T19  CAP_M10_T19  0.8
    X_P19_T19  CAP_M11_T19  0.8
    X_P20_T19  COST      21
    X_P20_T19  BAL_P20_T19  1
    X_P20_T19  CAP_M0_T19  1.2
    X_P20_T19  CAP_M1_T19  2
    X_P20_T19  CAP_M2_T19  1.4
    X_P20_T19  CAP_M3_T19  2.3
    X_P20_T19  CAP_M4_T19  1.5
    X_P20_T19  CAP_M5_T19  1.6
    X_P20_T19  CAP_M6_T19  2.6
    X_P20_T19  CAP_M7_T19  2.1
    X_P20_T19  CAP_M8_T19  1.2
    X_P20_T19  CAP_M9_T19  1
    X_P20_T19  CAP_M10_T19  2.3
    X_P20_T19  CAP_M11_T19  1.8
    X_P21_T19  COST      12.5
    X_P21_T19  BAL_P21_T19  1
    X_P21_T19  CAP_M0_T19  2.4
    X_P21_T19  CAP_M1_T19  1.9
    X_P21_T19  CAP_M2_T19  2.9
    X_P21_T19  CAP_M3_T19  2.7
    X_P21_T19  CAP_M4_T19  2.7
    X_P21_T19  CAP_M5_T19  1.7
    X_P21_T19  CAP_M6_T19  2.8
    X_P21_T19  CAP_M7_T19  2.5
    X_P21_T19  CAP_M8_T19  3
    X_P21_T19  CAP_M9_T19  2.7
    X_P21_T19  CAP_M10_T19  2.4
    X_P21_T19  CAP_M11_T19  2.4
    X_P22_T19  COST      28.1
    X_P22_T19  BAL_P22_T19  1
    X_P22_T19  CAP_M0_T19  0.6
    X_P22_T19  CAP_M1_T19  2.9
    X_P22_T19  CAP_M2_T19  2.1
    X_P22_T19  CAP_M3_T19  2.1
    X_P22_T19  CAP_M4_T19  2
    X_P22_T19  CAP_M5_T19  2.4
    X_P22_T19  CAP_M6_T19  2.2
    X_P22_T19  CAP_M7_T19  0.7
    X_P22_T19  CAP_M8_T19  0.5
    X_P22_T19  CAP_M9_T19  1.8
    X_P22_T19  CAP_M10_T19  1.1
    X_P22_T19  CAP_M11_T19  2.6
    X_P23_T19  COST      23
    X_P23_T19  BAL_P23_T19  1
    X_P23_T19  CAP_M0_T19  2.9
    X_P23_T19  CAP_M1_T19  1.2
    X_P23_T19  CAP_M2_T19  1.8
    X_P23_T19  CAP_M3_T19  1.8
    X_P23_T19  CAP_M4_T19  1.5
    X_P23_T19  CAP_M5_T19  0.5
    X_P23_T19  CAP_M6_T19  2.8
    X_P23_T19  CAP_M7_T19  1.9
    X_P23_T19  CAP_M8_T19  2.2
    X_P23_T19  CAP_M9_T19  2.9
    X_P23_T19  CAP_M10_T19  2.1
    X_P23_T19  CAP_M11_T19  2.2
    X_P24_T19  COST      19.9
    X_P24_T19  BAL_P24_T19  1
    X_P24_T19  CAP_M0_T19  1.1
    X_P24_T19  CAP_M1_T19  2.5
    X_P24_T19  CAP_M2_T19  1.3
    X_P24_T19  CAP_M3_T19  2.8
    X_P24_T19  CAP_M4_T19  1.1
    X_P24_T19  CAP_M5_T19  2
    X_P24_T19  CAP_M6_T19  1.4
    X_P24_T19  CAP_M7_T19  0.5
    X_P24_T19  CAP_M8_T19  1.2
    X_P24_T19  CAP_M9_T19  2.4
    X_P24_T19  CAP_M10_T19  0.6
    X_P24_T19  CAP_M11_T19  1.9
    S_P0_T19  COST      2
    S_P0_T19  BAL_P0_T19  -1
    S_P0_T19  STORAGE_T19  1
    S_P0_T19  BAL_P0_T20  1
    S_P1_T19  COST      4.6
    S_P1_T19  BAL_P1_T19  -1
    S_P1_T19  STORAGE_T19  1
    S_P1_T19  BAL_P1_T20  1
    S_P2_T19  COST      1.5
    S_P2_T19  BAL_P2_T19  -1
    S_P2_T19  STORAGE_T19  1
    S_P2_T19  BAL_P2_T20  1
    S_P3_T19  COST      4.7
    S_P3_T19  BAL_P3_T19  -1
    S_P3_T19  STORAGE_T19  1
    S_P3_T19  BAL_P3_T20  1
    S_P4_T19  COST      4.9
    S_P4_T19  BAL_P4_T19  -1
    S_P4_T19  STORAGE_T19  1
    S_P4_T19  BAL_P4_T20  1
    S_P5_T19  COST      4.1
    S_P5_T19  BAL_P5_T19  -1
    S_P5_T19  STORAGE_T19  1
    S_P5_T19  BAL_P5_T20  1
    S_P6_T19  COST      3.1
    S_P6_T19  BAL_P6_T19  -1
    S_P6_T19  STORAGE_T19  1
    S_P6_T19  BAL_P6_T20  1
    S_P7_T19  COST      4.2
    S_P7_T19  BAL_P7_T19  -1
    S_P7_T19  STORAGE_T19  1
    S_P7_T19  BAL_P7_T20  1
    S_P8_T19  COST      3.8
    S_P8_T19  BAL_P8_T19  -1
    S_P8_T19  STORAGE_T19  1
    S_P8_T19  BAL_P8_T20  1
    S_P9_T19  COST      3.7
    S_P9_T19  BAL_P9_T19  -1
    S_P9_T19  STORAGE_T19  1
    S_P9_T19  BAL_P9_T20  1
    S_P10_T19  COST      1
    S_P10_T19  BAL_P10_T19  -1
    S_P10_T19  STORAGE_T19  1
    S_P10_T19  BAL_P10_T20  1
    S_P11_T19  COST      3.1
    S_P11_T19  BAL_P11_T19  -1
    S_P11_T19  STORAGE_T19  1
    S_P11_T19  BAL_P11_T20  1
    S_P12_T19  COST      4
    S_P12_T19  BAL_P12_T19  -1
    S_P12_T19  STORAGE_T19  1
    S_P12_T19  BAL_P12_T20  1
    S_P13_T19  COST      2.3
    S_P13_T19  BAL_P13_T19  -1
    S_P13_T19  STORAGE_T19  1
    S_P13_T19  BAL_P13_T20  1
    S_P14_T19  COST      3.7
    S_P14_T19  BAL_P14_T19  -1
    S_P14_T19  STORAGE_T19  1
    S_P14_T19  BAL_P14_T20  1
    S_P15_T19  COST      4.3
    S_P15_T19  BAL_P15_T19  -1
    S_P15_T19  STORAGE_T19  1
    S_P15_T19  BAL_P15_T20  1
    S_P16_T19  COST      1.4
    S_P16_T19  BAL_P16_T19  -1
    S_P16_T19  STORAGE_T19  1
    S_P16_T19  BAL_P16_T20  1
    S_P17_T19  COST      4.2
    S_P17_T19  BAL_P17_T19  -1
    S_P17_T19  STORAGE_T19  1
    S_P17_T19  BAL_P17_T20  1
    S_P18_T19  COST      3.5
    S_P18_T19  BAL_P18_T19  -1
    S_P18_T19  STORAGE_T19  1
    S_P18_T19  BAL_P18_T20  1
    S_P19_T19  COST      1.6
    S_P19_T19  BAL_P19_T19  -1
    S_P19_T19  STORAGE_T19  1
    S_P19_T19  BAL_P19_T20  1
    S_P20_T19  COST      4.4
    S_P20_T19  BAL_P20_T19  -1
    S_P20_T19  STORAGE_T19  1
    S_P20_T19  BAL_P20_T20  1
    S_P21_T19  COST      2.5
    S_P21_T19  BAL_P21_T19  -1
    S_P21_T19  STORAGE_T19  1
    S_P21_T19  BAL_P21_T20  1
    S_P22_T19  COST      3.4
    S_P22_T19  BAL_P22_T19  -1
    S_P22_T19  STORAGE_T19  1
    S_P22_T19  BAL_P22_T20  1
    S_P23_T19  COST      1.5
    S_P23_T19  BAL_P23_T19  -1
    S_P23_T19  STORAGE_T19  1
    S_P23_T19  BAL_P23_T20  1
    S_P24_T19  COST      3.3
    S_P24_T19  BAL_P24_T19  -1
    S_P24_T19  STORAGE_T19  1
    S_P24_T19  BAL_P24_T20  1
    X_P0_T20  COST      35.8
    X_P0_T20  BAL_P0_T20  1
    X_P0_T20  CAP_M0_T20  1.4
    X_P0_T20  CAP_M1_T20  2.4
    X_P0_T20  CAP_M2_T20  0.5
    X_P0_T20  CAP_M3_T20  1
    X_P0_T20  CAP_M4_T20  1.3
    X_P0_T20  CAP_M5_T20  0.8
    X_P0_T20  CAP_M6_T20  1
    X_P0_T20  CAP_M7_T20  1.7
    X_P0_T20  CAP_M8_T20  0.7
    X_P0_T20  CAP_M9_T20  1.5
    X_P0_T20  CAP_M10_T20  2.4
    X_P0_T20  CAP_M11_T20  0.9
    X_P1_T20  COST      46.3
    X_P1_T20  BAL_P1_T20  1
    X_P1_T20  CAP_M0_T20  1
    X_P1_T20  CAP_M1_T20  2.2
    X_P1_T20  CAP_M2_T20  1
    X_P1_T20  CAP_M3_T20  2.4
    X_P1_T20  CAP_M4_T20  3
    X_P1_T20  CAP_M5_T20  2.2
    X_P1_T20  CAP_M6_T20  2.7
    X_P1_T20  CAP_M7_T20  1.4
    X_P1_T20  CAP_M8_T20  1.9
    X_P1_T20  CAP_M9_T20  0.9
    X_P1_T20  CAP_M10_T20  2.9
    X_P1_T20  CAP_M11_T20  2.2
    X_P2_T20  COST      38.4
    X_P2_T20  BAL_P2_T20  1
    X_P2_T20  CAP_M0_T20  2.6
    X_P2_T20  CAP_M1_T20  1.4
    X_P2_T20  CAP_M2_T20  0.8
    X_P2_T20  CAP_M3_T20  2.3
    X_P2_T20  CAP_M4_T20  2.5
    X_P2_T20  CAP_M5_T20  1
    X_P2_T20  CAP_M6_T20  1.2
    X_P2_T20  CAP_M7_T20  1
    X_P2_T20  CAP_M8_T20  1.1
    X_P2_T20  CAP_M9_T20  1.9
    X_P2_T20  CAP_M10_T20  3
    X_P2_T20  CAP_M11_T20  0.8
    X_P3_T20  COST      49.5
    X_P3_T20  BAL_P3_T20  1
    X_P3_T20  CAP_M0_T20  1.8
    X_P3_T20  CAP_M1_T20  2.8
    X_P3_T20  CAP_M2_T20  2.1
    X_P3_T20  CAP_M3_T20  1.6
    X_P3_T20  CAP_M4_T20  1.1
    X_P3_T20  CAP_M5_T20  0.7
    X_P3_T20  CAP_M6_T20  2
    X_P3_T20  CAP_M7_T20  2.7
    X_P3_T20  CAP_M8_T20  1.9
    X_P3_T20  CAP_M9_T20  2.6
    X_P3_T20  CAP_M10_T20  2.1
    X_P3_T20  CAP_M11_T20  2.3
    X_P4_T20  COST      32.6
    X_P4_T20  BAL_P4_T20  1
    X_P4_T20  CAP_M0_T20  1.9
    X_P4_T20  CAP_M1_T20  2
    X_P4_T20  CAP_M2_T20  2.5
    X_P4_T20  CAP_M3_T20  2.7
    X_P4_T20  CAP_M4_T20  2.1
    X_P4_T20  CAP_M5_T20  1.2
    X_P4_T20  CAP_M6_T20  1.6
    X_P4_T20  CAP_M7_T20  1.6
    X_P4_T20  CAP_M8_T20  2.1
    X_P4_T20  CAP_M9_T20  1.7
    X_P4_T20  CAP_M10_T20  0.8
    X_P4_T20  CAP_M11_T20  1.6
    X_P5_T20  COST      22.1
    X_P5_T20  BAL_P5_T20  1
    X_P5_T20  CAP_M0_T20  2.1
    X_P5_T20  CAP_M1_T20  0.7
    X_P5_T20  CAP_M2_T20  2.9
    X_P5_T20  CAP_M3_T20  1.3
    X_P5_T20  CAP_M4_T20  2.6
    X_P5_T20  CAP_M5_T20  1.9
    X_P5_T20  CAP_M6_T20  2.4
    X_P5_T20  CAP_M7_T20  1.8
    X_P5_T20  CAP_M8_T20  1.4
    X_P5_T20  CAP_M9_T20  0.7
    X_P5_T20  CAP_M10_T20  0.6
    X_P5_T20  CAP_M11_T20  2.9
    X_P6_T20  COST      41.4
    X_P6_T20  BAL_P6_T20  1
    X_P6_T20  CAP_M0_T20  1.3
    X_P6_T20  CAP_M1_T20  1.8
    X_P6_T20  CAP_M2_T20  2.5
    X_P6_T20  CAP_M3_T20  2.2
    X_P6_T20  CAP_M4_T20  0.7
    X_P6_T20  CAP_M5_T20  1.5
    X_P6_T20  CAP_M6_T20  0.6
    X_P6_T20  CAP_M7_T20  1.9
    X_P6_T20  CAP_M8_T20  1.3
    X_P6_T20  CAP_M9_T20  2.1
    X_P6_T20  CAP_M10_T20  2.4
    X_P6_T20  CAP_M11_T20  1.1
    X_P7_T20  COST      47.6
    X_P7_T20  BAL_P7_T20  1
    X_P7_T20  CAP_M0_T20  1.1
    X_P7_T20  CAP_M1_T20  2.2
    X_P7_T20  CAP_M2_T20  2.5
    X_P7_T20  CAP_M3_T20  2.9
    X_P7_T20  CAP_M4_T20  1
    X_P7_T20  CAP_M5_T20  2.9
    X_P7_T20  CAP_M6_T20  2.4
    X_P7_T20  CAP_M7_T20  1.6
    X_P7_T20  CAP_M8_T20  1.4
    X_P7_T20  CAP_M9_T20  0.6
    X_P7_T20  CAP_M10_T20  1.6
    X_P7_T20  CAP_M11_T20  1.7
    X_P8_T20  COST      38.4
    X_P8_T20  BAL_P8_T20  1
    X_P8_T20  CAP_M0_T20  1.8
    X_P8_T20  CAP_M1_T20  0.7
    X_P8_T20  CAP_M2_T20  2.7
    X_P8_T20  CAP_M3_T20  2.3
    X_P8_T20  CAP_M4_T20  1.6
    X_P8_T20  CAP_M5_T20  1.3
    X_P8_T20  CAP_M6_T20  2.9
    X_P8_T20  CAP_M7_T20  1.1
    X_P8_T20  CAP_M8_T20  1.5
    X_P8_T20  CAP_M9_T20  2.1
    X_P8_T20  CAP_M10_T20  1.6
    X_P8_T20  CAP_M11_T20  0.7
    X_P9_T20  COST      28.7
    X_P9_T20  BAL_P9_T20  1
    X_P9_T20  CAP_M0_T20  1.3
    X_P9_T20  CAP_M1_T20  2.8
    X_P9_T20  CAP_M2_T20  1.3
    X_P9_T20  CAP_M3_T20  0.6
    X_P9_T20  CAP_M4_T20  1.7
    X_P9_T20  CAP_M5_T20  2.5
    X_P9_T20  CAP_M6_T20  1
    X_P9_T20  CAP_M7_T20  2.5
    X_P9_T20  CAP_M8_T20  2.7
    X_P9_T20  CAP_M9_T20  1.1
    X_P9_T20  CAP_M10_T20  1.8
    X_P9_T20  CAP_M11_T20  2.8
    X_P10_T20  COST      32.7
    X_P10_T20  BAL_P10_T20  1
    X_P10_T20  CAP_M0_T20  0.8
    X_P10_T20  CAP_M1_T20  0.8
    X_P10_T20  CAP_M2_T20  1.3
    X_P10_T20  CAP_M3_T20  0.8
    X_P10_T20  CAP_M4_T20  0.7
    X_P10_T20  CAP_M5_T20  1.7
    X_P10_T20  CAP_M6_T20  1.4
    X_P10_T20  CAP_M7_T20  1.3
    X_P10_T20  CAP_M8_T20  2.9
    X_P10_T20  CAP_M9_T20  1.6
    X_P10_T20  CAP_M10_T20  2.9
    X_P10_T20  CAP_M11_T20  0.7
    X_P11_T20  COST      20.5
    X_P11_T20  BAL_P11_T20  1
    X_P11_T20  CAP_M0_T20  2.4
    X_P11_T20  CAP_M1_T20  1.8
    X_P11_T20  CAP_M2_T20  1.8
    X_P11_T20  CAP_M3_T20  1.5
    X_P11_T20  CAP_M4_T20  2.8
    X_P11_T20  CAP_M5_T20  1.4
    X_P11_T20  CAP_M6_T20  0.7
    X_P11_T20  CAP_M7_T20  0.7
    X_P11_T20  CAP_M8_T20  2
    X_P11_T20  CAP_M9_T20  1.5
    X_P11_T20  CAP_M10_T20  1.7
    X_P11_T20  CAP_M11_T20  2.8
    X_P12_T20  COST      22
    X_P12_T20  BAL_P12_T20  1
    X_P12_T20  CAP_M0_T20  2.4
    X_P12_T20  CAP_M1_T20  2.3
    X_P12_T20  CAP_M2_T20  1.7
    X_P12_T20  CAP_M3_T20  2
    X_P12_T20  CAP_M4_T20  1.9
    X_P12_T20  CAP_M5_T20  1.2
    X_P12_T20  CAP_M6_T20  1.7
    X_P12_T20  CAP_M7_T20  1.4
    X_P12_T20  CAP_M8_T20  2
    X_P12_T20  CAP_M9_T20  1.6
    X_P12_T20  CAP_M10_T20  1.3
    X_P12_T20  CAP_M11_T20  2.7
    X_P13_T20  COST      11
    X_P13_T20  BAL_P13_T20  1
    X_P13_T20  CAP_M0_T20  2.2
    X_P13_T20  CAP_M1_T20  0.8
    X_P13_T20  CAP_M2_T20  2.7
    X_P13_T20  CAP_M3_T20  2.1
    X_P13_T20  CAP_M4_T20  1.8
    X_P13_T20  CAP_M5_T20  1.2
    X_P13_T20  CAP_M6_T20  1
    X_P13_T20  CAP_M7_T20  1.2
    X_P13_T20  CAP_M8_T20  1.8
    X_P13_T20  CAP_M9_T20  1
    X_P13_T20  CAP_M10_T20  1.3
    X_P13_T20  CAP_M11_T20  1.2
    X_P14_T20  COST      20.6
    X_P14_T20  BAL_P14_T20  1
    X_P14_T20  CAP_M0_T20  1.1
    X_P14_T20  CAP_M1_T20  1.8
    X_P14_T20  CAP_M2_T20  1.9
    X_P14_T20  CAP_M3_T20  1.4
    X_P14_T20  CAP_M4_T20  1.5
    X_P14_T20  CAP_M5_T20  1.9
    X_P14_T20  CAP_M6_T20  2.7
    X_P14_T20  CAP_M7_T20  0.8
    X_P14_T20  CAP_M8_T20  1.7
    X_P14_T20  CAP_M9_T20  2.2
    X_P14_T20  CAP_M10_T20  2.7
    X_P14_T20  CAP_M11_T20  1.2
    X_P15_T20  COST      46.6
    X_P15_T20  BAL_P15_T20  1
    X_P15_T20  CAP_M0_T20  0.8
    X_P15_T20  CAP_M1_T20  0.8
    X_P15_T20  CAP_M2_T20  2.4
    X_P15_T20  CAP_M3_T20  2.3
    X_P15_T20  CAP_M4_T20  1.8
    X_P15_T20  CAP_M5_T20  0.8
    X_P15_T20  CAP_M6_T20  0.8
    X_P15_T20  CAP_M7_T20  1.4
    X_P15_T20  CAP_M8_T20  1.3
    X_P15_T20  CAP_M9_T20  1.8
    X_P15_T20  CAP_M10_T20  2.1
    X_P15_T20  CAP_M11_T20  1.5
    X_P16_T20  COST      41.2
    X_P16_T20  BAL_P16_T20  1
    X_P16_T20  CAP_M0_T20  1.1
    X_P16_T20  CAP_M1_T20  0.5
    X_P16_T20  CAP_M2_T20  1.2
    X_P16_T20  CAP_M3_T20  2.8
    X_P16_T20  CAP_M4_T20  1.1
    X_P16_T20  CAP_M5_T20  1
    X_P16_T20  CAP_M6_T20  1.8
    X_P16_T20  CAP_M7_T20  1.8
    X_P16_T20  CAP_M8_T20  2.5
    X_P16_T20  CAP_M9_T20  1.6
    X_P16_T20  CAP_M10_T20  2.7
    X_P16_T20  CAP_M11_T20  1.3
    X_P17_T20  COST      46.4
    X_P17_T20  BAL_P17_T20  1
    X_P17_T20  CAP_M0_T20  1.8
    X_P17_T20  CAP_M1_T20  2.2
    X_P17_T20  CAP_M2_T20  2.7
    X_P17_T20  CAP_M3_T20  2.2
    X_P17_T20  CAP_M4_T20  1.2
    X_P17_T20  CAP_M5_T20  1.3
    X_P17_T20  CAP_M6_T20  0.7
    X_P17_T20  CAP_M7_T20  1.3
    X_P17_T20  CAP_M8_T20  2.8
    X_P17_T20  CAP_M9_T20  1.4
    X_P17_T20  CAP_M10_T20  2.7
    X_P17_T20  CAP_M11_T20  2.2
    X_P18_T20  COST      37.7
    X_P18_T20  BAL_P18_T20  1
    X_P18_T20  CAP_M0_T20  1.3
    X_P18_T20  CAP_M1_T20  2.9
    X_P18_T20  CAP_M2_T20  1.7
    X_P18_T20  CAP_M3_T20  0.5
    X_P18_T20  CAP_M4_T20  2.4
    X_P18_T20  CAP_M5_T20  2.9
    X_P18_T20  CAP_M6_T20  2.1
    X_P18_T20  CAP_M7_T20  2.7
    X_P18_T20  CAP_M8_T20  1.4
    X_P18_T20  CAP_M9_T20  0.5
    X_P18_T20  CAP_M10_T20  2.1
    X_P18_T20  CAP_M11_T20  1.1
    X_P19_T20  COST      13
    X_P19_T20  BAL_P19_T20  1
    X_P19_T20  CAP_M0_T20  2.2
    X_P19_T20  CAP_M1_T20  2.8
    X_P19_T20  CAP_M2_T20  1.6
    X_P19_T20  CAP_M3_T20  2.6
    X_P19_T20  CAP_M4_T20  1.7
    X_P19_T20  CAP_M5_T20  1.3
    X_P19_T20  CAP_M6_T20  1
    X_P19_T20  CAP_M7_T20  1.5
    X_P19_T20  CAP_M8_T20  0.6
    X_P19_T20  CAP_M9_T20  2.8
    X_P19_T20  CAP_M10_T20  0.8
    X_P19_T20  CAP_M11_T20  0.8
    X_P20_T20  COST      31.9
    X_P20_T20  BAL_P20_T20  1
    X_P20_T20  CAP_M0_T20  1.2
    X_P20_T20  CAP_M1_T20  2
    X_P20_T20  CAP_M2_T20  1.4
    X_P20_T20  CAP_M3_T20  2.3
    X_P20_T20  CAP_M4_T20  1.5
    X_P20_T20  CAP_M5_T20  1.6
    X_P20_T20  CAP_M6_T20  2.6
    X_P20_T20  CAP_M7_T20  2.1
    X_P20_T20  CAP_M8_T20  1.2
    X_P20_T20  CAP_M9_T20  1
    X_P20_T20  CAP_M10_T20  2.3
    X_P20_T20  CAP_M11_T20  1.8
    X_P21_T20  COST      35.1
    X_P21_T20  BAL_P21_T20  1
    X_P21_T20  CAP_M0_T20  2.4
    X_P21_T20  CAP_M1_T20  1.9
    X_P21_T20  CAP_M2_T20  2.9
    X_P21_T20  CAP_M3_T20  2.7
    X_P21_T20  CAP_M4_T20  2.7
    X_P21_T20  CAP_M5_T20  1.7
    X_P21_T20  CAP_M6_T20  2.8
    X_P21_T20  CAP_M7_T20  2.5
    X_P21_T20  CAP_M8_T20  3
    X_P21_T20  CAP_M9_T20  2.7
    X_P21_T20  CAP_M10_T20  2.4
    X_P21_T20  CAP_M11_T20  2.4
    X_P22_T20  COST      44.4
    X_P22_T20  BAL_P22_T20  1
    X_P22_T20  CAP_M0_T20  0.6
    X_P22_T20  CAP_M1_T20  2.9
    X_P22_T20  CAP_M2_T20  2.1
    X_P22_T20  CAP_M3_T20  2.1
    X_P22_T20  CAP_M4_T20  2
    X_P22_T20  CAP_M5_T20  2.4
    X_P22_T20  CAP_M6_T20  2.2
    X_P22_T20  CAP_M7_T20  0.7
    X_P22_T20  CAP_M8_T20  0.5
    X_P22_T20  CAP_M9_T20  1.8
    X_P22_T20  CAP_M10_T20  1.1
    X_P22_T20  CAP_M11_T20  2.6
    X_P23_T20  COST      13.3
    X_P23_T20  BAL_P23_T20  1
    X_P23_T20  CAP_M0_T20  2.9
    X_P23_T20  CAP_M1_T20  1.2
    X_P23_T20  CAP_M2_T20  1.8
    X_P23_T20  CAP_M3_T20  1.8
    X_P23_T20  CAP_M4_T20  1.5
    X_P23_T20  CAP_M5_T20  0.5
    X_P23_T20  CAP_M6_T20  2.8
    X_P23_T20  CAP_M7_T20  1.9
    X_P23_T20  CAP_M8_T20  2.2
    X_P23_T20  CAP_M9_T20  2.9
    X_P23_T20  CAP_M10_T20  2.1
    X_P23_T20  CAP_M11_T20  2.2
    X_P24_T20  COST      19.1
    X_P24_T20  BAL_P24_T20  1
    X_P24_T20  CAP_M0_T20  1.1
    X_P24_T20  CAP_M1_T20  2.5
    X_P24_T20  CAP_M2_T20  1.3
    X_P24_T20  CAP_M3_T20  2.8
    X_P24_T20  CAP_M4_T20  1.1
    X_P24_T20  CAP_M5_T20  2
    X_P24_T20  CAP_M6_T20  1.4
    X_P24_T20  CAP_M7_T20  0.5
    X_P24_T20  CAP_M8_T20  1.2
    X_P24_T20  CAP_M9_T20  2.4
    X_P24_T20  CAP_M10_T20  0.6
    X_P24_T20  CAP_M11_T20  1.9
    S_P0_T20  COST      2.9
    S_P0_T20  BAL_P0_T20  -1
    S_P0_T20  STORAGE_T20  1
    S_P0_T20  BAL_P0_T21  1
    S_P1_T20  COST      1.9
    S_P1_T20  BAL_P1_T20  -1
    S_P1_T20  STORAGE_T20  1
    S_P1_T20  BAL_P1_T21  1
    S_P2_T20  COST      2.8
    S_P2_T20  BAL_P2_T20  -1
    S_P2_T20  STORAGE_T20  1
    S_P2_T20  BAL_P2_T21  1
    S_P3_T20  COST      1.5
    S_P3_T20  BAL_P3_T20  -1
    S_P3_T20  STORAGE_T20  1
    S_P3_T20  BAL_P3_T21  1
    S_P4_T20  COST      3.8
    S_P4_T20  BAL_P4_T20  -1
    S_P4_T20  STORAGE_T20  1
    S_P4_T20  BAL_P4_T21  1
    S_P5_T20  COST      4.8
    S_P5_T20  BAL_P5_T20  -1
    S_P5_T20  STORAGE_T20  1
    S_P5_T20  BAL_P5_T21  1
    S_P6_T20  COST      2.9
    S_P6_T20  BAL_P6_T20  -1
    S_P6_T20  STORAGE_T20  1
    S_P6_T20  BAL_P6_T21  1
    S_P7_T20  COST      2.1
    S_P7_T20  BAL_P7_T20  -1
    S_P7_T20  STORAGE_T20  1
    S_P7_T20  BAL_P7_T21  1
    S_P8_T20  COST      2.5
    S_P8_T20  BAL_P8_T20  -1
    S_P8_T20  STORAGE_T20  1
    S_P8_T20  BAL_P8_T21  1
    S_P9_T20  COST      1.4
    S_P9_T20  BAL_P9_T20  -1
    S_P9_T20  STORAGE_T20  1
    S_P9_T20  BAL_P9_T21  1
    S_P10_T20  COST      4.3
    S_P10_T20  BAL_P10_T20  -1
    S_P10_T20  STORAGE_T20  1
    S_P10_T20  BAL_P10_T21  1
    S_P11_T20  COST      2.1
    S_P11_T20  BAL_P11_T20  -1
    S_P11_T20  STORAGE_T20  1
    S_P11_T20  BAL_P11_T21  1
    S_P12_T20  COST      2.6
    S_P12_T20  BAL_P12_T20  -1
    S_P12_T20  STORAGE_T20  1
    S_P12_T20  BAL_P12_T21  1
    S_P13_T20  COST      3.9
    S_P13_T20  BAL_P13_T20  -1
    S_P13_T20  STORAGE_T20  1
    S_P13_T20  BAL_P13_T21  1
    S_P14_T20  COST      1.1
    S_P14_T20  BAL_P14_T20  -1
    S_P14_T20  STORAGE_T20  1
    S_P14_T20  BAL_P14_T21  1
    S_P15_T20  COST      2.3
    S_P15_T20  BAL_P15_T20  -1
    S_P15_T20  STORAGE_T20  1
    S_P15_T20  BAL_P15_T21  1
    S_P16_T20  COST      4.2
    S_P16_T20  BAL_P16_T20  -1
    S_P16_T20  STORAGE_T20  1
    S_P16_T20  BAL_P16_T21  1
    S_P17_T20  COST      4.3
    S_P17_T20  BAL_P17_T20  -1
    S_P17_T20  STORAGE_T20  1
    S_P17_T20  BAL_P17_T21  1
    S_P18_T20  COST      1.5
    S_P18_T20  BAL_P18_T20  -1
    S_P18_T20  STORAGE_T20  1
    S_P18_T20  BAL_P18_T21  1
    S_P19_T20  COST      4.5
    S_P19_T20  BAL_P19_T20  -1
    S_P19_T20  STORAGE_T20  1
    S_P19_T20  BAL_P19_T21  1
    S_P20_T20  COST      1.4
    S_P20_T20  BAL_P20_T20  -1
    S_P20_T20  STORAGE_T20  1
    S_P20_T20  BAL_P20_T21  1
    S_P21_T20  COST      2.2
    S_P21_T20  BAL_P21_T20  -1
    S_P21_T20  STORAGE_T20  1
    S_P21_T20  BAL_P21_T21  1
    S_P22_T20  COST      3.5
    S_P22_T20  BAL_P22_T20  -1
    S_P22_T20  STORAGE_T20  1
    S_P22_T20  BAL_P22_T21  1
    S_P23_T20  COST      2.5
    S_P23_T20  BAL_P23_T20  -1
    S_P23_T20  STORAGE_T20  1
    S_P23_T20  BAL_P23_T21  1
    S_P24_T20  COST      3.4
    S_P24_T20  BAL_P24_T20  -1
    S_P24_T20  STORAGE_T20  1
    S_P24_T20  BAL_P24_T21  1
    X_P0_T21  COST      13.3
    X_P0_T21  BAL_P0_T21  1
    X_P0_T21  CAP_M0_T21  1.4
    X_P0_T21  CAP_M1_T21  2.4
    X_P0_T21  CAP_M2_T21  0.5
    X_P0_T21  CAP_M3_T21  1
    X_P0_T21  CAP_M4_T21  1.3
    X_P0_T21  CAP_M5_T21  0.8
    X_P0_T21  CAP_M6_T21  1
    X_P0_T21  CAP_M7_T21  1.7
    X_P0_T21  CAP_M8_T21  0.7
    X_P0_T21  CAP_M9_T21  1.5
    X_P0_T21  CAP_M10_T21  2.4
    X_P0_T21  CAP_M11_T21  0.9
    X_P1_T21  COST      41.4
    X_P1_T21  BAL_P1_T21  1
    X_P1_T21  CAP_M0_T21  1
    X_P1_T21  CAP_M1_T21  2.2
    X_P1_T21  CAP_M2_T21  1
    X_P1_T21  CAP_M3_T21  2.4
    X_P1_T21  CAP_M4_T21  3
    X_P1_T21  CAP_M5_T21  2.2
    X_P1_T21  CAP_M6_T21  2.7
    X_P1_T21  CAP_M7_T21  1.4
    X_P1_T21  CAP_M8_T21  1.9
    X_P1_T21  CAP_M9_T21  0.9
    X_P1_T21  CAP_M10_T21  2.9
    X_P1_T21  CAP_M11_T21  2.2
    X_P2_T21  COST      44.8
    X_P2_T21  BAL_P2_T21  1
    X_P2_T21  CAP_M0_T21  2.6
    X_P2_T21  CAP_M1_T21  1.4
    X_P2_T21  CAP_M2_T21  0.8
    X_P2_T21  CAP_M3_T21  2.3
    X_P2_T21  CAP_M4_T21  2.5
    X_P2_T21  CAP_M5_T21  1
    X_P2_T21  CAP_M6_T21  1.2
    X_P2_T21  CAP_M7_T21  1
    X_P2_T21  CAP_M8_T21  1.1
    X_P2_T21  CAP_M9_T21  1.9
    X_P2_T21  CAP_M10_T21  3
    X_P2_T21  CAP_M11_T21  0.8
    X_P3_T21  COST      12.6
    X_P3_T21  BAL_P3_T21  1
    X_P3_T21  CAP_M0_T21  1.8
    X_P3_T21  CAP_M1_T21  2.8
    X_P3_T21  CAP_M2_T21  2.1
    X_P3_T21  CAP_M3_T21  1.6
    X_P3_T21  CAP_M4_T21  1.1
    X_P3_T21  CAP_M5_T21  0.7
    X_P3_T21  CAP_M6_T21  2
    X_P3_T21  CAP_M7_T21  2.7
    X_P3_T21  CAP_M8_T21  1.9
    X_P3_T21  CAP_M9_T21  2.6
    X_P3_T21  CAP_M10_T21  2.1
    X_P3_T21  CAP_M11_T21  2.3
    X_P4_T21  COST      43.8
    X_P4_T21  BAL_P4_T21  1
    X_P4_T21  CAP_M0_T21  1.9
    X_P4_T21  CAP_M1_T21  2
    X_P4_T21  CAP_M2_T21  2.5
    X_P4_T21  CAP_M3_T21  2.7
    X_P4_T21  CAP_M4_T21  2.1
    X_P4_T21  CAP_M5_T21  1.2
    X_P4_T21  CAP_M6_T21  1.6
    X_P4_T21  CAP_M7_T21  1.6
    X_P4_T21  CAP_M8_T21  2.1
    X_P4_T21  CAP_M9_T21  1.7
    X_P4_T21  CAP_M10_T21  0.8
    X_P4_T21  CAP_M11_T21  1.6
    X_P5_T21  COST      19.5
    X_P5_T21  BAL_P5_T21  1
    X_P5_T21  CAP_M0_T21  2.1
    X_P5_T21  CAP_M1_T21  0.7
    X_P5_T21  CAP_M2_T21  2.9
    X_P5_T21  CAP_M3_T21  1.3
    X_P5_T21  CAP_M4_T21  2.6
    X_P5_T21  CAP_M5_T21  1.9
    X_P5_T21  CAP_M6_T21  2.4
    X_P5_T21  CAP_M7_T21  1.8
    X_P5_T21  CAP_M8_T21  1.4
    X_P5_T21  CAP_M9_T21  0.7
    X_P5_T21  CAP_M10_T21  0.6
    X_P5_T21  CAP_M11_T21  2.9
    X_P6_T21  COST      35
    X_P6_T21  BAL_P6_T21  1
    X_P6_T21  CAP_M0_T21  1.3
    X_P6_T21  CAP_M1_T21  1.8
    X_P6_T21  CAP_M2_T21  2.5
    X_P6_T21  CAP_M3_T21  2.2
    X_P6_T21  CAP_M4_T21  0.7
    X_P6_T21  CAP_M5_T21  1.5
    X_P6_T21  CAP_M6_T21  0.6
    X_P6_T21  CAP_M7_T21  1.9
    X_P6_T21  CAP_M8_T21  1.3
    X_P6_T21  CAP_M9_T21  2.1
    X_P6_T21  CAP_M10_T21  2.4
    X_P6_T21  CAP_M11_T21  1.1
    X_P7_T21  COST      16.9
    X_P7_T21  BAL_P7_T21  1
    X_P7_T21  CAP_M0_T21  1.1
    X_P7_T21  CAP_M1_T21  2.2
    X_P7_T21  CAP_M2_T21  2.5
    X_P7_T21  CAP_M3_T21  2.9
    X_P7_T21  CAP_M4_T21  1
    X_P7_T21  CAP_M5_T21  2.9
    X_P7_T21  CAP_M6_T21  2.4
    X_P7_T21  CAP_M7_T21  1.6
    X_P7_T21  CAP_M8_T21  1.4
    X_P7_T21  CAP_M9_T21  0.6
    X_P7_T21  CAP_M10_T21  1.6
    X_P7_T21  CAP_M11_T21  1.7
    X_P8_T21  COST      40.2
    X_P8_T21  BAL_P8_T21  1
    X_P8_T21  CAP_M0_T21  1.8
    X_P8_T21  CAP_M1_T21  0.7
    X_P8_T21  CAP_M2_T21  2.7
    X_P8_T21  CAP_M3_T21  2.3
    X_P8_T21  CAP_M4_T21  1.6
    X_P8_T21  CAP_M5_T21  1.3
    X_P8_T21  CAP_M6_T21  2.9
    X_P8_T21  CAP_M7_T21  1.1
    X_P8_T21  CAP_M8_T21  1.5
    X_P8_T21  CAP_M9_T21  2.1
    X_P8_T21  CAP_M10_T21  1.6
    X_P8_T21  CAP_M11_T21  0.7
    X_P9_T21  COST      12.9
    X_P9_T21  BAL_P9_T21  1
    X_P9_T21  CAP_M0_T21  1.3
    X_P9_T21  CAP_M1_T21  2.8
    X_P9_T21  CAP_M2_T21  1.3
    X_P9_T21  CAP_M3_T21  0.6
    X_P9_T21  CAP_M4_T21  1.7
    X_P9_T21  CAP_M5_T21  2.5
    X_P9_T21  CAP_M6_T21  1
    X_P9_T21  CAP_M7_T21  2.5
    X_P9_T21  CAP_M8_T21  2.7
    X_P9_T21  CAP_M9_T21  1.1
    X_P9_T21  CAP_M10_T21  1.8
    X_P9_T21  CAP_M11_T21  2.8
    X_P10_T21  COST      31.5
    X_P10_T21  BAL_P10_T21  1
    X_P10_T21  CAP_M0_T21  0.8
    X_P10_T21  CAP_M1_T21  0.8
    X_P10_T21  CAP_M2_T21  1.3
    X_P10_T21  CAP_M3_T21  0.8
    X_P10_T21  CAP_M4_T21  0.7
    X_P10_T21  CAP_M5_T21  1.7
    X_P10_T21  CAP_M6_T21  1.4
    X_P10_T21  CAP_M7_T21  1.3
    X_P10_T21  CAP_M8_T21  2.9
    X_P10_T21  CAP_M9_T21  1.6
    X_P10_T21  CAP_M10_T21  2.9
    X_P10_T21  CAP_M11_T21  0.7
    X_P11_T21  COST      28.9
    X_P11_T21  BAL_P11_T21  1
    X_P11_T21  CAP_M0_T21  2.4
    X_P11_T21  CAP_M1_T21  1.8
    X_P11_T21  CAP_M2_T21  1.8
    X_P11_T21  CAP_M3_T21  1.5
    X_P11_T21  CAP_M4_T21  2.8
    X_P11_T21  CAP_M5_T21  1.4
    X_P11_T21  CAP_M6_T21  0.7
    X_P11_T21  CAP_M7_T21  0.7
    X_P11_T21  CAP_M8_T21  2
    X_P11_T21  CAP_M9_T21  1.5
    X_P11_T21  CAP_M10_T21  1.7
    X_P11_T21  CAP_M11_T21  2.8
    X_P12_T21  COST      29.9
    X_P12_T21  BAL_P12_T21  1
    X_P12_T21  CAP_M0_T21  2.4
    X_P12_T21  CAP_M1_T21  2.3
    X_P12_T21  CAP_M2_T21  1.7
    X_P12_T21  CAP_M3_T21  2
    X_P12_T21  CAP_M4_T21  1.9
    X_P12_T21  CAP_M5_T21  1.2
    X_P12_T21  CAP_M6_T21  1.7
    X_P12_T21  CAP_M7_T21  1.4
    X_P12_T21  CAP_M8_T21  2
    X_P12_T21  CAP_M9_T21  1.6
    X_P12_T21  CAP_M10_T21  1.3
    X_P12_T21  CAP_M11_T21  2.7
    X_P13_T21  COST      47.7
    X_P13_T21  BAL_P13_T21  1
    X_P13_T21  CAP_M0_T21  2.2
    X_P13_T21  CAP_M1_T21  0.8
    X_P13_T21  CAP_M2_T21  2.7
    X_P13_T21  CAP_M3_T21  2.1
    X_P13_T21  CAP_M4_T21  1.8
    X_P13_T21  CAP_M5_T21  1.2
    X_P13_T21  CAP_M6_T21  1
    X_P13_T21  CAP_M7_T21  1.2
    X_P13_T21  CAP_M8_T21  1.8
    X_P13_T21  CAP_M9_T21  1
    X_P13_T21  CAP_M10_T21  1.3
    X_P13_T21  CAP_M11_T21  1.2
    X_P14_T21  COST      29.7
    X_P14_T21  BAL_P14_T21  1
    X_P14_T21  CAP_M0_T21  1.1
    X_P14_T21  CAP_M1_T21  1.8
    X_P14_T21  CAP_M2_T21  1.9
    X_P14_T21  CAP_M3_T21  1.4
    X_P14_T21  CAP_M4_T21  1.5
    X_P14_T21  CAP_M5_T21  1.9
    X_P14_T21  CAP_M6_T21  2.7
    X_P14_T21  CAP_M7_T21  0.8
    X_P14_T21  CAP_M8_T21  1.7
    X_P14_T21  CAP_M9_T21  2.2
    X_P14_T21  CAP_M10_T21  2.7
    X_P14_T21  CAP_M11_T21  1.2
    X_P15_T21  COST      47
    X_P15_T21  BAL_P15_T21  1
    X_P15_T21  CAP_M0_T21  0.8
    X_P15_T21  CAP_M1_T21  0.8
    X_P15_T21  CAP_M2_T21  2.4
    X_P15_T21  CAP_M3_T21  2.3
    X_P15_T21  CAP_M4_T21  1.8
    X_P15_T21  CAP_M5_T21  0.8
    X_P15_T21  CAP_M6_T21  0.8
    X_P15_T21  CAP_M7_T21  1.4
    X_P15_T21  CAP_M8_T21  1.3
    X_P15_T21  CAP_M9_T21  1.8
    X_P15_T21  CAP_M10_T21  2.1
    X_P15_T21  CAP_M11_T21  1.5
    X_P16_T21  COST      23.4
    X_P16_T21  BAL_P16_T21  1
    X_P16_T21  CAP_M0_T21  1.1
    X_P16_T21  CAP_M1_T21  0.5
    X_P16_T21  CAP_M2_T21  1.2
    X_P16_T21  CAP_M3_T21  2.8
    X_P16_T21  CAP_M4_T21  1.1
    X_P16_T21  CAP_M5_T21  1
    X_P16_T21  CAP_M6_T21  1.8
    X_P16_T21  CAP_M7_T21  1.8
    X_P16_T21  CAP_M8_T21  2.5
    X_P16_T21  CAP_M9_T21  1.6
    X_P16_T21  CAP_M10_T21  2.7
    X_P16_T21  CAP_M11_T21  1.3
    X_P17_T21  COST      25
    X_P17_T21  BAL_P17_T21  1
    X_P17_T21  CAP_M0_T21  1.8
    X_P17_T21  CAP_M1_T21  2.2
    X_P17_T21  CAP_M2_T21  2.7
    X_P17_T21  CAP_M3_T21  2.2
    X_P17_T21  CAP_M4_T21  1.2
    X_P17_T21  CAP_M5_T21  1.3
    X_P17_T21  CAP_M6_T21  0.7
    X_P17_T21  CAP_M7_T21  1.3
    X_P17_T21  CAP_M8_T21  2.8
    X_P17_T21  CAP_M9_T21  1.4
    X_P17_T21  CAP_M10_T21  2.7
    X_P17_T21  CAP_M11_T21  2.2
    X_P18_T21  COST      10.2
    X_P18_T21  BAL_P18_T21  1
    X_P18_T21  CAP_M0_T21  1.3
    X_P18_T21  CAP_M1_T21  2.9
    X_P18_T21  CAP_M2_T21  1.7
    X_P18_T21  CAP_M3_T21  0.5
    X_P18_T21  CAP_M4_T21  2.4
    X_P18_T21  CAP_M5_T21  2.9
    X_P18_T21  CAP_M6_T21  2.1
    X_P18_T21  CAP_M7_T21  2.7
    X_P18_T21  CAP_M8_T21  1.4
    X_P18_T21  CAP_M9_T21  0.5
    X_P18_T21  CAP_M10_T21  2.1
    X_P18_T21  CAP_M11_T21  1.1
    X_P19_T21  COST      36.9
    X_P19_T21  BAL_P19_T21  1
    X_P19_T21  CAP_M0_T21  2.2
    X_P19_T21  CAP_M1_T21  2.8
    X_P19_T21  CAP_M2_T21  1.6
    X_P19_T21  CAP_M3_T21  2.6
    X_P19_T21  CAP_M4_T21  1.7
    X_P19_T21  CAP_M5_T21  1.3
    X_P19_T21  CAP_M6_T21  1
    X_P19_T21  CAP_M7_T21  1.5
    X_P19_T21  CAP_M8_T21  0.6
    X_P19_T21  CAP_M9_T21  2.8
    X_P19_T21  CAP_M10_T21  0.8
    X_P19_T21  CAP_M11_T21  0.8
    X_P20_T21  COST      14.3
    X_P20_T21  BAL_P20_T21  1
    X_P20_T21  CAP_M0_T21  1.2
    X_P20_T21  CAP_M1_T21  2
    X_P20_T21  CAP_M2_T21  1.4
    X_P20_T21  CAP_M3_T21  2.3
    X_P20_T21  CAP_M4_T21  1.5
    X_P20_T21  CAP_M5_T21  1.6
    X_P20_T21  CAP_M6_T21  2.6
    X_P20_T21  CAP_M7_T21  2.1
    X_P20_T21  CAP_M8_T21  1.2
    X_P20_T21  CAP_M9_T21  1
    X_P20_T21  CAP_M10_T21  2.3
    X_P20_T21  CAP_M11_T21  1.8
    X_P21_T21  COST      14.5
    X_P21_T21  BAL_P21_T21  1
    X_P21_T21  CAP_M0_T21  2.4
    X_P21_T21  CAP_M1_T21  1.9
    X_P21_T21  CAP_M2_T21  2.9
    X_P21_T21  CAP_M3_T21  2.7
    X_P21_T21  CAP_M4_T21  2.7
    X_P21_T21  CAP_M5_T21  1.7
    X_P21_T21  CAP_M6_T21  2.8
    X_P21_T21  CAP_M7_T21  2.5
    X_P21_T21  CAP_M8_T21  3
    X_P21_T21  CAP_M9_T21  2.7
    X_P21_T21  CAP_M10_T21  2.4
    X_P21_T21  CAP_M11_T21  2.4
    X_P22_T21  COST      18.6
    X_P22_T21  BAL_P22_T21  1
    X_P22_T21  CAP_M0_T21  0.6
    X_P22_T21  CAP_M1_T21  2.9
    X_P22_T21  CAP_M2_T21  2.1
    X_P22_T21  CAP_M3_T21  2.1
    X_P22_T21  CAP_M4_T21  2
    X_P22_T21  CAP_M5_T21  2.4
    X_P22_T21  CAP_M6_T21  2.2
    X_P22_T21  CAP_M7_T21  0.7
    X_P22_T21  CAP_M8_T21  0.5
    X_P22_T21  CAP_M9_T21  1.8
    X_P22_T21  CAP_M10_T21  1.1
    X_P22_T21  CAP_M11_T21  2.6
    X_P23_T21  COST      32.7
    X_P23_T21  BAL_P23_T21  1
    X_P23_T21  CAP_M0_T21  2.9
    X_P23_T21  CAP_M1_T21  1.2
    X_P23_T21  CAP_M2_T21  1.8
    X_P23_T21  CAP_M3_T21  1.8
    X_P23_T21  CAP_M4_T21  1.5
    X_P23_T21  CAP_M5_T21  0.5
    X_P23_T21  CAP_M6_T21  2.8
    X_P23_T21  CAP_M7_T21  1.9
    X_P23_T21  CAP_M8_T21  2.2
    X_P23_T21  CAP_M9_T21  2.9
    X_P23_T21  CAP_M10_T21  2.1
    X_P23_T21  CAP_M11_T21  2.2
    X_P24_T21  COST      46.2
    X_P24_T21  BAL_P24_T21  1
    X_P24_T21  CAP_M0_T21  1.1
    X_P24_T21  CAP_M1_T21  2.5
    X_P24_T21  CAP_M2_T21  1.3
    X_P24_T21  CAP_M3_T21  2.8
    X_P24_T21  CAP_M4_T21  1.1
    X_P24_T21  CAP_M5_T21  2
    X_P24_T21  CAP_M6_T21  1.4
    X_P24_T21  CAP_M7_T21  0.5
    X_P24_T21  CAP_M8_T21  1.2
    X_P24_T21  CAP_M9_T21  2.4
    X_P24_T21  CAP_M10_T21  0.6
    X_P24_T21  CAP_M11_T21  1.9
    S_P0_T21  COST      4.3
    S_P0_T21  BAL_P0_T21  -1
    S_P0_T21  STORAGE_T21  1
    S_P0_T21  BAL_P0_T22  1
    S_P1_T21  COST      2
    S_P1_T21  BAL_P1_T21  -1
    S_P1_T21  STORAGE_T21  1
    S_P1_T21  BAL_P1_T22  1
    S_P2_T21  COST      4.4
    S_P2_T21  BAL_P2_T21  -1
    S_P2_T21  STORAGE_T21  1
    S_P2_T21  BAL_P2_T22  1
    S_P3_T21  COST      4.2
    S_P3_T21  BAL_P3_T21  -1
    S_P3_T21  STORAGE_T21  1
    S_P3_T21  BAL_P3_T22  1
    S_P4_T21  COST      2.7
    S_P4_T21  BAL_P4_T21  -1
    S_P4_T21  STORAGE_T21  1
    S_P4_T21  BAL_P4_T22  1
    S_P5_T21  COST      1.4
    S_P5_T21  BAL_P5_T21  -1
    S_P5_T21  STORAGE_T21  1
    S_P5_T21  BAL_P5_T22  1
    S_P6_T21  COST      4.3
    S_P6_T21  BAL_P6_T21  -1
    S_P6_T21  STORAGE_T21  1
    S_P6_T21  BAL_P6_T22  1
    S_P7_T21  COST      2.7
    S_P7_T21  BAL_P7_T21  -1
    S_P7_T21  STORAGE_T21  1
    S_P7_T21  BAL_P7_T22  1
    S_P8_T21  COST      4.3
    S_P8_T21  BAL_P8_T21  -1
    S_P8_T21  STORAGE_T21  1
    S_P8_T21  BAL_P8_T22  1
    S_P9_T21  COST      4.5
    S_P9_T21  BAL_P9_T21  -1
    S_P9_T21  STORAGE_T21  1
    S_P9_T21  BAL_P9_T22  1
    S_P10_T21  COST      4.6
    S_P10_T21  BAL_P10_T21  -1
    S_P10_T21  STORAGE_T21  1
    S_P10_T21  BAL_P10_T22  1
    S_P11_T21  COST      3.3
    S_P11_T21  BAL_P11_T21  -1
    S_P11_T21  STORAGE_T21  1
    S_P11_T21  BAL_P11_T22  1
    S_P12_T21  COST      2.5
    S_P12_T21  BAL_P12_T21  -1
    S_P12_T21  STORAGE_T21  1
    S_P12_T21  BAL_P12_T22  1
    S_P13_T21  COST      1
    S_P13_T21  BAL_P13_T21  -1
    S_P13_T21  STORAGE_T21  1
    S_P13_T21  BAL_P13_T22  1
    S_P14_T21  COST      1.3
    S_P14_T21  BAL_P14_T21  -1
    S_P14_T21  STORAGE_T21  1
    S_P14_T21  BAL_P14_T22  1
    S_P15_T21  COST      4.7
    S_P15_T21  BAL_P15_T21  -1
    S_P15_T21  STORAGE_T21  1
    S_P15_T21  BAL_P15_T22  1
    S_P16_T21  COST      1.5
    S_P16_T21  BAL_P16_T21  -1
    S_P16_T21  STORAGE_T21  1
    S_P16_T21  BAL_P16_T22  1
    S_P17_T21  COST      3.5
    S_P17_T21  BAL_P17_T21  -1
    S_P17_T21  STORAGE_T21  1
    S_P17_T21  BAL_P17_T22  1
    S_P18_T21  COST      1.5
    S_P18_T21  BAL_P18_T21  -1
    S_P18_T21  STORAGE_T21  1
    S_P18_T21  BAL_P18_T22  1
    S_P19_T21  COST      2.9
    S_P19_T21  BAL_P19_T21  -1
    S_P19_T21  STORAGE_T21  1
    S_P19_T21  BAL_P19_T22  1
    S_P20_T21  COST      3.8
    S_P20_T21  BAL_P20_T21  -1
    S_P20_T21  STORAGE_T21  1
    S_P20_T21  BAL_P20_T22  1
    S_P21_T21  COST      4
    S_P21_T21  BAL_P21_T21  -1
    S_P21_T21  STORAGE_T21  1
    S_P21_T21  BAL_P21_T22  1
    S_P22_T21  COST      3.6
    S_P22_T21  BAL_P22_T21  -1
    S_P22_T21  STORAGE_T21  1
    S_P22_T21  BAL_P22_T22  1
    S_P23_T21  COST      2.8
    S_P23_T21  BAL_P23_T21  -1
    S_P23_T21  STORAGE_T21  1
    S_P23_T21  BAL_P23_T22  1
    S_P24_T21  COST      4.8
    S_P24_T21  BAL_P24_T21  -1
    S_P24_T21  STORAGE_T21  1
    S_P24_T21  BAL_P24_T22  1
    X_P0_T22  COST      13.5
    X_P0_T22  BAL_P0_T22  1
    X_P0_T22  CAP_M0_T22  1.4
    X_P0_T22  CAP_M1_T22  2.4
    X_P0_T22  CAP_M2_T22  0.5
    X_P0_T22  CAP_M3_T22  1
    X_P0_T22  CAP_M4_T22  1.3
    X_P0_T22  CAP_M5_T22  0.8
    X_P0_T22  CAP_M6_T22  1
    X_P0_T22  CAP_M7_T22  1.7
    X_P0_T22  CAP_M8_T22  0.7
    X_P0_T22  CAP_M9_T22  1.5
    X_P0_T22  CAP_M10_T22  2.4
    X_P0_T22  CAP_M11_T22  0.9
    X_P1_T22  COST      34.7
    X_P1_T22  BAL_P1_T22  1
    X_P1_T22  CAP_M0_T22  1
    X_P1_T22  CAP_M1_T22  2.2
    X_P1_T22  CAP_M2_T22  1
    X_P1_T22  CAP_M3_T22  2.4
    X_P1_T22  CAP_M4_T22  3
    X_P1_T22  CAP_M5_T22  2.2
    X_P1_T22  CAP_M6_T22  2.7
    X_P1_T22  CAP_M7_T22  1.4
    X_P1_T22  CAP_M8_T22  1.9
    X_P1_T22  CAP_M9_T22  0.9
    X_P1_T22  CAP_M10_T22  2.9
    X_P1_T22  CAP_M11_T22  2.2
    X_P2_T22  COST      16.1
    X_P2_T22  BAL_P2_T22  1
    X_P2_T22  CAP_M0_T22  2.6
    X_P2_T22  CAP_M1_T22  1.4
    X_P2_T22  CAP_M2_T22  0.8
    X_P2_T22  CAP_M3_T22  2.3
    X_P2_T22  CAP_M4_T22  2.5
    X_P2_T22  CAP_M5_T22  1
    X_P2_T22  CAP_M6_T22  1.2
    X_P2_T22  CAP_M7_T22  1
    X_P2_T22  CAP_M8_T22  1.1
    X_P2_T22  CAP_M9_T22  1.9
    X_P2_T22  CAP_M10_T22  3
    X_P2_T22  CAP_M11_T22  0.8
    X_P3_T22  COST      32.2
    X_P3_T22  BAL_P3_T22  1
    X_P3_T22  CAP_M0_T22  1.8
    X_P3_T22  CAP_M1_T22  2.8
    X_P3_T22  CAP_M2_T22  2.1
    X_P3_T22  CAP_M3_T22  1.6
    X_P3_T22  CAP_M4_T22  1.1
    X_P3_T22  CAP_M5_T22  0.7
    X_P3_T22  CAP_M6_T22  2
    X_P3_T22  CAP_M7_T22  2.7
    X_P3_T22  CAP_M8_T22  1.9
    X_P3_T22  CAP_M9_T22  2.6
    X_P3_T22  CAP_M10_T22  2.1
    X_P3_T22  CAP_M11_T22  2.3
    X_P4_T22  COST      16.2
    X_P4_T22  BAL_P4_T22  1
    X_P4_T22  CAP_M0_T22  1.9
    X_P4_T22  CAP_M1_T22  2
    X_P4_T22  CAP_M2_T22  2.5
    X_P4_T22  CAP_M3_T22  2.7
    X_P4_T22  CAP_M4_T22  2.1
    X_P4_T22  CAP_M5_T22  1.2
    X_P4_T22  CAP_M6_T22  1.6
    X_P4_T22  CAP_M7_T22  1.6
    X_P4_T22  CAP_M8_T22  2.1
    X_P4_T22  CAP_M9_T22  1.7
    X_P4_T22  CAP_M10_T22  0.8
    X_P4_T22  CAP_M11_T22  1.6
    X_P5_T22  COST      41.6
    X_P5_T22  BAL_P5_T22  1
    X_P5_T22  CAP_M0_T22  2.1
    X_P5_T22  CAP_M1_T22  0.7
    X_P5_T22  CAP_M2_T22  2.9
    X_P5_T22  CAP_M3_T22  1.3
    X_P5_T22  CAP_M4_T22  2.6
    X_P5_T22  CAP_M5_T22  1.9
    X_P5_T22  CAP_M6_T22  2.4
    X_P5_T22  CAP_M7_T22  1.8
    X_P5_T22  CAP_M8_T22  1.4
    X_P5_T22  CAP_M9_T22  0.7
    X_P5_T22  CAP_M10_T22  0.6
    X_P5_T22  CAP_M11_T22  2.9
    X_P6_T22  COST      44.5
    X_P6_T22  BAL_P6_T22  1
    X_P6_T22  CAP_M0_T22  1.3
    X_P6_T22  CAP_M1_T22  1.8
    X_P6_T22  CAP_M2_T22  2.5
    X_P6_T22  CAP_M3_T22  2.2
    X_P6_T22  CAP_M4_T22  0.7
    X_P6_T22  CAP_M5_T22  1.5
    X_P6_T22  CAP_M6_T22  0.6
    X_P6_T22  CAP_M7_T22  1.9
    X_P6_T22  CAP_M8_T22  1.3
    X_P6_T22  CAP_M9_T22  2.1
    X_P6_T22  CAP_M10_T22  2.4
    X_P6_T22  CAP_M11_T22  1.1
    X_P7_T22  COST      38.2
    X_P7_T22  BAL_P7_T22  1
    X_P7_T22  CAP_M0_T22  1.1
    X_P7_T22  CAP_M1_T22  2.2
    X_P7_T22  CAP_M2_T22  2.5
    X_P7_T22  CAP_M3_T22  2.9
    X_P7_T22  CAP_M4_T22  1
    X_P7_T22  CAP_M5_T22  2.9
    X_P7_T22  CAP_M6_T22  2.4
    X_P7_T22  CAP_M7_T22  1.6
    X_P7_T22  CAP_M8_T22  1.4
    X_P7_T22  CAP_M9_T22  0.6
    X_P7_T22  CAP_M10_T22  1.6
    X_P7_T22  CAP_M11_T22  1.7
    X_P8_T22  COST      38
    X_P8_T22  BAL_P8_T22  1
    X_P8_T22  CAP_M0_T22  1.8
    X_P8_T22  CAP_M1_T22  0.7
    X_P8_T22  CAP_M2_T22  2.7
    X_P8_T22  CAP_M3_T22  2.3
    X_P8_T22  CAP_M4_T22  1.6
    X_P8_T22  CAP_M5_T22  1.3
    X_P8_T22  CAP_M6_T22  2.9
    X_P8_T22  CAP_M7_T22  1.1
    X_P8_T22  CAP_M8_T22  1.5
    X_P8_T22  CAP_M9_T22  2.1
    X_P8_T22  CAP_M10_T22  1.6
    X_P8_T22  CAP_M11_T22  0.7
    X_P9_T22  COST      21.5
    X_P9_T22  BAL_P9_T22  1
    X_P9_T22  CAP_M0_T22  1.3
    X_P9_T22  CAP_M1_T22  2.8
    X_P9_T22  CAP_M2_T22  1.3
    X_P9_T22  CAP_M3_T22  0.6
    X_P9_T22  CAP_M4_T22  1.7
    X_P9_T22  CAP_M5_T22  2.5
    X_P9_T22  CAP_M6_T22  1
    X_P9_T22  CAP_M7_T22  2.5
    X_P9_T22  CAP_M8_T22  2.7
    X_P9_T22  CAP_M9_T22  1.1
    X_P9_T22  CAP_M10_T22  1.8
    X_P9_T22  CAP_M11_T22  2.8
    X_P10_T22  COST      40.4
    X_P10_T22  BAL_P10_T22  1
    X_P10_T22  CAP_M0_T22  0.8
    X_P10_T22  CAP_M1_T22  0.8
    X_P10_T22  CAP_M2_T22  1.3
    X_P10_T22  CAP_M3_T22  0.8
    X_P10_T22  CAP_M4_T22  0.7
    X_P10_T22  CAP_M5_T22  1.7
    X_P10_T22  CAP_M6_T22  1.4
    X_P10_T22  CAP_M7_T22  1.3
    X_P10_T22  CAP_M8_T22  2.9
    X_P10_T22  CAP_M9_T22  1.6
    X_P10_T22  CAP_M10_T22  2.9
    X_P10_T22  CAP_M11_T22  0.7
    X_P11_T22  COST      33.6
    X_P11_T22  BAL_P11_T22  1
    X_P11_T22  CAP_M0_T22  2.4
    X_P11_T22  CAP_M1_T22  1.8
    X_P11_T22  CAP_M2_T22  1.8
    X_P11_T22  CAP_M3_T22  1.5
    X_P11_T22  CAP_M4_T22  2.8
    X_P11_T22  CAP_M5_T22  1.4
    X_P11_T22  CAP_M6_T22  0.7
    X_P11_T22  CAP_M7_T22  0.7
    X_P11_T22  CAP_M8_T22  2
    X_P11_T22  CAP_M9_T22  1.5
    X_P11_T22  CAP_M10_T22  1.7
    X_P11_T22  CAP_M11_T22  2.8
    X_P12_T22  COST      35.4
    X_P12_T22  BAL_P12_T22  1
    X_P12_T22  CAP_M0_T22  2.4
    X_P12_T22  CAP_M1_T22  2.3
    X_P12_T22  CAP_M2_T22  1.7
    X_P12_T22  CAP_M3_T22  2
    X_P12_T22  CAP_M4_T22  1.9
    X_P12_T22  CAP_M5_T22  1.2
    X_P12_T22  CAP_M6_T22  1.7
    X_P12_T22  CAP_M7_T22  1.4
    X_P12_T22  CAP_M8_T22  2
    X_P12_T22  CAP_M9_T22  1.6
    X_P12_T22  CAP_M10_T22  1.3
    X_P12_T22  CAP_M11_T22  2.7
    X_P13_T22  COST      44.4
    X_P13_T22  BAL_P13_T22  1
    X_P13_T22  CAP_M0_T22  2.2
    X_P13_T22  CAP_M1_T22  0.8
    X_P13_T22  CAP_M2_T22  2.7
    X_P13_T22  CAP_M3_T22  2.1
    X_P13_T22  CAP_M4_T22  1.8
    X_P13_T22  CAP_M5_T22  1.2
    X_P13_T22  CAP_M6_T22  1
    X_P13_T22  CAP_M7_T22  1.2
    X_P13_T22  CAP_M8_T22  1.8
    X_P13_T22  CAP_M9_T22  1
    X_P13_T22  CAP_M10_T22  1.3
    X_P13_T22  CAP_M11_T22  1.2
    X_P14_T22  COST      10.9
    X_P14_T22  BAL_P14_T22  1
    X_P14_T22  CAP_M0_T22  1.1
    X_P14_T22  CAP_M1_T22  1.8
    X_P14_T22  CAP_M2_T22  1.9
    X_P14_T22  CAP_M3_T22  1.4
    X_P14_T22  CAP_M4_T22  1.5
    X_P14_T22  CAP_M5_T22  1.9
    X_P14_T22  CAP_M6_T22  2.7
    X_P14_T22  CAP_M7_T22  0.8
    X_P14_T22  CAP_M8_T22  1.7
    X_P14_T22  CAP_M9_T22  2.2
    X_P14_T22  CAP_M10_T22  2.7
    X_P14_T22  CAP_M11_T22  1.2
    X_P15_T22  COST      12.2
    X_P15_T22  BAL_P15_T22  1
    X_P15_T22  CAP_M0_T22  0.8
    X_P15_T22  CAP_M1_T22  0.8
    X_P15_T22  CAP_M2_T22  2.4
    X_P15_T22  CAP_M3_T22  2.3
    X_P15_T22  CAP_M4_T22  1.8
    X_P15_T22  CAP_M5_T22  0.8
    X_P15_T22  CAP_M6_T22  0.8
    X_P15_T22  CAP_M7_T22  1.4
    X_P15_T22  CAP_M8_T22  1.3
    X_P15_T22  CAP_M9_T22  1.8
    X_P15_T22  CAP_M10_T22  2.1
    X_P15_T22  CAP_M11_T22  1.5
    X_P16_T22  COST      33.4
    X_P16_T22  BAL_P16_T22  1
    X_P16_T22  CAP_M0_T22  1.1
    X_P16_T22  CAP_M1_T22  0.5
    X_P16_T22  CAP_M2_T22  1.2
    X_P16_T22  CAP_M3_T22  2.8
    X_P16_T22  CAP_M4_T22  1.1
    X_P16_T22  CAP_M5_T22  1
    X_P16_T22  CAP_M6_T22  1.8
    X_P16_T22  CAP_M7_T22  1.8
    X_P16_T22  CAP_M8_T22  2.5
    X_P16_T22  CAP_M9_T22  1.6
    X_P16_T22  CAP_M10_T22  2.7
    X_P16_T22  CAP_M11_T22  1.3
    X_P17_T22  COST      36.1
    X_P17_T22  BAL_P17_T22  1
    X_P17_T22  CAP_M0_T22  1.8
    X_P17_T22  CAP_M1_T22  2.2
    X_P17_T22  CAP_M2_T22  2.7
    X_P17_T22  CAP_M3_T22  2.2
    X_P17_T22  CAP_M4_T22  1.2
    X_P17_T22  CAP_M5_T22  1.3
    X_P17_T22  CAP_M6_T22  0.7
    X_P17_T22  CAP_M7_T22  1.3
    X_P17_T22  CAP_M8_T22  2.8
    X_P17_T22  CAP_M9_T22  1.4
    X_P17_T22  CAP_M10_T22  2.7
    X_P17_T22  CAP_M11_T22  2.2
    X_P18_T22  COST      35.2
    X_P18_T22  BAL_P18_T22  1
    X_P18_T22  CAP_M0_T22  1.3
    X_P18_T22  CAP_M1_T22  2.9
    X_P18_T22  CAP_M2_T22  1.7
    X_P18_T22  CAP_M3_T22  0.5
    X_P18_T22  CAP_M4_T22  2.4
    X_P18_T22  CAP_M5_T22  2.9
    X_P18_T22  CAP_M6_T22  2.1
    X_P18_T22  CAP_M7_T22  2.7
    X_P18_T22  CAP_M8_T22  1.4
    X_P18_T22  CAP_M9_T22  0.5
    X_P18_T22  CAP_M10_T22  2.1
    X_P18_T22  CAP_M11_T22  1.1
    X_P19_T22  COST      32.3
    X_P19_T22  BAL_P19_T22  1
    X_P19_T22  CAP_M0_T22  2.2
    X_P19_T22  CAP_M1_T22  2.8
    X_P19_T22  CAP_M2_T22  1.6
    X_P19_T22  CAP_M3_T22  2.6
    X_P19_T22  CAP_M4_T22  1.7
    X_P19_T22  CAP_M5_T22  1.3
    X_P19_T22  CAP_M6_T22  1
    X_P19_T22  CAP_M7_T22  1.5
    X_P19_T22  CAP_M8_T22  0.6
    X_P19_T22  CAP_M9_T22  2.8
    X_P19_T22  CAP_M10_T22  0.8
    X_P19_T22  CAP_M11_T22  0.8
    X_P20_T22  COST      22.5
    X_P20_T22  BAL_P20_T22  1
    X_P20_T22  CAP_M0_T22  1.2
    X_P20_T22  CAP_M1_T22  2
    X_P20_T22  CAP_M2_T22  1.4
    X_P20_T22  CAP_M3_T22  2.3
    X_P20_T22  CAP_M4_T22  1.5
    X_P20_T22  CAP_M5_T22  1.6
    X_P20_T22  CAP_M6_T22  2.6
    X_P20_T22  CAP_M7_T22  2.1
    X_P20_T22  CAP_M8_T22  1.2
    X_P20_T22  CAP_M9_T22  1
    X_P20_T22  CAP_M10_T22  2.3
    X_P20_T22  CAP_M11_T22  1.8
    X_P21_T22  COST      42.8
    X_P21_T22  BAL_P21_T22  1
    X_P21_T22  CAP_M0_T22  2.4
    X_P21_T22  CAP_M1_T22  1.9
    X_P21_T22  CAP_M2_T22  2.9
    X_P21_T22  CAP_M3_T22  2.7
    X_P21_T22  CAP_M4_T22  2.7
    X_P21_T22  CAP_M5_T22  1.7
    X_P21_T22  CAP_M6_T22  2.8
    X_P21_T22  CAP_M7_T22  2.5
    X_P21_T22  CAP_M8_T22  3
    X_P21_T22  CAP_M9_T22  2.7
    X_P21_T22  CAP_M10_T22  2.4
    X_P21_T22  CAP_M11_T22  2.4
    X_P22_T22  COST      38.5
    X_P22_T22  BAL_P22_T22  1
    X_P22_T22  CAP_M0_T22  0.6
    X_P22_T22  CAP_M1_T22  2.9
    X_P22_T22  CAP_M2_T22  2.1
    X_P22_T22  CAP_M3_T22  2.1
    X_P22_T22  CAP_M4_T22  2
    X_P22_T22  CAP_M5_T22  2.4
    X_P22_T22  CAP_M6_T22  2.2
    X_P22_T22  CAP_M7_T22  0.7
    X_P22_T22  CAP_M8_T22  0.5
    X_P22_T22  CAP_M9_T22  1.8
    X_P22_T22  CAP_M10_T22  1.1
    X_P22_T22  CAP_M11_T22  2.6
    X_P23_T22  COST      46.1
    X_P23_T22  BAL_P23_T22  1
    X_P23_T22  CAP_M0_T22  2.9
    X_P23_T22  CAP_M1_T22  1.2
    X_P23_T22  CAP_M2_T22  1.8
    X_P23_T22  CAP_M3_T22  1.8
    X_P23_T22  CAP_M4_T22  1.5
    X_P23_T22  CAP_M5_T22  0.5
    X_P23_T22  CAP_M6_T22  2.8
    X_P23_T22  CAP_M7_T22  1.9
    X_P23_T22  CAP_M8_T22  2.2
    X_P23_T22  CAP_M9_T22  2.9
    X_P23_T22  CAP_M10_T22  2.1
    X_P23_T22  CAP_M11_T22  2.2
    X_P24_T22  COST      26.4
    X_P24_T22  BAL_P24_T22  1
    X_P24_T22  CAP_M0_T22  1.1
    X_P24_T22  CAP_M1_T22  2.5
    X_P24_T22  CAP_M2_T22  1.3
    X_P24_T22  CAP_M3_T22  2.8
    X_P24_T22  CAP_M4_T22  1.1
    X_P24_T22  CAP_M5_T22  2
    X_P24_T22  CAP_M6_T22  1.4
    X_P24_T22  CAP_M7_T22  0.5
    X_P24_T22  CAP_M8_T22  1.2
    X_P24_T22  CAP_M9_T22  2.4
    X_P24_T22  CAP_M10_T22  0.6
    X_P24_T22  CAP_M11_T22  1.9
    S_P0_T22  COST      4.6
    S_P0_T22  BAL_P0_T22  -1
    S_P0_T22  STORAGE_T22  1
    S_P0_T22  BAL_P0_T23  1
    S_P1_T22  COST      1.4
    S_P1_T22  BAL_P1_T22  -1
    S_P1_T22  STORAGE_T22  1
    S_P1_T22  BAL_P1_T23  1
    S_P2_T22  COST      1.8
    S_P2_T22  BAL_P2_T22  -1
    S_P2_T22  STORAGE_T22  1
    S_P2_T22  BAL_P2_T23  1
    S_P3_T22  COST      2.3
    S_P3_T22  BAL_P3_T22  -1
    S_P3_T22  STORAGE_T22  1
    S_P3_T22  BAL_P3_T23  1
    S_P4_T22  COST      4.4
    S_P4_T22  BAL_P4_T22  -1
    S_P4_T22  STORAGE_T22  1
    S_P4_T22  BAL_P4_T23  1
    S_P5_T22  COST      2.7
    S_P5_T22  BAL_P5_T22  -1
    S_P5_T22  STORAGE_T22  1
    S_P5_T22  BAL_P5_T23  1
    S_P6_T22  COST      3.8
    S_P6_T22  BAL_P6_T22  -1
    S_P6_T22  STORAGE_T22  1
    S_P6_T22  BAL_P6_T23  1
    S_P7_T22  COST      3.2
    S_P7_T22  BAL_P7_T22  -1
    S_P7_T22  STORAGE_T22  1
    S_P7_T22  BAL_P7_T23  1
    S_P8_T22  COST      1.4
    S_P8_T22  BAL_P8_T22  -1
    S_P8_T22  STORAGE_T22  1
    S_P8_T22  BAL_P8_T23  1
    S_P9_T22  COST      1.7
    S_P9_T22  BAL_P9_T22  -1
    S_P9_T22  STORAGE_T22  1
    S_P9_T22  BAL_P9_T23  1
    S_P10_T22  COST      3.7
    S_P10_T22  BAL_P10_T22  -1
    S_P10_T22  STORAGE_T22  1
    S_P10_T22  BAL_P10_T23  1
    S_P11_T22  COST      1.1
    S_P11_T22  BAL_P11_T22  -1
    S_P11_T22  STORAGE_T22  1
    S_P11_T22  BAL_P11_T23  1
    S_P12_T22  COST      2.6
    S_P12_T22  BAL_P12_T22  -1
    S_P12_T22  STORAGE_T22  1
    S_P12_T22  BAL_P12_T23  1
    S_P13_T22  COST      1.1
    S_P13_T22  BAL_P13_T22  -1
    S_P13_T22  STORAGE_T22  1
    S_P13_T22  BAL_P13_T23  1
    S_P14_T22  COST      4.6
    S_P14_T22  BAL_P14_T22  -1
    S_P14_T22  STORAGE_T22  1
    S_P14_T22  BAL_P14_T23  1
    S_P15_T22  COST      2
    S_P15_T22  BAL_P15_T22  -1
    S_P15_T22  STORAGE_T22  1
    S_P15_T22  BAL_P15_T23  1
    S_P16_T22  COST      3.4
    S_P16_T22  BAL_P16_T22  -1
    S_P16_T22  STORAGE_T22  1
    S_P16_T22  BAL_P16_T23  1
    S_P17_T22  COST      1.8
    S_P17_T22  BAL_P17_T22  -1
    S_P17_T22  STORAGE_T22  1
    S_P17_T22  BAL_P17_T23  1
    S_P18_T22  COST      3.4
    S_P18_T22  BAL_P18_T22  -1
    S_P18_T22  STORAGE_T22  1
    S_P18_T22  BAL_P18_T23  1
    S_P19_T22  COST      3.9
    S_P19_T22  BAL_P19_T22  -1
    S_P19_T22  STORAGE_T22  1
    S_P19_T22  BAL_P19_T23  1
    S_P20_T22  COST      1.9
    S_P20_T22  BAL_P20_T22  -1
    S_P20_T22  STORAGE_T22  1
    S_P20_T22  BAL_P20_T23  1
    S_P21_T22  COST      1.7
    S_P21_T22  BAL_P21_T22  -1
    S_P21_T22  STORAGE_T22  1
    S_P21_T22  BAL_P21_T23  1
    S_P22_T22  COST      1.1
    S_P22_T22  BAL_P22_T22  -1
    S_P22_T22  STORAGE_T22  1
    S_P22_T22  BAL_P22_T23  1
    S_P23_T22  COST      3.1
    S_P23_T22  BAL_P23_T22  -1
    S_P23_T22  STORAGE_T22  1
    S_P23_T22  BAL_P23_T23  1
    S_P24_T22  COST      3.6
    S_P24_T22  BAL_P24_T22  -1
    S_P24_T22  STORAGE_T22  1
    S_P24_T22  BAL_P24_T23  1
    X_P0_T23  COST      14.9
    X_P0_T23  BAL_P0_T23  1
    X_P0_T23  CAP_M0_T23  1.4
    X_P0_T23  CAP_M1_T23  2.4
    X_P0_T23  CAP_M2_T23  0.5
    X_P0_T23  CAP_M3_T23  1
    X_P0_T23  CAP_M4_T23  1.3
    X_P0_T23  CAP_M5_T23  0.8
    X_P0_T23  CAP_M6_T23  1
    X_P0_T23  CAP_M7_T23  1.7
    X_P0_T23  CAP_M8_T23  0.7
    X_P0_T23  CAP_M9_T23  1.5
    X_P0_T23  CAP_M10_T23  2.4
    X_P0_T23  CAP_M11_T23  0.9
    X_P1_T23  COST      26.6
    X_P1_T23  BAL_P1_T23  1
    X_P1_T23  CAP_M0_T23  1
    X_P1_T23  CAP_M1_T23  2.2
    X_P1_T23  CAP_M2_T23  1
    X_P1_T23  CAP_M3_T23  2.4
    X_P1_T23  CAP_M4_T23  3
    X_P1_T23  CAP_M5_T23  2.2
    X_P1_T23  CAP_M6_T23  2.7
    X_P1_T23  CAP_M7_T23  1.4
    X_P1_T23  CAP_M8_T23  1.9
    X_P1_T23  CAP_M9_T23  0.9
    X_P1_T23  CAP_M10_T23  2.9
    X_P1_T23  CAP_M11_T23  2.2
    X_P2_T23  COST      26.1
    X_P2_T23  BAL_P2_T23  1
    X_P2_T23  CAP_M0_T23  2.6
    X_P2_T23  CAP_M1_T23  1.4
    X_P2_T23  CAP_M2_T23  0.8
    X_P2_T23  CAP_M3_T23  2.3
    X_P2_T23  CAP_M4_T23  2.5
    X_P2_T23  CAP_M5_T23  1
    X_P2_T23  CAP_M6_T23  1.2
    X_P2_T23  CAP_M7_T23  1
    X_P2_T23  CAP_M8_T23  1.1
    X_P2_T23  CAP_M9_T23  1.9
    X_P2_T23  CAP_M10_T23  3
    X_P2_T23  CAP_M11_T23  0.8
    X_P3_T23  COST      43.8
    X_P3_T23  BAL_P3_T23  1
    X_P3_T23  CAP_M0_T23  1.8
    X_P3_T23  CAP_M1_T23  2.8
    X_P3_T23  CAP_M2_T23  2.1
    X_P3_T23  CAP_M3_T23  1.6
    X_P3_T23  CAP_M4_T23  1.1
    X_P3_T23  CAP_M5_T23  0.7
    X_P3_T23  CAP_M6_T23  2
    X_P3_T23  CAP_M7_T23  2.7
    X_P3_T23  CAP_M8_T23  1.9
    X_P3_T23  CAP_M9_T23  2.6
    X_P3_T23  CAP_M10_T23  2.1
    X_P3_T23  CAP_M11_T23  2.3
    X_P4_T23  COST      39.5
    X_P4_T23  BAL_P4_T23  1
    X_P4_T23  CAP_M0_T23  1.9
    X_P4_T23  CAP_M1_T23  2
    X_P4_T23  CAP_M2_T23  2.5
    X_P4_T23  CAP_M3_T23  2.7
    X_P4_T23  CAP_M4_T23  2.1
    X_P4_T23  CAP_M5_T23  1.2
    X_P4_T23  CAP_M6_T23  1.6
    X_P4_T23  CAP_M7_T23  1.6
    X_P4_T23  CAP_M8_T23  2.1
    X_P4_T23  CAP_M9_T23  1.7
    X_P4_T23  CAP_M10_T23  0.8
    X_P4_T23  CAP_M11_T23  1.6
    X_P5_T23  COST      33.7
    X_P5_T23  BAL_P5_T23  1
    X_P5_T23  CAP_M0_T23  2.1
    X_P5_T23  CAP_M1_T23  0.7
    X_P5_T23  CAP_M2_T23  2.9
    X_P5_T23  CAP_M3_T23  1.3
    X_P5_T23  CAP_M4_T23  2.6
    X_P5_T23  CAP_M5_T23  1.9
    X_P5_T23  CAP_M6_T23  2.4
    X_P5_T23  CAP_M7_T23  1.8
    X_P5_T23  CAP_M8_T23  1.4
    X_P5_T23  CAP_M9_T23  0.7
    X_P5_T23  CAP_M10_T23  0.6
    X_P5_T23  CAP_M11_T23  2.9
    X_P6_T23  COST      39.1
    X_P6_T23  BAL_P6_T23  1
    X_P6_T23  CAP_M0_T23  1.3
    X_P6_T23  CAP_M1_T23  1.8
    X_P6_T23  CAP_M2_T23  2.5
    X_P6_T23  CAP_M3_T23  2.2
    X_P6_T23  CAP_M4_T23  0.7
    X_P6_T23  CAP_M5_T23  1.5
    X_P6_T23  CAP_M6_T23  0.6
    X_P6_T23  CAP_M7_T23  1.9
    X_P6_T23  CAP_M8_T23  1.3
    X_P6_T23  CAP_M9_T23  2.1
    X_P6_T23  CAP_M10_T23  2.4
    X_P6_T23  CAP_M11_T23  1.1
    X_P7_T23  COST      48.7
    X_P7_T23  BAL_P7_T23  1
    X_P7_T23  CAP_M0_T23  1.1
    X_P7_T23  CAP_M1_T23  2.2
    X_P7_T23  CAP_M2_T23  2.5
    X_P7_T23  CAP_M3_T23  2.9
    X_P7_T23  CAP_M4_T23  1
    X_P7_T23  CAP_M5_T23  2.9
    X_P7_T23  CAP_M6_T23  2.4
    X_P7_T23  CAP_M7_T23  1.6
    X_P7_T23  CAP_M8_T23  1.4
    X_P7_T23  CAP_M9_T23  0.6
    X_P7_T23  CAP_M10_T23  1.6
    X_P7_T23  CAP_M11_T23  1.7
    X_P8_T23  COST      43.3
    X_P8_T23  BAL_P8_T23  1
    X_P8_T23  CAP_M0_T23  1.8
    X_P8_T23  CAP_M1_T23  0.7
    X_P8_T23  CAP_M2_T23  2.7
    X_P8_T23  CAP_M3_T23  2.3
    X_P8_T23  CAP_M4_T23  1.6
    X_P8_T23  CAP_M5_T23  1.3
    X_P8_T23  CAP_M6_T23  2.9
    X_P8_T23  CAP_M7_T23  1.1
    X_P8_T23  CAP_M8_T23  1.5
    X_P8_T23  CAP_M9_T23  2.1
    X_P8_T23  CAP_M10_T23  1.6
    X_P8_T23  CAP_M11_T23  0.7
    X_P9_T23  COST      41.4
    X_P9_T23  BAL_P9_T23  1
    X_P9_T23  CAP_M0_T23  1.3
    X_P9_T23  CAP_M1_T23  2.8
    X_P9_T23  CAP_M2_T23  1.3
    X_P9_T23  CAP_M3_T23  0.6
    X_P9_T23  CAP_M4_T23  1.7
    X_P9_T23  CAP_M5_T23  2.5
    X_P9_T23  CAP_M6_T23  1
    X_P9_T23  CAP_M7_T23  2.5
    X_P9_T23  CAP_M8_T23  2.7
    X_P9_T23  CAP_M9_T23  1.1
    X_P9_T23  CAP_M10_T23  1.8
    X_P9_T23  CAP_M11_T23  2.8
    X_P10_T23  COST      20.6
    X_P10_T23  BAL_P10_T23  1
    X_P10_T23  CAP_M0_T23  0.8
    X_P10_T23  CAP_M1_T23  0.8
    X_P10_T23  CAP_M2_T23  1.3
    X_P10_T23  CAP_M3_T23  0.8
    X_P10_T23  CAP_M4_T23  0.7
    X_P10_T23  CAP_M5_T23  1.7
    X_P10_T23  CAP_M6_T23  1.4
    X_P10_T23  CAP_M7_T23  1.3
    X_P10_T23  CAP_M8_T23  2.9
    X_P10_T23  CAP_M9_T23  1.6
    X_P10_T23  CAP_M10_T23  2.9
    X_P10_T23  CAP_M11_T23  0.7
    X_P11_T23  COST      22
    X_P11_T23  BAL_P11_T23  1
    X_P11_T23  CAP_M0_T23  2.4
    X_P11_T23  CAP_M1_T23  1.8
    X_P11_T23  CAP_M2_T23  1.8
    X_P11_T23  CAP_M3_T23  1.5
    X_P11_T23  CAP_M4_T23  2.8
    X_P11_T23  CAP_M5_T23  1.4
    X_P11_T23  CAP_M6_T23  0.7
    X_P11_T23  CAP_M7_T23  0.7
    X_P11_T23  CAP_M8_T23  2
    X_P11_T23  CAP_M9_T23  1.5
    X_P11_T23  CAP_M10_T23  1.7
    X_P11_T23  CAP_M11_T23  2.8
    X_P12_T23  COST      49.5
    X_P12_T23  BAL_P12_T23  1
    X_P12_T23  CAP_M0_T23  2.4
    X_P12_T23  CAP_M1_T23  2.3
    X_P12_T23  CAP_M2_T23  1.7
    X_P12_T23  CAP_M3_T23  2
    X_P12_T23  CAP_M4_T23  1.9
    X_P12_T23  CAP_M5_T23  1.2
    X_P12_T23  CAP_M6_T23  1.7
    X_P12_T23  CAP_M7_T23  1.4
    X_P12_T23  CAP_M8_T23  2
    X_P12_T23  CAP_M9_T23  1.6
    X_P12_T23  CAP_M10_T23  1.3
    X_P12_T23  CAP_M11_T23  2.7
    X_P13_T23  COST      22.8
    X_P13_T23  BAL_P13_T23  1
    X_P13_T23  CAP_M0_T23  2.2
    X_P13_T23  CAP_M1_T23  0.8
    X_P13_T23  CAP_M2_T23  2.7
    X_P13_T23  CAP_M3_T23  2.1
    X_P13_T23  CAP_M4_T23  1.8
    X_P13_T23  CAP_M5_T23  1.2
    X_P13_T23  CAP_M6_T23  1
    X_P13_T23  CAP_M7_T23  1.2
    X_P13_T23  CAP_M8_T23  1.8
    X_P13_T23  CAP_M9_T23  1
    X_P13_T23  CAP_M10_T23  1.3
    X_P13_T23  CAP_M11_T23  1.2
    X_P14_T23  COST      28.4
    X_P14_T23  BAL_P14_T23  1
    X_P14_T23  CAP_M0_T23  1.1
    X_P14_T23  CAP_M1_T23  1.8
    X_P14_T23  CAP_M2_T23  1.9
    X_P14_T23  CAP_M3_T23  1.4
    X_P14_T23  CAP_M4_T23  1.5
    X_P14_T23  CAP_M5_T23  1.9
    X_P14_T23  CAP_M6_T23  2.7
    X_P14_T23  CAP_M7_T23  0.8
    X_P14_T23  CAP_M8_T23  1.7
    X_P14_T23  CAP_M9_T23  2.2
    X_P14_T23  CAP_M10_T23  2.7
    X_P14_T23  CAP_M11_T23  1.2
    X_P15_T23  COST      40.6
    X_P15_T23  BAL_P15_T23  1
    X_P15_T23  CAP_M0_T23  0.8
    X_P15_T23  CAP_M1_T23  0.8
    X_P15_T23  CAP_M2_T23  2.4
    X_P15_T23  CAP_M3_T23  2.3
    X_P15_T23  CAP_M4_T23  1.8
    X_P15_T23  CAP_M5_T23  0.8
    X_P15_T23  CAP_M6_T23  0.8
    X_P15_T23  CAP_M7_T23  1.4
    X_P15_T23  CAP_M8_T23  1.3
    X_P15_T23  CAP_M9_T23  1.8
    X_P15_T23  CAP_M10_T23  2.1
    X_P15_T23  CAP_M11_T23  1.5
    X_P16_T23  COST      22.6
    X_P16_T23  BAL_P16_T23  1
    X_P16_T23  CAP_M0_T23  1.1
    X_P16_T23  CAP_M1_T23  0.5
    X_P16_T23  CAP_M2_T23  1.2
    X_P16_T23  CAP_M3_T23  2.8
    X_P16_T23  CAP_M4_T23  1.1
    X_P16_T23  CAP_M5_T23  1
    X_P16_T23  CAP_M6_T23  1.8
    X_P16_T23  CAP_M7_T23  1.8
    X_P16_T23  CAP_M8_T23  2.5
    X_P16_T23  CAP_M9_T23  1.6
    X_P16_T23  CAP_M10_T23  2.7
    X_P16_T23  CAP_M11_T23  1.3
    X_P17_T23  COST      21.7
    X_P17_T23  BAL_P17_T23  1
    X_P17_T23  CAP_M0_T23  1.8
    X_P17_T23  CAP_M1_T23  2.2
    X_P17_T23  CAP_M2_T23  2.7
    X_P17_T23  CAP_M3_T23  2.2
    X_P17_T23  CAP_M4_T23  1.2
    X_P17_T23  CAP_M5_T23  1.3
    X_P17_T23  CAP_M6_T23  0.7
    X_P17_T23  CAP_M7_T23  1.3
    X_P17_T23  CAP_M8_T23  2.8
    X_P17_T23  CAP_M9_T23  1.4
    X_P17_T23  CAP_M10_T23  2.7
    X_P17_T23  CAP_M11_T23  2.2
    X_P18_T23  COST      45.6
    X_P18_T23  BAL_P18_T23  1
    X_P18_T23  CAP_M0_T23  1.3
    X_P18_T23  CAP_M1_T23  2.9
    X_P18_T23  CAP_M2_T23  1.7
    X_P18_T23  CAP_M3_T23  0.5
    X_P18_T23  CAP_M4_T23  2.4
    X_P18_T23  CAP_M5_T23  2.9
    X_P18_T23  CAP_M6_T23  2.1
    X_P18_T23  CAP_M7_T23  2.7
    X_P18_T23  CAP_M8_T23  1.4
    X_P18_T23  CAP_M9_T23  0.5
    X_P18_T23  CAP_M10_T23  2.1
    X_P18_T23  CAP_M11_T23  1.1
    X_P19_T23  COST      26.9
    X_P19_T23  BAL_P19_T23  1
    X_P19_T23  CAP_M0_T23  2.2
    X_P19_T23  CAP_M1_T23  2.8
    X_P19_T23  CAP_M2_T23  1.6
    X_P19_T23  CAP_M3_T23  2.6
    X_P19_T23  CAP_M4_T23  1.7
    X_P19_T23  CAP_M5_T23  1.3
    X_P19_T23  CAP_M6_T23  1
    X_P19_T23  CAP_M7_T23  1.5
    X_P19_T23  CAP_M8_T23  0.6
    X_P19_T23  CAP_M9_T23  2.8
    X_P19_T23  CAP_M10_T23  0.8
    X_P19_T23  CAP_M11_T23  0.8
    X_P20_T23  COST      20
    X_P20_T23  BAL_P20_T23  1
    X_P20_T23  CAP_M0_T23  1.2
    X_P20_T23  CAP_M1_T23  2
    X_P20_T23  CAP_M2_T23  1.4
    X_P20_T23  CAP_M3_T23  2.3
    X_P20_T23  CAP_M4_T23  1.5
    X_P20_T23  CAP_M5_T23  1.6
    X_P20_T23  CAP_M6_T23  2.6
    X_P20_T23  CAP_M7_T23  2.1
    X_P20_T23  CAP_M8_T23  1.2
    X_P20_T23  CAP_M9_T23  1
    X_P20_T23  CAP_M10_T23  2.3
    X_P20_T23  CAP_M11_T23  1.8
    X_P21_T23  COST      15.2
    X_P21_T23  BAL_P21_T23  1
    X_P21_T23  CAP_M0_T23  2.4
    X_P21_T23  CAP_M1_T23  1.9
    X_P21_T23  CAP_M2_T23  2.9
    X_P21_T23  CAP_M3_T23  2.7
    X_P21_T23  CAP_M4_T23  2.7
    X_P21_T23  CAP_M5_T23  1.7
    X_P21_T23  CAP_M6_T23  2.8
    X_P21_T23  CAP_M7_T23  2.5
    X_P21_T23  CAP_M8_T23  3
    X_P21_T23  CAP_M9_T23  2.7
    X_P21_T23  CAP_M10_T23  2.4
    X_P21_T23  CAP_M11_T23  2.4
    X_P22_T23  COST      36.1
    X_P22_T23  BAL_P22_T23  1
    X_P22_T23  CAP_M0_T23  0.6
    X_P22_T23  CAP_M1_T23  2.9
    X_P22_T23  CAP_M2_T23  2.1
    X_P22_T23  CAP_M3_T23  2.1
    X_P22_T23  CAP_M4_T23  2
    X_P22_T23  CAP_M5_T23  2.4
    X_P22_T23  CAP_M6_T23  2.2
    X_P22_T23  CAP_M7_T23  0.7
    X_P22_T23  CAP_M8_T23  0.5
    X_P22_T23  CAP_M9_T23  1.8
    X_P22_T23  CAP_M10_T23  1.1
    X_P22_T23  CAP_M11_T23  2.6
    X_P23_T23  COST      19.9
    X_P23_T23  BAL_P23_T23  1
    X_P23_T23  CAP_M0_T23  2.9
    X_P23_T23  CAP_M1_T23  1.2
    X_P23_T23  CAP_M2_T23  1.8
    X_P23_T23  CAP_M3_T23  1.8
    X_P23_T23  CAP_M4_T23  1.5
    X_P23_T23  CAP_M5_T23  0.5
    X_P23_T23  CAP_M6_T23  2.8
    X_P23_T23  CAP_M7_T23  1.9
    X_P23_T23  CAP_M8_T23  2.2
    X_P23_T23  CAP_M9_T23  2.9
    X_P23_T23  CAP_M10_T23  2.1
    X_P23_T23  CAP_M11_T23  2.2
    X_P24_T23  COST      26.2
    X_P24_T23  BAL_P24_T23  1
    X_P24_T23  CAP_M0_T23  1.1
    X_P24_T23  CAP_M1_T23  2.5
    X_P24_T23  CAP_M2_T23  1.3
    X_P24_T23  CAP_M3_T23  2.8
    X_P24_T23  CAP_M4_T23  1.1
    X_P24_T23  CAP_M5_T23  2
    X_P24_T23  CAP_M6_T23  1.4
    X_P24_T23  CAP_M7_T23  0.5
    X_P24_T23  CAP_M8_T23  1.2
    X_P24_T23  CAP_M9_T23  2.4
    X_P24_T23  CAP_M10_T23  0.6
    X_P24_T23  CAP_M11_T23  1.9
    S_P0_T23  COST      1
    S_P0_T23  BAL_P0_T23  -1
    S_P0_T23  STORAGE_T23  1
    S_P0_T23  BAL_P0_T24  1
    S_P1_T23  COST      3.9
    S_P1_T23  BAL_P1_T23  -1
    S_P1_T23  STORAGE_T23  1
    S_P1_T23  BAL_P1_T24  1
    S_P2_T23  COST      2.4
    S_P2_T23  BAL_P2_T23  -1
    S_P2_T23  STORAGE_T23  1
    S_P2_T23  BAL_P2_T24  1
    S_P3_T23  COST      1.2
    S_P3_T23  BAL_P3_T23  -1
    S_P3_T23  STORAGE_T23  1
    S_P3_T23  BAL_P3_T24  1
    S_P4_T23  COST      3.3
    S_P4_T23  BAL_P4_T23  -1
    S_P4_T23  STORAGE_T23  1
    S_P4_T23  BAL_P4_T24  1
    S_P5_T23  COST      3.4
    S_P5_T23  BAL_P5_T23  -1
    S_P5_T23  STORAGE_T23  1
    S_P5_T23  BAL_P5_T24  1
    S_P6_T23  COST      3.7
    S_P6_T23  BAL_P6_T23  -1
    S_P6_T23  STORAGE_T23  1
    S_P6_T23  BAL_P6_T24  1
    S_P7_T23  COST      3
    S_P7_T23  BAL_P7_T23  -1
    S_P7_T23  STORAGE_T23  1
    S_P7_T23  BAL_P7_T24  1
    S_P8_T23  COST      1.8
    S_P8_T23  BAL_P8_T23  -1
    S_P8_T23  STORAGE_T23  1
    S_P8_T23  BAL_P8_T24  1
    S_P9_T23  COST      2.3
    S_P9_T23  BAL_P9_T23  -1
    S_P9_T23  STORAGE_T23  1
    S_P9_T23  BAL_P9_T24  1
    S_P10_T23  COST      1.9
    S_P10_T23  BAL_P10_T23  -1
    S_P10_T23  STORAGE_T23  1
    S_P10_T23  BAL_P10_T24  1
    S_P11_T23  COST      4.1
    S_P11_T23  BAL_P11_T23  -1
    S_P11_T23  STORAGE_T23  1
    S_P11_T23  BAL_P11_T24  1
    S_P12_T23  COST      1.6
    S_P12_T23  BAL_P12_T23  -1
    S_P12_T23  STORAGE_T23  1
    S_P12_T23  BAL_P12_T24  1
    S_P13_T23  COST      3.5
    S_P13_T23  BAL_P13_T23  -1
    S_P13_T23  STORAGE_T23  1
    S_P13_T23  BAL_P13_T24  1
    S_P14_T23  COST      1
    S_P14_T23  BAL_P14_T23  -1
    S_P14_T23  STORAGE_T23  1
    S_P14_T23  BAL_P14_T24  1
    S_P15_T23  COST      1.1
    S_P15_T23  BAL_P15_T23  -1
    S_P15_T23  STORAGE_T23  1
    S_P15_T23  BAL_P15_T24  1
    S_P16_T23  COST      2.2
    S_P16_T23  BAL_P16_T23  -1
    S_P16_T23  STORAGE_T23  1
    S_P16_T23  BAL_P16_T24  1
    S_P17_T23  COST      2.1
    S_P17_T23  BAL_P17_T23  -1
    S_P17_T23  STORAGE_T23  1
    S_P17_T23  BAL_P17_T24  1
    S_P18_T23  COST      3.8
    S_P18_T23  BAL_P18_T23  -1
    S_P18_T23  STORAGE_T23  1
    S_P18_T23  BAL_P18_T24  1
    S_P19_T23  COST      1.3
    S_P19_T23  BAL_P19_T23  -1
    S_P19_T23  STORAGE_T23  1
    S_P19_T23  BAL_P19_T24  1
    S_P20_T23  COST      2.8
    S_P20_T23  BAL_P20_T23  -1
    S_P20_T23  STORAGE_T23  1
    S_P20_T23  BAL_P20_T24  1
    S_P21_T23  COST      4.5
    S_P21_T23  BAL_P21_T23  -1
    S_P21_T23  STORAGE_T23  1
    S_P21_T23  BAL_P21_T24  1
    S_P22_T23  COST      1.1
    S_P22_T23  BAL_P22_T23  -1
    S_P22_T23  STORAGE_T23  1
    S_P22_T23  BAL_P22_T24  1
    S_P23_T23  COST      4
    S_P23_T23  BAL_P23_T23  -1
    S_P23_T23  STORAGE_T23  1
    S_P23_T23  BAL_P23_T24  1
    S_P24_T23  COST      2.3
    S_P24_T23  BAL_P24_T23  -1
    S_P24_T23  STORAGE_T23  1
    S_P24_T23  BAL_P24_T24  1
    X_P0_T24  COST      28.8
    X_P0_T24  BAL_P0_T24  1
    X_P0_T24  CAP_M0_T24  1.4
    X_P0_T24  CAP_M1_T24  2.4
    X_P0_T24  CAP_M2_T24  0.5
    X_P0_T24  CAP_M3_T24  1
    X_P0_T24  CAP_M4_T24  1.3
    X_P0_T24  CAP_M5_T24  0.8
    X_P0_T24  CAP_M6_T24  1
    X_P0_T24  CAP_M7_T24  1.7
    X_P0_T24  CAP_M8_T24  0.7
    X_P0_T24  CAP_M9_T24  1.5
    X_P0_T24  CAP_M10_T24  2.4
    X_P0_T24  CAP_M11_T24  0.9
    X_P1_T24  COST      32
    X_P1_T24  BAL_P1_T24  1
    X_P1_T24  CAP_M0_T24  1
    X_P1_T24  CAP_M1_T24  2.2
    X_P1_T24  CAP_M2_T24  1
    X_P1_T24  CAP_M3_T24  2.4
    X_P1_T24  CAP_M4_T24  3
    X_P1_T24  CAP_M5_T24  2.2
    X_P1_T24  CAP_M6_T24  2.7
    X_P1_T24  CAP_M7_T24  1.4
    X_P1_T24  CAP_M8_T24  1.9
    X_P1_T24  CAP_M9_T24  0.9
    X_P1_T24  CAP_M10_T24  2.9
    X_P1_T24  CAP_M11_T24  2.2
    X_P2_T24  COST      17.3
    X_P2_T24  BAL_P2_T24  1
    X_P2_T24  CAP_M0_T24  2.6
    X_P2_T24  CAP_M1_T24  1.4
    X_P2_T24  CAP_M2_T24  0.8
    X_P2_T24  CAP_M3_T24  2.3
    X_P2_T24  CAP_M4_T24  2.5
    X_P2_T24  CAP_M5_T24  1
    X_P2_T24  CAP_M6_T24  1.2
    X_P2_T24  CAP_M7_T24  1
    X_P2_T24  CAP_M8_T24  1.1
    X_P2_T24  CAP_M9_T24  1.9
    X_P2_T24  CAP_M10_T24  3
    X_P2_T24  CAP_M11_T24  0.8
    X_P3_T24  COST      20.3
    X_P3_T24  BAL_P3_T24  1
    X_P3_T24  CAP_M0_T24  1.8
    X_P3_T24  CAP_M1_T24  2.8
    X_P3_T24  CAP_M2_T24  2.1
    X_P3_T24  CAP_M3_T24  1.6
    X_P3_T24  CAP_M4_T24  1.1
    X_P3_T24  CAP_M5_T24  0.7
    X_P3_T24  CAP_M6_T24  2
    X_P3_T24  CAP_M7_T24  2.7
    X_P3_T24  CAP_M8_T24  1.9
    X_P3_T24  CAP_M9_T24  2.6
    X_P3_T24  CAP_M10_T24  2.1
    X_P3_T24  CAP_M11_T24  2.3
    X_P4_T24  COST      45.7
    X_P4_T24  BAL_P4_T24  1
    X_P4_T24  CAP_M0_T24  1.9
    X_P4_T24  CAP_M1_T24  2
    X_P4_T24  CAP_M2_T24  2.5
    X_P4_T24  CAP_M3_T24  2.7
    X_P4_T24  CAP_M4_T24  2.1
    X_P4_T24  CAP_M5_T24  1.2
    X_P4_T24  CAP_M6_T24  1.6
    X_P4_T24  CAP_M7_T24  1.6
    X_P4_T24  CAP_M8_T24  2.1
    X_P4_T24  CAP_M9_T24  1.7
    X_P4_T24  CAP_M10_T24  0.8
    X_P4_T24  CAP_M11_T24  1.6
    X_P5_T24  COST      18.9
    X_P5_T24  BAL_P5_T24  1
    X_P5_T24  CAP_M0_T24  2.1
    X_P5_T24  CAP_M1_T24  0.7
    X_P5_T24  CAP_M2_T24  2.9
    X_P5_T24  CAP_M3_T24  1.3
    X_P5_T24  CAP_M4_T24  2.6
    X_P5_T24  CAP_M5_T24  1.9
    X_P5_T24  CAP_M6_T24  2.4
    X_P5_T24  CAP_M7_T24  1.8
    X_P5_T24  CAP_M8_T24  1.4
    X_P5_T24  CAP_M9_T24  0.7
    X_P5_T24  CAP_M10_T24  0.6
    X_P5_T24  CAP_M11_T24  2.9
    X_P6_T24  COST      49
    X_P6_T24  BAL_P6_T24  1
    X_P6_T24  CAP_M0_T24  1.3
    X_P6_T24  CAP_M1_T24  1.8
    X_P6_T24  CAP_M2_T24  2.5
    X_P6_T24  CAP_M3_T24  2.2
    X_P6_T24  CAP_M4_T24  0.7
    X_P6_T24  CAP_M5_T24  1.5
    X_P6_T24  CAP_M6_T24  0.6
    X_P6_T24  CAP_M7_T24  1.9
    X_P6_T24  CAP_M8_T24  1.3
    X_P6_T24  CAP_M9_T24  2.1
    X_P6_T24  CAP_M10_T24  2.4
    X_P6_T24  CAP_M11_T24  1.1
    X_P7_T24  COST      10.1
    X_P7_T24  BAL_P7_T24  1
    X_P7_T24  CAP_M0_T24  1.1
    X_P7_T24  CAP_M1_T24  2.2
    X_P7_T24  CAP_M2_T24  2.5
    X_P7_T24  CAP_M3_T24  2.9
    X_P7_T24  CAP_M4_T24  1
    X_P7_T24  CAP_M5_T24  2.9
    X_P7_T24  CAP_M6_T24  2.4
    X_P7_T24  CAP_M7_T24  1.6
    X_P7_T24  CAP_M8_T24  1.4
    X_P7_T24  CAP_M9_T24  0.6
    X_P7_T24  CAP_M10_T24  1.6
    X_P7_T24  CAP_M11_T24  1.7
    X_P8_T24  COST      39.6
    X_P8_T24  BAL_P8_T24  1
    X_P8_T24  CAP_M0_T24  1.8
    X_P8_T24  CAP_M1_T24  0.7
    X_P8_T24  CAP_M2_T24  2.7
    X_P8_T24  CAP_M3_T24  2.3
    X_P8_T24  CAP_M4_T24  1.6
    X_P8_T24  CAP_M5_T24  1.3
    X_P8_T24  CAP_M6_T24  2.9
    X_P8_T24  CAP_M7_T24  1.1
    X_P8_T24  CAP_M8_T24  1.5
    X_P8_T24  CAP_M9_T24  2.1
    X_P8_T24  CAP_M10_T24  1.6
    X_P8_T24  CAP_M11_T24  0.7
    X_P9_T24  COST      17.7
    X_P9_T24  BAL_P9_T24  1
    X_P9_T24  CAP_M0_T24  1.3
    X_P9_T24  CAP_M1_T24  2.8
    X_P9_T24  CAP_M2_T24  1.3
    X_P9_T24  CAP_M3_T24  0.6
    X_P9_T24  CAP_M4_T24  1.7
    X_P9_T24  CAP_M5_T24  2.5
    X_P9_T24  CAP_M6_T24  1
    X_P9_T24  CAP_M7_T24  2.5
    X_P9_T24  CAP_M8_T24  2.7
    X_P9_T24  CAP_M9_T24  1.1
    X_P9_T24  CAP_M10_T24  1.8
    X_P9_T24  CAP_M11_T24  2.8
    X_P10_T24  COST      44.6
    X_P10_T24  BAL_P10_T24  1
    X_P10_T24  CAP_M0_T24  0.8
    X_P10_T24  CAP_M1_T24  0.8
    X_P10_T24  CAP_M2_T24  1.3
    X_P10_T24  CAP_M3_T24  0.8
    X_P10_T24  CAP_M4_T24  0.7
    X_P10_T24  CAP_M5_T24  1.7
    X_P10_T24  CAP_M6_T24  1.4
    X_P10_T24  CAP_M7_T24  1.3
    X_P10_T24  CAP_M8_T24  2.9
    X_P10_T24  CAP_M9_T24  1.6
    X_P10_T24  CAP_M10_T24  2.9
    X_P10_T24  CAP_M11_T24  0.7
    X_P11_T24  COST      36.5
    X_P11_T24  BAL_P11_T24  1
    X_P11_T24  CAP_M0_T24  2.4
    X_P11_T24  CAP_M1_T24  1.8
    X_P11_T24  CAP_M2_T24  1.8
    X_P11_T24  CAP_M3_T24  1.5
    X_P11_T24  CAP_M4_T24  2.8
    X_P11_T24  CAP_M5_T24  1.4
    X_P11_T24  CAP_M6_T24  0.7
    X_P11_T24  CAP_M7_T24  0.7
    X_P11_T24  CAP_M8_T24  2
    X_P11_T24  CAP_M9_T24  1.5
    X_P11_T24  CAP_M10_T24  1.7
    X_P11_T24  CAP_M11_T24  2.8
    X_P12_T24  COST      24.1
    X_P12_T24  BAL_P12_T24  1
    X_P12_T24  CAP_M0_T24  2.4
    X_P12_T24  CAP_M1_T24  2.3
    X_P12_T24  CAP_M2_T24  1.7
    X_P12_T24  CAP_M3_T24  2
    X_P12_T24  CAP_M4_T24  1.9
    X_P12_T24  CAP_M5_T24  1.2
    X_P12_T24  CAP_M6_T24  1.7
    X_P12_T24  CAP_M7_T24  1.4
    X_P12_T24  CAP_M8_T24  2
    X_P12_T24  CAP_M9_T24  1.6
    X_P12_T24  CAP_M10_T24  1.3
    X_P12_T24  CAP_M11_T24  2.7
    X_P13_T24  COST      20.1
    X_P13_T24  BAL_P13_T24  1
    X_P13_T24  CAP_M0_T24  2.2
    X_P13_T24  CAP_M1_T24  0.8
    X_P13_T24  CAP_M2_T24  2.7
    X_P13_T24  CAP_M3_T24  2.1
    X_P13_T24  CAP_M4_T24  1.8
    X_P13_T24  CAP_M5_T24  1.2
    X_P13_T24  CAP_M6_T24  1
    X_P13_T24  CAP_M7_T24  1.2
    X_P13_T24  CAP_M8_T24  1.8
    X_P13_T24  CAP_M9_T24  1
    X_P13_T24  CAP_M10_T24  1.3
    X_P13_T24  CAP_M11_T24  1.2
    X_P14_T24  COST      42.2
    X_P14_T24  BAL_P14_T24  1
    X_P14_T24  CAP_M0_T24  1.1
    X_P14_T24  CAP_M1_T24  1.8
    X_P14_T24  CAP_M2_T24  1.9
    X_P14_T24  CAP_M3_T24  1.4
    X_P14_T24  CAP_M4_T24  1.5
    X_P14_T24  CAP_M5_T24  1.9
    X_P14_T24  CAP_M6_T24  2.7
    X_P14_T24  CAP_M7_T24  0.8
    X_P14_T24  CAP_M8_T24  1.7
    X_P14_T24  CAP_M9_T24  2.2
    X_P14_T24  CAP_M10_T24  2.7
    X_P14_T24  CAP_M11_T24  1.2
    X_P15_T24  COST      46.3
    X_P15_T24  BAL_P15_T24  1
    X_P15_T24  CAP_M0_T24  0.8
    X_P15_T24  CAP_M1_T24  0.8
    X_P15_T24  CAP_M2_T24  2.4
    X_P15_T24  CAP_M3_T24  2.3
    X_P15_T24  CAP_M4_T24  1.8
    X_P15_T24  CAP_M5_T24  0.8
    X_P15_T24  CAP_M6_T24  0.8
    X_P15_T24  CAP_M7_T24  1.4
    X_P15_T24  CAP_M8_T24  1.3
    X_P15_T24  CAP_M9_T24  1.8
    X_P15_T24  CAP_M10_T24  2.1
    X_P15_T24  CAP_M11_T24  1.5
    X_P16_T24  COST      18.4
    X_P16_T24  BAL_P16_T24  1
    X_P16_T24  CAP_M0_T24  1.1
    X_P16_T24  CAP_M1_T24  0.5
    X_P16_T24  CAP_M2_T24  1.2
    X_P16_T24  CAP_M3_T24  2.8
    X_P16_T24  CAP_M4_T24  1.1
    X_P16_T24  CAP_M5_T24  1
    X_P16_T24  CAP_M6_T24  1.8
    X_P16_T24  CAP_M7_T24  1.8
    X_P16_T24  CAP_M8_T24  2.5
    X_P16_T24  CAP_M9_T24  1.6
    X_P16_T24  CAP_M10_T24  2.7
    X_P16_T24  CAP_M11_T24  1.3
    X_P17_T24  COST      27.7
    X_P17_T24  BAL_P17_T24  1
    X_P17_T24  CAP_M0_T24  1.8
    X_P17_T24  CAP_M1_T24  2.2
    X_P17_T24  CAP_M2_T24  2.7
    X_P17_T24  CAP_M3_T24  2.2
    X_P17_T24  CAP_M4_T24  1.2
    X_P17_T24  CAP_M5_T24  1.3
    X_P17_T24  CAP_M6_T24  0.7
    X_P17_T24  CAP_M7_T24  1.3
    X_P17_T24  CAP_M8_T24  2.8
    X_P17_T24  CAP_M9_T24  1.4
    X_P17_T24  CAP_M10_T24  2.7
    X_P17_T24  CAP_M11_T24  2.2
    X_P18_T24  COST      27.4
    X_P18_T24  BAL_P18_T24  1
    X_P18_T24  CAP_M0_T24  1.3
    X_P18_T24  CAP_M1_T24  2.9
    X_P18_T24  CAP_M2_T24  1.7
    X_P18_T24  CAP_M3_T24  0.5
    X_P18_T24  CAP_M4_T24  2.4
    X_P18_T24  CAP_M5_T24  2.9
    X_P18_T24  CAP_M6_T24  2.1
    X_P18_T24  CAP_M7_T24  2.7
    X_P18_T24  CAP_M8_T24  1.4
    X_P18_T24  CAP_M9_T24  0.5
    X_P18_T24  CAP_M10_T24  2.1
    X_P18_T24  CAP_M11_T24  1.1
    X_P19_T24  COST      20
    X_P19_T24  BAL_P19_T24  1
    X_P19_T24  CAP_M0_T24  2.2
    X_P19_T24  CAP_M1_T24  2.8
    X_P19_T24  CAP_M2_T24  1.6
    X_P19_T24  CAP_M3_T24  2.6
    X_P19_T24  CAP_M4_T24  1.7
    X_P19_T24  CAP_M5_T24  1.3
    X_P19_T24  CAP_M6_T24  1
    X_P19_T24  CAP_M7_T24  1.5
    X_P19_T24  CAP_M8_T24  0.6
    X_P19_T24  CAP_M9_T24  2.8
    X_P19_T24  CAP_M10_T24  0.8
    X_P19_T24  CAP_M11_T24  0.8
    X_P20_T24  COST      25.1
    X_P20_T24  BAL_P20_T24  1
    X_P20_T24  CAP_M0_T24  1.2
    X_P20_T24  CAP_M1_T24  2
    X_P20_T24  CAP_M2_T24  1.4
    X_P20_T24  CAP_M3_T24  2.3
    X_P20_T24  CAP_M4_T24  1.5
    X_P20_T24  CAP_M5_T24  1.6
    X_P20_T24  CAP_M6_T24  2.6
    X_P20_T24  CAP_M7_T24  2.1
    X_P20_T24  CAP_M8_T24  1.2
    X_P20_T24  CAP_M9_T24  1
    X_P20_T24  CAP_M10_T24  2.3
    X_P20_T24  CAP_M11_T24  1.8
    X_P21_T24  COST      39.6
    X_P21_T24  BAL_P21_T24  1
    X_P21_T24  CAP_M0_T24  2.4
    X_P21_T24  CAP_M1_T24  1.9
    X_P21_T24  CAP_M2_T24  2.9
    X_P21_T24  CAP_M3_T24  2.7
    X_P21_T24  CAP_M4_T24  2.7
    X_P21_T24  CAP_M5_T24  1.7
    X_P21_T24  CAP_M6_T24  2.8
    X_P21_T24  CAP_M7_T24  2.5
    X_P21_T24  CAP_M8_T24  3
    X_P21_T24  CAP_M9_T24  2.7
    X_P21_T24  CAP_M10_T24  2.4
    X_P21_T24  CAP_M11_T24  2.4
    X_P22_T24  COST      38.2
    X_P22_T24  BAL_P22_T24  1
    X_P22_T24  CAP_M0_T24  0.6
    X_P22_T24  CAP_M1_T24  2.9
    X_P22_T24  CAP_M2_T24  2.1
    X_P22_T24  CAP_M3_T24  2.1
    X_P22_T24  CAP_M4_T24  2
    X_P22_T24  CAP_M5_T24  2.4
    X_P22_T24  CAP_M6_T24  2.2
    X_P22_T24  CAP_M7_T24  0.7
    X_P22_T24  CAP_M8_T24  0.5
    X_P22_T24  CAP_M9_T24  1.8
    X_P22_T24  CAP_M10_T24  1.1
    X_P22_T24  CAP_M11_T24  2.6
    X_P23_T24  COST      20.3
    X_P23_T24  BAL_P23_T24  1
    X_P23_T24  CAP_M0_T24  2.9
    X_P23_T24  CAP_M1_T24  1.2
    X_P23_T24  CAP_M2_T24  1.8
    X_P23_T24  CAP_M3_T24  1.8
    X_P23_T24  CAP_M4_T24  1.5
    X_P23_T24  CAP_M5_T24  0.5
    X_P23_T24  CAP_M6_T24  2.8
    X_P23_T24  CAP_M7_T24  1.9
    X_P23_T24  CAP_M8_T24  2.2
    X_P23_T24  CAP_M9_T24  2.9
    X_P23_T24  CAP_M10_T24  2.1
    X_P23_T24  CAP_M11_T24  2.2
    X_P24_T24  COST      19.6
    X_P24_T24  BAL_P24_T24  1
    X_P24_T24  CAP_M0_T24  1.1
    X_P24_T24  CAP_M1_T24  2.5
    X_P24_T24  CAP_M2_T24  1.3
    X_P24_T24  CAP_M3_T24  2.8
    X_P24_T24  CAP_M4_T24  1.1
    X_P24_T24  CAP_M5_T24  2
    X_P24_T24  CAP_M6_T24  1.4
    X_P24_T24  CAP_M7_T24  0.5
    X_P24_T24  CAP_M8_T24  1.2
    X_P24_T24  CAP_M9_T24  2.4
    X_P24_T24  CAP_M10_T24  0.6
    X_P24_T24  CAP_M11_T24  1.9
    S_P0_T24  COST      2.3
    S_P0_T24  BAL_P0_T24  -1
    S_P0_T24  STORAGE_T24  1
    S_P0_T24  BAL_P0_T25  1
    S_P1_T24  COST      4.2
    S_P1_T24  BAL_P1_T24  -1
    S_P1_T24  STORAGE_T24  1
    S_P1_T24  BAL_P1_T25  1
    S_P2_T24  COST      1.8
    S_P2_T24  BAL_P2_T24  -1
    S_P2_T24  STORAGE_T24  1
    S_P2_T24  BAL_P2_T25  1
    S_P3_T24  COST      2.8
    S_P3_T24  BAL_P3_T24  -1
    S_P3_T24  STORAGE_T24  1
    S_P3_T24  BAL_P3_T25  1
    S_P4_T24  COST      2.8
    S_P4_T24  BAL_P4_T24  -1
    S_P4_T24  STORAGE_T24  1
    S_P4_T24  BAL_P4_T25  1
    S_P5_T24  COST      4.9
    S_P5_T24  BAL_P5_T24  -1
    S_P5_T24  STORAGE_T24  1
    S_P5_T24  BAL_P5_T25  1
    S_P6_T24  COST      2.5
    S_P6_T24  BAL_P6_T24  -1
    S_P6_T24  STORAGE_T24  1
    S_P6_T24  BAL_P6_T25  1
    S_P7_T24  COST      4.1
    S_P7_T24  BAL_P7_T24  -1
    S_P7_T24  STORAGE_T24  1
    S_P7_T24  BAL_P7_T25  1
    S_P8_T24  COST      2.7
    S_P8_T24  BAL_P8_T24  -1
    S_P8_T24  STORAGE_T24  1
    S_P8_T24  BAL_P8_T25  1
    S_P9_T24  COST      3.2
    S_P9_T24  BAL_P9_T24  -1
    S_P9_T24  STORAGE_T24  1
    S_P9_T24  BAL_P9_T25  1
    S_P10_T24  COST      3.2
    S_P10_T24  BAL_P10_T24  -1
    S_P10_T24  STORAGE_T24  1
    S_P10_T24  BAL_P10_T25  1
    S_P11_T24  COST      2.9
    S_P11_T24  BAL_P11_T24  -1
    S_P11_T24  STORAGE_T24  1
    S_P11_T24  BAL_P11_T25  1
    S_P12_T24  COST      4.1
    S_P12_T24  BAL_P12_T24  -1
    S_P12_T24  STORAGE_T24  1
    S_P12_T24  BAL_P12_T25  1
    S_P13_T24  COST      2.4
    S_P13_T24  BAL_P13_T24  -1
    S_P13_T24  STORAGE_T24  1
    S_P13_T24  BAL_P13_T25  1
    S_P14_T24  COST      1.3
    S_P14_T24  BAL_P14_T24  -1
    S_P14_T24  STORAGE_T24  1
    S_P14_T24  BAL_P14_T25  1
    S_P15_T24  COST      1.3
    S_P15_T24  BAL_P15_T24  -1
    S_P15_T24  STORAGE_T24  1
    S_P15_T24  BAL_P15_T25  1
    S_P16_T24  COST      2.6
    S_P16_T24  BAL_P16_T24  -1
    S_P16_T24  STORAGE_T24  1
    S_P16_T24  BAL_P16_T25  1
    S_P17_T24  COST      5
    S_P17_T24  BAL_P17_T24  -1
    S_P17_T24  STORAGE_T24  1
    S_P17_T24  BAL_P17_T25  1
    S_P18_T24  COST      5
    S_P18_T24  BAL_P18_T24  -1
    S_P18_T24  STORAGE_T24  1
    S_P18_T24  BAL_P18_T25  1
    S_P19_T24  COST      1.9
    S_P19_T24  BAL_P19_T24  -1
    S_P19_T24  STORAGE_T24  1
    S_P19_T24  BAL_P19_T25  1
    S_P20_T24  COST      4.8
    S_P20_T24  BAL_P20_T24  -1
    S_P20_T24  STORAGE_T24  1
    S_P20_T24  BAL_P20_T25  1
    S_P21_T24  COST      1.9
    S_P21_T24  BAL_P21_T24  -1
    S_P21_T24  STORAGE_T24  1
    S_P21_T24  BAL_P21_T25  1
    S_P22_T24  COST      3.3
    S_P22_T24  BAL_P22_T24  -1
    S_P22_T24  STORAGE_T24  1
    S_P22_T24  BAL_P22_T25  1
    S_P23_T24  COST      3.4
    S_P23_T24  BAL_P23_T24  -1
    S_P23_T24  STORAGE_T24  1
    S_P23_T24  BAL_P23_T25  1
    S_P24_T24  COST      4.1
    S_P24_T24  BAL_P24_T24  -1
    S_P24_T24  STORAGE_T24  1
    S_P24_T24  BAL_P24_T25  1
    X_P0_T25  COST      23.5
    X_P0_T25  BAL_P0_T25  1
    X_P0_T25  CAP_M0_T25  1.4
    X_P0_T25  CAP_M1_T25  2.4
    X_P0_T25  CAP_M2_T25  0.5
    X_P0_T25  CAP_M3_T25  1
    X_P0_T25  CAP_M4_T25  1.3
    X_P0_T25  CAP_M5_T25  0.8
    X_P0_T25  CAP_M6_T25  1
    X_P0_T25  CAP_M7_T25  1.7
    X_P0_T25  CAP_M8_T25  0.7
    X_P0_T25  CAP_M9_T25  1.5
    X_P0_T25  CAP_M10_T25  2.4
    X_P0_T25  CAP_M11_T25  0.9
    X_P1_T25  COST      17.5
    X_P1_T25  BAL_P1_T25  1
    X_P1_T25  CAP_M0_T25  1
    X_P1_T25  CAP_M1_T25  2.2
    X_P1_T25  CAP_M2_T25  1
    X_P1_T25  CAP_M3_T25  2.4
    X_P1_T25  CAP_M4_T25  3
    X_P1_T25  CAP_M5_T25  2.2
    X_P1_T25  CAP_M6_T25  2.7
    X_P1_T25  CAP_M7_T25  1.4
    X_P1_T25  CAP_M8_T25  1.9
    X_P1_T25  CAP_M9_T25  0.9
    X_P1_T25  CAP_M10_T25  2.9
    X_P1_T25  CAP_M11_T25  2.2
    X_P2_T25  COST      14.9
    X_P2_T25  BAL_P2_T25  1
    X_P2_T25  CAP_M0_T25  2.6
    X_P2_T25  CAP_M1_T25  1.4
    X_P2_T25  CAP_M2_T25  0.8
    X_P2_T25  CAP_M3_T25  2.3
    X_P2_T25  CAP_M4_T25  2.5
    X_P2_T25  CAP_M5_T25  1
    X_P2_T25  CAP_M6_T25  1.2
    X_P2_T25  CAP_M7_T25  1
    X_P2_T25  CAP_M8_T25  1.1
    X_P2_T25  CAP_M9_T25  1.9
    X_P2_T25  CAP_M10_T25  3
    X_P2_T25  CAP_M11_T25  0.8
    X_P3_T25  COST      16.3
    X_P3_T25  BAL_P3_T25  1
    X_P3_T25  CAP_M0_T25  1.8
    X_P3_T25  CAP_M1_T25  2.8
    X_P3_T25  CAP_M2_T25  2.1
    X_P3_T25  CAP_M3_T25  1.6
    X_P3_T25  CAP_M4_T25  1.1
    X_P3_T25  CAP_M5_T25  0.7
    X_P3_T25  CAP_M6_T25  2
    X_P3_T25  CAP_M7_T25  2.7
    X_P3_T25  CAP_M8_T25  1.9
    X_P3_T25  CAP_M9_T25  2.6
    X_P3_T25  CAP_M10_T25  2.1
    X_P3_T25  CAP_M11_T25  2.3
    X_P4_T25  COST      47.8
    X_P4_T25  BAL_P4_T25  1
    X_P4_T25  CAP_M0_T25  1.9
    X_P4_T25  CAP_M1_T25  2
    X_P4_T25  CAP_M2_T25  2.5
    X_P4_T25  CAP_M3_T25  2.7
    X_P4_T25  CAP_M4_T25  2.1
    X_P4_T25  CAP_M5_T25  1.2
    X_P4_T25  CAP_M6_T25  1.6
    X_P4_T25  CAP_M7_T25  1.6
    X_P4_T25  CAP_M8_T25  2.1
    X_P4_T25  CAP_M9_T25  1.7
    X_P4_T25  CAP_M10_T25  0.8
    X_P4_T25  CAP_M11_T25  1.6
    X_P5_T25  COST      35
    X_P5_T25  BAL_P5_T25  1
    X_P5_T25  CAP_M0_T25  2.1
    X_P5_T25  CAP_M1_T25  0.7
    X_P5_T25  CAP_M2_T25  2.9
    X_P5_T25  CAP_M3_T25  1.3
    X_P5_T25  CAP_M4_T25  2.6
    X_P5_T25  CAP_M5_T25  1.9
    X_P5_T25  CAP_M6_T25  2.4
    X_P5_T25  CAP_M7_T25  1.8
    X_P5_T25  CAP_M8_T25  1.4
    X_P5_T25  CAP_M9_T25  0.7
    X_P5_T25  CAP_M10_T25  0.6
    X_P5_T25  CAP_M11_T25  2.9
    X_P6_T25  COST      30.9
    X_P6_T25  BAL_P6_T25  1
    X_P6_T25  CAP_M0_T25  1.3
    X_P6_T25  CAP_M1_T25  1.8
    X_P6_T25  CAP_M2_T25  2.5
    X_P6_T25  CAP_M3_T25  2.2
    X_P6_T25  CAP_M4_T25  0.7
    X_P6_T25  CAP_M5_T25  1.5
    X_P6_T25  CAP_M6_T25  0.6
    X_P6_T25  CAP_M7_T25  1.9
    X_P6_T25  CAP_M8_T25  1.3
    X_P6_T25  CAP_M9_T25  2.1
    X_P6_T25  CAP_M10_T25  2.4
    X_P6_T25  CAP_M11_T25  1.1
    X_P7_T25  COST      46.4
    X_P7_T25  BAL_P7_T25  1
    X_P7_T25  CAP_M0_T25  1.1
    X_P7_T25  CAP_M1_T25  2.2
    X_P7_T25  CAP_M2_T25  2.5
    X_P7_T25  CAP_M3_T25  2.9
    X_P7_T25  CAP_M4_T25  1
    X_P7_T25  CAP_M5_T25  2.9
    X_P7_T25  CAP_M6_T25  2.4
    X_P7_T25  CAP_M7_T25  1.6
    X_P7_T25  CAP_M8_T25  1.4
    X_P7_T25  CAP_M9_T25  0.6
    X_P7_T25  CAP_M10_T25  1.6
    X_P7_T25  CAP_M11_T25  1.7
    X_P8_T25  COST      20.1
    X_P8_T25  BAL_P8_T25  1
    X_P8_T25  CAP_M0_T25  1.8
    X_P8_T25  CAP_M1_T25  0.7
    X_P8_T25  CAP_M2_T25  2.7
    X_P8_T25  CAP_M3_T25  2.3
    X_P8_T25  CAP_M4_T25  1.6
    X_P8_T25  CAP_M5_T25  1.3
    X_P8_T25  CAP_M6_T25  2.9
    X_P8_T25  CAP_M7_T25  1.1
    X_P8_T25  CAP_M8_T25  1.5
    X_P8_T25  CAP_M9_T25  2.1
    X_P8_T25  CAP_M10_T25  1.6
    X_P8_T25  CAP_M11_T25  0.7
    X_P9_T25  COST      44.4
    X_P9_T25  BAL_P9_T25  1
    X_P9_T25  CAP_M0_T25  1.3
    X_P9_T25  CAP_M1_T25  2.8
    X_P9_T25  CAP_M2_T25  1.3
    X_P9_T25  CAP_M3_T25  0.6
    X_P9_T25  CAP_M4_T25  1.7
    X_P9_T25  CAP_M5_T25  2.5
    X_P9_T25  CAP_M6_T25  1
    X_P9_T25  CAP_M7_T25  2.5
    X_P9_T25  CAP_M8_T25  2.7
    X_P9_T25  CAP_M9_T25  1.1
    X_P9_T25  CAP_M10_T25  1.8
    X_P9_T25  CAP_M11_T25  2.8
    X_P10_T25  COST      29
    X_P10_T25  BAL_P10_T25  1
    X_P10_T25  CAP_M0_T25  0.8
    X_P10_T25  CAP_M1_T25  0.8
    X_P10_T25  CAP_M2_T25  1.3
    X_P10_T25  CAP_M3_T25  0.8
    X_P10_T25  CAP_M4_T25  0.7
    X_P10_T25  CAP_M5_T25  1.7
    X_P10_T25  CAP_M6_T25  1.4
    X_P10_T25  CAP_M7_T25  1.3
    X_P10_T25  CAP_M8_T25  2.9
    X_P10_T25  CAP_M9_T25  1.6
    X_P10_T25  CAP_M10_T25  2.9
    X_P10_T25  CAP_M11_T25  0.7
    X_P11_T25  COST      39.9
    X_P11_T25  BAL_P11_T25  1
    X_P11_T25  CAP_M0_T25  2.4
    X_P11_T25  CAP_M1_T25  1.8
    X_P11_T25  CAP_M2_T25  1.8
    X_P11_T25  CAP_M3_T25  1.5
    X_P11_T25  CAP_M4_T25  2.8
    X_P11_T25  CAP_M5_T25  1.4
    X_P11_T25  CAP_M6_T25  0.7
    X_P11_T25  CAP_M7_T25  0.7
    X_P11_T25  CAP_M8_T25  2
    X_P11_T25  CAP_M9_T25  1.5
    X_P11_T25  CAP_M10_T25  1.7
    X_P11_T25  CAP_M11_T25  2.8
    X_P12_T25  COST      47
    X_P12_T25  BAL_P12_T25  1
    X_P12_T25  CAP_M0_T25  2.4
    X_P12_T25  CAP_M1_T25  2.3
    X_P12_T25  CAP_M2_T25  1.7
    X_P12_T25  CAP_M3_T25  2
    X_P12_T25  CAP_M4_T25  1.9
    X_P12_T25  CAP_M5_T25  1.2
    X_P12_T25  CAP_M6_T25  1.7
    X_P12_T25  CAP_M7_T25  1.4
    X_P12_T25  CAP_M8_T25  2
    X_P12_T25  CAP_M9_T25  1.6
    X_P12_T25  CAP_M10_T25  1.3
    X_P12_T25  CAP_M11_T25  2.7
    X_P13_T25  COST      37.2
    X_P13_T25  BAL_P13_T25  1
    X_P13_T25  CAP_M0_T25  2.2
    X_P13_T25  CAP_M1_T25  0.8
    X_P13_T25  CAP_M2_T25  2.7
    X_P13_T25  CAP_M3_T25  2.1
    X_P13_T25  CAP_M4_T25  1.8
    X_P13_T25  CAP_M5_T25  1.2
    X_P13_T25  CAP_M6_T25  1
    X_P13_T25  CAP_M7_T25  1.2
    X_P13_T25  CAP_M8_T25  1.8
    X_P13_T25  CAP_M9_T25  1
    X_P13_T25  CAP_M10_T25  1.3
    X_P13_T25  CAP_M11_T25  1.2
    X_P14_T25  COST      30.6
    X_P14_T25  BAL_P14_T25  1
    X_P14_T25  CAP_M0_T25  1.1
    X_P14_T25  CAP_M1_T25  1.8
    X_P14_T25  CAP_M2_T25  1.9
    X_P14_T25  CAP_M3_T25  1.4
    X_P14_T25  CAP_M4_T25  1.5
    X_P14_T25  CAP_M5_T25  1.9
    X_P14_T25  CAP_M6_T25  2.7
    X_P14_T25  CAP_M7_T25  0.8
    X_P14_T25  CAP_M8_T25  1.7
    X_P14_T25  CAP_M9_T25  2.2
    X_P14_T25  CAP_M10_T25  2.7
    X_P14_T25  CAP_M11_T25  1.2
    X_P15_T25  COST      33.3
    X_P15_T25  BAL_P15_T25  1
    X_P15_T25  CAP_M0_T25  0.8
    X_P15_T25  CAP_M1_T25  0.8
    X_P15_T25  CAP_M2_T25  2.4
    X_P15_T25  CAP_M3_T25  2.3
    X_P15_T25  CAP_M4_T25  1.8
    X_P15_T25  CAP_M5_T25  0.8
    X_P15_T25  CAP_M6_T25  0.8
    X_P15_T25  CAP_M7_T25  1.4
    X_P15_T25  CAP_M8_T25  1.3
    X_P15_T25  CAP_M9_T25  1.8
    X_P15_T25  CAP_M10_T25  2.1
    X_P15_T25  CAP_M11_T25  1.5
    X_P16_T25  COST      17.5
    X_P16_T25  BAL_P16_T25  1
    X_P16_T25  CAP_M0_T25  1.1
    X_P16_T25  CAP_M1_T25  0.5
    X_P16_T25  CAP_M2_T25  1.2
    X_P16_T25  CAP_M3_T25  2.8
    X_P16_T25  CAP_M4_T25  1.1
    X_P16_T25  CAP_M5_T25  1
    X_P16_T25  CAP_M6_T25  1.8
    X_P16_T25  CAP_M7_T25  1.8
    X_P16_T25  CAP_M8_T25  2.5
    X_P16_T25  CAP_M9_T25  1.6
    X_P16_T25  CAP_M10_T25  2.7
    X_P16_T25  CAP_M11_T25  1.3
    X_P17_T25  COST      47.3
    X_P17_T25  BAL_P17_T25  1
    X_P17_T25  CAP_M0_T25  1.8
    X_P17_T25  CAP_M1_T25  2.2
    X_P17_T25  CAP_M2_T25  2.7
    X_P17_T25  CAP_M3_T25  2.2
    X_P17_T25  CAP_M4_T25  1.2
    X_P17_T25  CAP_M5_T25  1.3
    X_P17_T25  CAP_M6_T25  0.7
    X_P17_T25  CAP_M7_T25  1.3
    X_P17_T25  CAP_M8_T25  2.8
    X_P17_T25  CAP_M9_T25  1.4
    X_P17_T25  CAP_M10_T25  2.7
    X_P17_T25  CAP_M11_T25  2.2
    X_P18_T25  COST      35.6
    X_P18_T25  BAL_P18_T25  1
    X_P18_T25  CAP_M0_T25  1.3
    X_P18_T25  CAP_M1_T25  2.9
    X_P18_T25  CAP_M2_T25  1.7
    X_P18_T25  CAP_M3_T25  0.5
    X_P18_T25  CAP_M4_T25  2.4
    X_P18_T25  CAP_M5_T25  2.9
    X_P18_T25  CAP_M6_T25  2.1
    X_P18_T25  CAP_M7_T25  2.7
    X_P18_T25  CAP_M8_T25  1.4
    X_P18_T25  CAP_M9_T25  0.5
    X_P18_T25  CAP_M10_T25  2.1
    X_P18_T25  CAP_M11_T25  1.1
    X_P19_T25  COST      11.2
    X_P19_T25  BAL_P19_T25  1
    X_P19_T25  CAP_M0_T25  2.2
    X_P19_T25  CAP_M1_T25  2.8
    X_P19_T25  CAP_M2_T25  1.6
    X_P19_T25  CAP_M3_T25  2.6
    X_P19_T25  CAP_M4_T25  1.7
    X_P19_T25  CAP_M5_T25  1.3
    X_P19_T25  CAP_M6_T25  1
    X_P19_T25  CAP_M7_T25  1.5
    X_P19_T25  CAP_M8_T25  0.6
    X_P19_T25  CAP_M9_T25  2.8
    X_P19_T25  CAP_M10_T25  0.8
    X_P19_T25  CAP_M11_T25  0.8
    X_P20_T25  COST      40
    X_P20_T25  BAL_P20_T25  1
    X_P20_T25  CAP_M0_T25  1.2
    X_P20_T25  CAP_M1_T25  2
    X_P20_T25  CAP_M2_T25  1.4
    X_P20_T25  CAP_M3_T25  2.3
    X_P20_T25  CAP_M4_T25  1.5
    X_P20_T25  CAP_M5_T25  1.6
    X_P20_T25  CAP_M6_T25  2.6
    X_P20_T25  CAP_M7_T25  2.1
    X_P20_T25  CAP_M8_T25  1.2
    X_P20_T25  CAP_M9_T25  1
    X_P20_T25  CAP_M10_T25  2.3
    X_P20_T25  CAP_M11_T25  1.8
    X_P21_T25  COST      24.8
    X_P21_T25  BAL_P21_T25  1
    X_P21_T25  CAP_M0_T25  2.4
    X_P21_T25  CAP_M1_T25  1.9
    X_P21_T25  CAP_M2_T25  2.9
    X_P21_T25  CAP_M3_T25  2.7
    X_P21_T25  CAP_M4_T25  2.7
    X_P21_T25  CAP_M5_T25  1.7
    X_P21_T25  CAP_M6_T25  2.8
    X_P21_T25  CAP_M7_T25  2.5
    X_P21_T25  CAP_M8_T25  3
    X_P21_T25  CAP_M9_T25  2.7
    X_P21_T25  CAP_M10_T25  2.4
    X_P21_T25  CAP_M11_T25  2.4
    X_P22_T25  COST      32.6
    X_P22_T25  BAL_P22_T25  1
    X_P22_T25  CAP_M0_T25  0.6
    X_P22_T25  CAP_M1_T25  2.9
    X_P22_T25  CAP_M2_T25  2.1
    X_P22_T25  CAP_M3_T25  2.1
    X_P22_T25  CAP_M4_T25  2
    X_P22_T25  CAP_M5_T25  2.4
    X_P22_T25  CAP_M6_T25  2.2
    X_P22_T25  CAP_M7_T25  0.7
    X_P22_T25  CAP_M8_T25  0.5
    X_P22_T25  CAP_M9_T25  1.8
    X_P22_T25  CAP_M10_T25  1.1
    X_P22_T25  CAP_M11_T25  2.6
    X_P23_T25  COST      48
    X_P23_T25  BAL_P23_T25  1
    X_P23_T25  CAP_M0_T25  2.9
    X_P23_T25  CAP_M1_T25  1.2
    X_P23_T25  CAP_M2_T25  1.8
    X_P23_T25  CAP_M3_T25  1.8
    X_P23_T25  CAP_M4_T25  1.5
    X_P23_T25  CAP_M5_T25  0.5
    X_P23_T25  CAP_M6_T25  2.8
    X_P23_T25  CAP_M7_T25  1.9
    X_P23_T25  CAP_M8_T25  2.2
    X_P23_T25  CAP_M9_T25  2.9
    X_P23_T25  CAP_M10_T25  2.1
    X_P23_T25  CAP_M11_T25  2.2
    X_P24_T25  COST      36.9
    X_P24_T25  BAL_P24_T25  1
    X_P24_T25  CAP_M0_T25  1.1
    X_P24_T25  CAP_M1_T25  2.5
    X_P24_T25  CAP_M2_T25  1.3
    X_P24_T25  CAP_M3_T25  2.8
    X_P24_T25  CAP_M4_T25  1.1
    X_P24_T25  CAP_M5_T25  2
    X_P24_T25  CAP_M6_T25  1.4
    X_P24_T25  CAP_M7_T25  0.5
    X_P24_T25  CAP_M8_T25  1.2
    X_P24_T25  CAP_M9_T25  2.4
    X_P24_T25  CAP_M10_T25  0.6
    X_P24_T25  CAP_M11_T25  1.9
    S_P0_T25  COST      1.7
    S_P0_T25  BAL_P0_T25  -1
    S_P0_T25  STORAGE_T25  1
    S_P0_T25  BAL_P0_T26  1
    S_P1_T25  COST      1.9
    S_P1_T25  BAL_P1_T25  -1
    S_P1_T25  STORAGE_T25  1
    S_P1_T25  BAL_P1_T26  1
    S_P2_T25  COST      5
    S_P2_T25  BAL_P2_T25  -1
    S_P2_T25  STORAGE_T25  1
    S_P2_T25  BAL_P2_T26  1
    S_P3_T25  COST      1.9
    S_P3_T25  BAL_P3_T25  -1
    S_P3_T25  STORAGE_T25  1
    S_P3_T25  BAL_P3_T26  1
    S_P4_T25  COST      3.9
    S_P4_T25  BAL_P4_T25  -1
    S_P4_T25  STORAGE_T25  1
    S_P4_T25  BAL_P4_T26  1
    S_P5_T25  COST      1.2
    S_P5_T25  BAL_P5_T25  -1
    S_P5_T25  STORAGE_T25  1
    S_P5_T25  BAL_P5_T26  1
    S_P6_T25  COST      3.9
    S_P6_T25  BAL_P6_T25  -1
    S_P6_T25  STORAGE_T25  1
    S_P6_T25  BAL_P6_T26  1
    S_P7_T25  COST      3.1
    S_P7_T25  BAL_P7_T25  -1
    S_P7_T25  STORAGE_T25  1
    S_P7_T25  BAL_P7_T26  1
    S_P8_T25  COST      3.6
    S_P8_T25  BAL_P8_T25  -1
    S_P8_T25  STORAGE_T25  1
    S_P8_T25  BAL_P8_T26  1
    S_P9_T25  COST      3
    S_P9_T25  BAL_P9_T25  -1
    S_P9_T25  STORAGE_T25  1
    S_P9_T25  BAL_P9_T26  1
    S_P10_T25  COST      2.6
    S_P10_T25  BAL_P10_T25  -1
    S_P10_T25  STORAGE_T25  1
    S_P10_T25  BAL_P10_T26  1
    S_P11_T25  COST      4
    S_P11_T25  BAL_P11_T25  -1
    S_P11_T25  STORAGE_T25  1
    S_P11_T25  BAL_P11_T26  1
    S_P12_T25  COST      4.1
    S_P12_T25  BAL_P12_T25  -1
    S_P12_T25  STORAGE_T25  1
    S_P12_T25  BAL_P12_T26  1
    S_P13_T25  COST      1.9
    S_P13_T25  BAL_P13_T25  -1
    S_P13_T25  STORAGE_T25  1
    S_P13_T25  BAL_P13_T26  1
    S_P14_T25  COST      3.2
    S_P14_T25  BAL_P14_T25  -1
    S_P14_T25  STORAGE_T25  1
    S_P14_T25  BAL_P14_T26  1
    S_P15_T25  COST      4.8
    S_P15_T25  BAL_P15_T25  -1
    S_P15_T25  STORAGE_T25  1
    S_P15_T25  BAL_P15_T26  1
    S_P16_T25  COST      2.4
    S_P16_T25  BAL_P16_T25  -1
    S_P16_T25  STORAGE_T25  1
    S_P16_T25  BAL_P16_T26  1
    S_P17_T25  COST      2.1
    S_P17_T25  BAL_P17_T25  -1
    S_P17_T25  STORAGE_T25  1
    S_P17_T25  BAL_P17_T26  1
    S_P18_T25  COST      3.4
    S_P18_T25  BAL_P18_T25  -1
    S_P18_T25  STORAGE_T25  1
    S_P18_T25  BAL_P18_T26  1
    S_P19_T25  COST      1.6
    S_P19_T25  BAL_P19_T25  -1
    S_P19_T25  STORAGE_T25  1
    S_P19_T25  BAL_P19_T26  1
    S_P20_T25  COST      3.5
    S_P20_T25  BAL_P20_T25  -1
    S_P20_T25  STORAGE_T25  1
    S_P20_T25  BAL_P20_T26  1
    S_P21_T25  COST      3.5
    S_P21_T25  BAL_P21_T25  -1
    S_P21_T25  STORAGE_T25  1
    S_P21_T25  BAL_P21_T26  1
    S_P22_T25  COST      2
    S_P22_T25  BAL_P22_T25  -1
    S_P22_T25  STORAGE_T25  1
    S_P22_T25  BAL_P22_T26  1
    S_P23_T25  COST      4.8
    S_P23_T25  BAL_P23_T25  -1
    S_P23_T25  STORAGE_T25  1
    S_P23_T25  BAL_P23_T26  1
    S_P24_T25  COST      2.8
    S_P24_T25  BAL_P24_T25  -1
    S_P24_T25  STORAGE_T25  1
    S_P24_T25  BAL_P24_T26  1
    X_P0_T26  COST      44.1
    X_P0_T26  BAL_P0_T26  1
    X_P0_T26  CAP_M0_T26  1.4
    X_P0_T26  CAP_M1_T26  2.4
    X_P0_T26  CAP_M2_T26  0.5
    X_P0_T26  CAP_M3_T26  1
    X_P0_T26  CAP_M4_T26  1.3
    X_P0_T26  CAP_M5_T26  0.8
    X_P0_T26  CAP_M6_T26  1
    X_P0_T26  CAP_M7_T26  1.7
    X_P0_T26  CAP_M8_T26  0.7
    X_P0_T26  CAP_M9_T26  1.5
    X_P0_T26  CAP_M10_T26  2.4
    X_P0_T26  CAP_M11_T26  0.9
    X_P1_T26  COST      39.2
    X_P1_T26  BAL_P1_T26  1
    X_P1_T26  CAP_M0_T26  1
    X_P1_T26  CAP_M1_T26  2.2
    X_P1_T26  CAP_M2_T26  1
    X_P1_T26  CAP_M3_T26  2.4
    X_P1_T26  CAP_M4_T26  3
    X_P1_T26  CAP_M5_T26  2.2
    X_P1_T26  CAP_M6_T26  2.7
    X_P1_T26  CAP_M7_T26  1.4
    X_P1_T26  CAP_M8_T26  1.9
    X_P1_T26  CAP_M9_T26  0.9
    X_P1_T26  CAP_M10_T26  2.9
    X_P1_T26  CAP_M11_T26  2.2
    X_P2_T26  COST      11.7
    X_P2_T26  BAL_P2_T26  1
    X_P2_T26  CAP_M0_T26  2.6
    X_P2_T26  CAP_M1_T26  1.4
    X_P2_T26  CAP_M2_T26  0.8
    X_P2_T26  CAP_M3_T26  2.3
    X_P2_T26  CAP_M4_T26  2.5
    X_P2_T26  CAP_M5_T26  1
    X_P2_T26  CAP_M6_T26  1.2
    X_P2_T26  CAP_M7_T26  1
    X_P2_T26  CAP_M8_T26  1.1
    X_P2_T26  CAP_M9_T26  1.9
    X_P2_T26  CAP_M10_T26  3
    X_P2_T26  CAP_M11_T26  0.8
    X_P3_T26  COST      11.6
    X_P3_T26  BAL_P3_T26  1
    X_P3_T26  CAP_M0_T26  1.8
    X_P3_T26  CAP_M1_T26  2.8
    X_P3_T26  CAP_M2_T26  2.1
    X_P3_T26  CAP_M3_T26  1.6
    X_P3_T26  CAP_M4_T26  1.1
    X_P3_T26  CAP_M5_T26  0.7
    X_P3_T26  CAP_M6_T26  2
    X_P3_T26  CAP_M7_T26  2.7
    X_P3_T26  CAP_M8_T26  1.9
    X_P3_T26  CAP_M9_T26  2.6
    X_P3_T26  CAP_M10_T26  2.1
    X_P3_T26  CAP_M11_T26  2.3
    X_P4_T26  COST      44.9
    X_P4_T26  BAL_P4_T26  1
    X_P4_T26  CAP_M0_T26  1.9
    X_P4_T26  CAP_M1_T26  2
    X_P4_T26  CAP_M2_T26  2.5
    X_P4_T26  CAP_M3_T26  2.7
    X_P4_T26  CAP_M4_T26  2.1
    X_P4_T26  CAP_M5_T26  1.2
    X_P4_T26  CAP_M6_T26  1.6
    X_P4_T26  CAP_M7_T26  1.6
    X_P4_T26  CAP_M8_T26  2.1
    X_P4_T26  CAP_M9_T26  1.7
    X_P4_T26  CAP_M10_T26  0.8
    X_P4_T26  CAP_M11_T26  1.6
    X_P5_T26  COST      23.2
    X_P5_T26  BAL_P5_T26  1
    X_P5_T26  CAP_M0_T26  2.1
    X_P5_T26  CAP_M1_T26  0.7
    X_P5_T26  CAP_M2_T26  2.9
    X_P5_T26  CAP_M3_T26  1.3
    X_P5_T26  CAP_M4_T26  2.6
    X_P5_T26  CAP_M5_T26  1.9
    X_P5_T26  CAP_M6_T26  2.4
    X_P5_T26  CAP_M7_T26  1.8
    X_P5_T26  CAP_M8_T26  1.4
    X_P5_T26  CAP_M9_T26  0.7
    X_P5_T26  CAP_M10_T26  0.6
    X_P5_T26  CAP_M11_T26  2.9
    X_P6_T26  COST      45.5
    X_P6_T26  BAL_P6_T26  1
    X_P6_T26  CAP_M0_T26  1.3
    X_P6_T26  CAP_M1_T26  1.8
    X_P6_T26  CAP_M2_T26  2.5
    X_P6_T26  CAP_M3_T26  2.2
    X_P6_T26  CAP_M4_T26  0.7
    X_P6_T26  CAP_M5_T26  1.5
    X_P6_T26  CAP_M6_T26  0.6
    X_P6_T26  CAP_M7_T26  1.9
    X_P6_T26  CAP_M8_T26  1.3
    X_P6_T26  CAP_M9_T26  2.1
    X_P6_T26  CAP_M10_T26  2.4
    X_P6_T26  CAP_M11_T26  1.1
    X_P7_T26  COST      21.4
    X_P7_T26  BAL_P7_T26  1
    X_P7_T26  CAP_M0_T26  1.1
    X_P7_T26  CAP_M1_T26  2.2
    X_P7_T26  CAP_M2_T26  2.5
    X_P7_T26  CAP_M3_T26  2.9
    X_P7_T26  CAP_M4_T26  1
    X_P7_T26  CAP_M5_T26  2.9
    X_P7_T26  CAP_M6_T26  2.4
    X_P7_T26  CAP_M7_T26  1.6
    X_P7_T26  CAP_M8_T26  1.4
    X_P7_T26  CAP_M9_T26  0.6
    X_P7_T26  CAP_M10_T26  1.6
    X_P7_T26  CAP_M11_T26  1.7
    X_P8_T26  COST      14.1
    X_P8_T26  BAL_P8_T26  1
    X_P8_T26  CAP_M0_T26  1.8
    X_P8_T26  CAP_M1_T26  0.7
    X_P8_T26  CAP_M2_T26  2.7
    X_P8_T26  CAP_M3_T26  2.3
    X_P8_T26  CAP_M4_T26  1.6
    X_P8_T26  CAP_M5_T26  1.3
    X_P8_T26  CAP_M6_T26  2.9
    X_P8_T26  CAP_M7_T26  1.1
    X_P8_T26  CAP_M8_T26  1.5
    X_P8_T26  CAP_M9_T26  2.1
    X_P8_T26  CAP_M10_T26  1.6
    X_P8_T26  CAP_M11_T26  0.7
    X_P9_T26  COST      47.3
    X_P9_T26  BAL_P9_T26  1
    X_P9_T26  CAP_M0_T26  1.3
    X_P9_T26  CAP_M1_T26  2.8
    X_P9_T26  CAP_M2_T26  1.3
    X_P9_T26  CAP_M3_T26  0.6
    X_P9_T26  CAP_M4_T26  1.7
    X_P9_T26  CAP_M5_T26  2.5
    X_P9_T26  CAP_M6_T26  1
    X_P9_T26  CAP_M7_T26  2.5
    X_P9_T26  CAP_M8_T26  2.7
    X_P9_T26  CAP_M9_T26  1.1
    X_P9_T26  CAP_M10_T26  1.8
    X_P9_T26  CAP_M11_T26  2.8
    X_P10_T26  COST      42.3
    X_P10_T26  BAL_P10_T26  1
    X_P10_T26  CAP_M0_T26  0.8
    X_P10_T26  CAP_M1_T26  0.8
    X_P10_T26  CAP_M2_T26  1.3
    X_P10_T26  CAP_M3_T26  0.8
    X_P10_T26  CAP_M4_T26  0.7
    X_P10_T26  CAP_M5_T26  1.7
    X_P10_T26  CAP_M6_T26  1.4
    X_P10_T26  CAP_M7_T26  1.3
    X_P10_T26  CAP_M8_T26  2.9
    X_P10_T26  CAP_M9_T26  1.6
    X_P10_T26  CAP_M10_T26  2.9
    X_P10_T26  CAP_M11_T26  0.7
    X_P11_T26  COST      20.1
    X_P11_T26  BAL_P11_T26  1
    X_P11_T26  CAP_M0_T26  2.4
    X_P11_T26  CAP_M1_T26  1.8
    X_P11_T26  CAP_M2_T26  1.8
    X_P11_T26  CAP_M3_T26  1.5
    X_P11_T26  CAP_M4_T26  2.8
    X_P11_T26  CAP_M5_T26  1.4
    X_P11_T26  CAP_M6_T26  0.7
    X_P11_T26  CAP_M7_T26  0.7
    X_P11_T26  CAP_M8_T26  2
    X_P11_T26  CAP_M9_T26  1.5
    X_P11_T26  CAP_M10_T26  1.7
    X_P11_T26  CAP_M11_T26  2.8
    X_P12_T26  COST      24.1
    X_P12_T26  BAL_P12_T26  1
    X_P12_T26  CAP_M0_T26  2.4
    X_P12_T26  CAP_M1_T26  2.3
    X_P12_T26  CAP_M2_T26  1.7
    X_P12_T26  CAP_M3_T26  2
    X_P12_T26  CAP_M4_T26  1.9
    X_P12_T26  CAP_M5_T26  1.2
    X_P12_T26  CAP_M6_T26  1.7
    X_P12_T26  CAP_M7_T26  1.4
    X_P12_T26  CAP_M8_T26  2
    X_P12_T26  CAP_M9_T26  1.6
    X_P12_T26  CAP_M10_T26  1.3
    X_P12_T26  CAP_M11_T26  2.7
    X_P13_T26  COST      42.4
    X_P13_T26  BAL_P13_T26  1
    X_P13_T26  CAP_M0_T26  2.2
    X_P13_T26  CAP_M1_T26  0.8
    X_P13_T26  CAP_M2_T26  2.7
    X_P13_T26  CAP_M3_T26  2.1
    X_P13_T26  CAP_M4_T26  1.8
    X_P13_T26  CAP_M5_T26  1.2
    X_P13_T26  CAP_M6_T26  1
    X_P13_T26  CAP_M7_T26  1.2
    X_P13_T26  CAP_M8_T26  1.8
    X_P13_T26  CAP_M9_T26  1
    X_P13_T26  CAP_M10_T26  1.3
    X_P13_T26  CAP_M11_T26  1.2
    X_P14_T26  COST      26.1
    X_P14_T26  BAL_P14_T26  1
    X_P14_T26  CAP_M0_T26  1.1
    X_P14_T26  CAP_M1_T26  1.8
    X_P14_T26  CAP_M2_T26  1.9
    X_P14_T26  CAP_M3_T26  1.4
    X_P14_T26  CAP_M4_T26  1.5
    X_P14_T26  CAP_M5_T26  1.9
    X_P14_T26  CAP_M6_T26  2.7
    X_P14_T26  CAP_M7_T26  0.8
    X_P14_T26  CAP_M8_T26  1.7
    X_P14_T26  CAP_M9_T26  2.2
    X_P14_T26  CAP_M10_T26  2.7
    X_P14_T26  CAP_M11_T26  1.2
    X_P15_T26  COST      35.7
    X_P15_T26  BAL_P15_T26  1
    X_P15_T26  CAP_M0_T26  0.8
    X_P15_T26  CAP_M1_T26  0.8
    X_P15_T26  CAP_M2_T26  2.4
    X_P15_T26  CAP_M3_T26  2.3
    X_P15_T26  CAP_M4_T26  1.8
    X_P15_T26  CAP_M5_T26  0.8
    X_P15_T26  CAP_M6_T26  0.8
    X_P15_T26  CAP_M7_T26  1.4
    X_P15_T26  CAP_M8_T26  1.3
    X_P15_T26  CAP_M9_T26  1.8
    X_P15_T26  CAP_M10_T26  2.1
    X_P15_T26  CAP_M11_T26  1.5
    X_P16_T26  COST      36.4
    X_P16_T26  BAL_P16_T26  1
    X_P16_T26  CAP_M0_T26  1.1
    X_P16_T26  CAP_M1_T26  0.5
    X_P16_T26  CAP_M2_T26  1.2
    X_P16_T26  CAP_M3_T26  2.8
    X_P16_T26  CAP_M4_T26  1.1
    X_P16_T26  CAP_M5_T26  1
    X_P16_T26  CAP_M6_T26  1.8
    X_P16_T26  CAP_M7_T26  1.8
    X_P16_T26  CAP_M8_T26  2.5
    X_P16_T26  CAP_M9_T26  1.6
    X_P16_T26  CAP_M10_T26  2.7
    X_P16_T26  CAP_M11_T26  1.3
    X_P17_T26  COST      34.6
    X_P17_T26  BAL_P17_T26  1
    X_P17_T26  CAP_M0_T26  1.8
    X_P17_T26  CAP_M1_T26  2.2
    X_P17_T26  CAP_M2_T26  2.7
    X_P17_T26  CAP_M3_T26  2.2
    X_P17_T26  CAP_M4_T26  1.2
    X_P17_T26  CAP_M5_T26  1.3
    X_P17_T26  CAP_M6_T26  0.7
    X_P17_T26  CAP_M7_T26  1.3
    X_P17_T26  CAP_M8_T26  2.8
    X_P17_T26  CAP_M9_T26  1.4
    X_P17_T26  CAP_M10_T26  2.7
    X_P17_T26  CAP_M11_T26  2.2
    X_P18_T26  COST      29.9
    X_P18_T26  BAL_P18_T26  1
    X_P18_T26  CAP_M0_T26  1.3
    X_P18_T26  CAP_M1_T26  2.9
    X_P18_T26  CAP_M2_T26  1.7
    X_P18_T26  CAP_M3_T26  0.5
    X_P18_T26  CAP_M4_T26  2.4
    X_P18_T26  CAP_M5_T26  2.9
    X_P18_T26  CAP_M6_T26  2.1
    X_P18_T26  CAP_M7_T26  2.7
    X_P18_T26  CAP_M8_T26  1.4
    X_P18_T26  CAP_M9_T26  0.5
    X_P18_T26  CAP_M10_T26  2.1
    X_P18_T26  CAP_M11_T26  1.1
    X_P19_T26  COST      18.8
    X_P19_T26  BAL_P19_T26  1
    X_P19_T26  CAP_M0_T26  2.2
    X_P19_T26  CAP_M1_T26  2.8
    X_P19_T26  CAP_M2_T26  1.6
    X_P19_T26  CAP_M3_T26  2.6
    X_P19_T26  CAP_M4_T26  1.7
    X_P19_T26  CAP_M5_T26  1.3
    X_P19_T26  CAP_M6_T26  1
    X_P19_T26  CAP_M7_T26  1.5
    X_P19_T26  CAP_M8_T26  0.6
    X_P19_T26  CAP_M9_T26  2.8
    X_P19_T26  CAP_M10_T26  0.8
    X_P19_T26  CAP_M11_T26  0.8
    X_P20_T26  COST      49.4
    X_P20_T26  BAL_P20_T26  1
    X_P20_T26  CAP_M0_T26  1.2
    X_P20_T26  CAP_M1_T26  2
    X_P20_T26  CAP_M2_T26  1.4
    X_P20_T26  CAP_M3_T26  2.3
    X_P20_T26  CAP_M4_T26  1.5
    X_P20_T26  CAP_M5_T26  1.6
    X_P20_T26  CAP_M6_T26  2.6
    X_P20_T26  CAP_M7_T26  2.1
    X_P20_T26  CAP_M8_T26  1.2
    X_P20_T26  CAP_M9_T26  1
    X_P20_T26  CAP_M10_T26  2.3
    X_P20_T26  CAP_M11_T26  1.8
    X_P21_T26  COST      41.5
    X_P21_T26  BAL_P21_T26  1
    X_P21_T26  CAP_M0_T26  2.4
    X_P21_T26  CAP_M1_T26  1.9
    X_P21_T26  CAP_M2_T26  2.9
    X_P21_T26  CAP_M3_T26  2.7
    X_P21_T26  CAP_M4_T26  2.7
    X_P21_T26  CAP_M5_T26  1.7
    X_P21_T26  CAP_M6_T26  2.8
    X_P21_T26  CAP_M7_T26  2.5
    X_P21_T26  CAP_M8_T26  3
    X_P21_T26  CAP_M9_T26  2.7
    X_P21_T26  CAP_M10_T26  2.4
    X_P21_T26  CAP_M11_T26  2.4
    X_P22_T26  COST      43
    X_P22_T26  BAL_P22_T26  1
    X_P22_T26  CAP_M0_T26  0.6
    X_P22_T26  CAP_M1_T26  2.9
    X_P22_T26  CAP_M2_T26  2.1
    X_P22_T26  CAP_M3_T26  2.1
    X_P22_T26  CAP_M4_T26  2
    X_P22_T26  CAP_M5_T26  2.4
    X_P22_T26  CAP_M6_T26  2.2
    X_P22_T26  CAP_M7_T26  0.7
    X_P22_T26  CAP_M8_T26  0.5
    X_P22_T26  CAP_M9_T26  1.8
    X_P22_T26  CAP_M10_T26  1.1
    X_P22_T26  CAP_M11_T26  2.6
    X_P23_T26  COST      37
    X_P23_T26  BAL_P23_T26  1
    X_P23_T26  CAP_M0_T26  2.9
    X_P23_T26  CAP_M1_T26  1.2
    X_P23_T26  CAP_M2_T26  1.8
    X_P23_T26  CAP_M3_T26  1.8
    X_P23_T26  CAP_M4_T26  1.5
    X_P23_T26  CAP_M5_T26  0.5
    X_P23_T26  CAP_M6_T26  2.8
    X_P23_T26  CAP_M7_T26  1.9
    X_P23_T26  CAP_M8_T26  2.2
    X_P23_T26  CAP_M9_T26  2.9
    X_P23_T26  CAP_M10_T26  2.1
    X_P23_T26  CAP_M11_T26  2.2
    X_P24_T26  COST      20.5
    X_P24_T26  BAL_P24_T26  1
    X_P24_T26  CAP_M0_T26  1.1
    X_P24_T26  CAP_M1_T26  2.5
    X_P24_T26  CAP_M2_T26  1.3
    X_P24_T26  CAP_M3_T26  2.8
    X_P24_T26  CAP_M4_T26  1.1
    X_P24_T26  CAP_M5_T26  2
    X_P24_T26  CAP_M6_T26  1.4
    X_P24_T26  CAP_M7_T26  0.5
    X_P24_T26  CAP_M8_T26  1.2
    X_P24_T26  CAP_M9_T26  2.4
    X_P24_T26  CAP_M10_T26  0.6
    X_P24_T26  CAP_M11_T26  1.9
    S_P0_T26  COST      3.6
    S_P0_T26  BAL_P0_T26  -1
    S_P0_T26  STORAGE_T26  1
    S_P0_T26  BAL_P0_T27  1
    S_P1_T26  COST      4.9
    S_P1_T26  BAL_P1_T26  -1
    S_P1_T26  STORAGE_T26  1
    S_P1_T26  BAL_P1_T27  1
    S_P2_T26  COST      4.2
    S_P2_T26  BAL_P2_T26  -1
    S_P2_T26  STORAGE_T26  1
    S_P2_T26  BAL_P2_T27  1
    S_P3_T26  COST      4.5
    S_P3_T26  BAL_P3_T26  -1
    S_P3_T26  STORAGE_T26  1
    S_P3_T26  BAL_P3_T27  1
    S_P4_T26  COST      1.2
    S_P4_T26  BAL_P4_T26  -1
    S_P4_T26  STORAGE_T26  1
    S_P4_T26  BAL_P4_T27  1
    S_P5_T26  COST      4.2
    S_P5_T26  BAL_P5_T26  -1
    S_P5_T26  STORAGE_T26  1
    S_P5_T26  BAL_P5_T27  1
    S_P6_T26  COST      2.8
    S_P6_T26  BAL_P6_T26  -1
    S_P6_T26  STORAGE_T26  1
    S_P6_T26  BAL_P6_T27  1
    S_P7_T26  COST      4.4
    S_P7_T26  BAL_P7_T26  -1
    S_P7_T26  STORAGE_T26  1
    S_P7_T26  BAL_P7_T27  1
    S_P8_T26  COST      4
    S_P8_T26  BAL_P8_T26  -1
    S_P8_T26  STORAGE_T26  1
    S_P8_T26  BAL_P8_T27  1
    S_P9_T26  COST      1.4
    S_P9_T26  BAL_P9_T26  -1
    S_P9_T26  STORAGE_T26  1
    S_P9_T26  BAL_P9_T27  1
    S_P10_T26  COST      4.9
    S_P10_T26  BAL_P10_T26  -1
    S_P10_T26  STORAGE_T26  1
    S_P10_T26  BAL_P10_T27  1
    S_P11_T26  COST      2.8
    S_P11_T26  BAL_P11_T26  -1
    S_P11_T26  STORAGE_T26  1
    S_P11_T26  BAL_P11_T27  1
    S_P12_T26  COST      1.9
    S_P12_T26  BAL_P12_T26  -1
    S_P12_T26  STORAGE_T26  1
    S_P12_T26  BAL_P12_T27  1
    S_P13_T26  COST      1.6
    S_P13_T26  BAL_P13_T26  -1
    S_P13_T26  STORAGE_T26  1
    S_P13_T26  BAL_P13_T27  1
    S_P14_T26  COST      3.6
    S_P14_T26  BAL_P14_T26  -1
    S_P14_T26  STORAGE_T26  1
    S_P14_T26  BAL_P14_T27  1
    S_P15_T26  COST      4.5
    S_P15_T26  BAL_P15_T26  -1
    S_P15_T26  STORAGE_T26  1
    S_P15_T26  BAL_P15_T27  1
    S_P16_T26  COST      3.8
    S_P16_T26  BAL_P16_T26  -1
    S_P16_T26  STORAGE_T26  1
    S_P16_T26  BAL_P16_T27  1
    S_P17_T26  COST      4.5
    S_P17_T26  BAL_P17_T26  -1
    S_P17_T26  STORAGE_T26  1
    S_P17_T26  BAL_P17_T27  1
    S_P18_T26  COST      2.9
    S_P18_T26  BAL_P18_T26  -1
    S_P18_T26  STORAGE_T26  1
    S_P18_T26  BAL_P18_T27  1
    S_P19_T26  COST      2.5
    S_P19_T26  BAL_P19_T26  -1
    S_P19_T26  STORAGE_T26  1
    S_P19_T26  BAL_P19_T27  1
    S_P20_T26  COST      2.1
    S_P20_T26  BAL_P20_T26  -1
    S_P20_T26  STORAGE_T26  1
    S_P20_T26  BAL_P20_T27  1
    S_P21_T26  COST      4.2
    S_P21_T26  BAL_P21_T26  -1
    S_P21_T26  STORAGE_T26  1
    S_P21_T26  BAL_P21_T27  1
    S_P22_T26  COST      2.4
    S_P22_T26  BAL_P22_T26  -1
    S_P22_T26  STORAGE_T26  1
    S_P22_T26  BAL_P22_T27  1
    S_P23_T26  COST      2.2
    S_P23_T26  BAL_P23_T26  -1
    S_P23_T26  STORAGE_T26  1
    S_P23_T26  BAL_P23_T27  1
    S_P24_T26  COST      4
    S_P24_T26  BAL_P24_T26  -1
    S_P24_T26  STORAGE_T26  1
    S_P24_T26  BAL_P24_T27  1
    X_P0_T27  COST      26.7
    X_P0_T27  BAL_P0_T27  1
    X_P0_T27  CAP_M0_T27  1.4
    X_P0_T27  CAP_M1_T27  2.4
    X_P0_T27  CAP_M2_T27  0.5
    X_P0_T27  CAP_M3_T27  1
    X_P0_T27  CAP_M4_T27  1.3
    X_P0_T27  CAP_M5_T27  0.8
    X_P0_T27  CAP_M6_T27  1
    X_P0_T27  CAP_M7_T27  1.7
    X_P0_T27  CAP_M8_T27  0.7
    X_P0_T27  CAP_M9_T27  1.5
    X_P0_T27  CAP_M10_T27  2.4
    X_P0_T27  CAP_M11_T27  0.9
    X_P1_T27  COST      12.6
    X_P1_T27  BAL_P1_T27  1
    X_P1_T27  CAP_M0_T27  1
    X_P1_T27  CAP_M1_T27  2.2
    X_P1_T27  CAP_M2_T27  1
    X_P1_T27  CAP_M3_T27  2.4
    X_P1_T27  CAP_M4_T27  3
    X_P1_T27  CAP_M5_T27  2.2
    X_P1_T27  CAP_M6_T27  2.7
    X_P1_T27  CAP_M7_T27  1.4
    X_P1_T27  CAP_M8_T27  1.9
    X_P1_T27  CAP_M9_T27  0.9
    X_P1_T27  CAP_M10_T27  2.9
    X_P1_T27  CAP_M11_T27  2.2
    X_P2_T27  COST      41.9
    X_P2_T27  BAL_P2_T27  1
    X_P2_T27  CAP_M0_T27  2.6
    X_P2_T27  CAP_M1_T27  1.4
    X_P2_T27  CAP_M2_T27  0.8
    X_P2_T27  CAP_M3_T27  2.3
    X_P2_T27  CAP_M4_T27  2.5
    X_P2_T27  CAP_M5_T27  1
    X_P2_T27  CAP_M6_T27  1.2
    X_P2_T27  CAP_M7_T27  1
    X_P2_T27  CAP_M8_T27  1.1
    X_P2_T27  CAP_M9_T27  1.9
    X_P2_T27  CAP_M10_T27  3
    X_P2_T27  CAP_M11_T27  0.8
    X_P3_T27  COST      13.6
    X_P3_T27  BAL_P3_T27  1
    X_P3_T27  CAP_M0_T27  1.8
    X_P3_T27  CAP_M1_T27  2.8
    X_P3_T27  CAP_M2_T27  2.1
    X_P3_T27  CAP_M3_T27  1.6
    X_P3_T27  CAP_M4_T27  1.1
    X_P3_T27  CAP_M5_T27  0.7
    X_P3_T27  CAP_M6_T27  2
    X_P3_T27  CAP_M7_T27  2.7
    X_P3_T27  CAP_M8_T27  1.9
    X_P3_T27  CAP_M9_T27  2.6
    X_P3_T27  CAP_M10_T27  2.1
    X_P3_T27  CAP_M11_T27  2.3
    X_P4_T27  COST      17.7
    X_P4_T27  BAL_P4_T27  1
    X_P4_T27  CAP_M0_T27  1.9
    X_P4_T27  CAP_M1_T27  2
    X_P4_T27  CAP_M2_T27  2.5
    X_P4_T27  CAP_M3_T27  2.7
    X_P4_T27  CAP_M4_T27  2.1
    X_P4_T27  CAP_M5_T27  1.2
    X_P4_T27  CAP_M6_T27  1.6
    X_P4_T27  CAP_M7_T27  1.6
    X_P4_T27  CAP_M8_T27  2.1
    X_P4_T27  CAP_M9_T27  1.7
    X_P4_T27  CAP_M10_T27  0.8
    X_P4_T27  CAP_M11_T27  1.6
    X_P5_T27  COST      49.7
    X_P5_T27  BAL_P5_T27  1
    X_P5_T27  CAP_M0_T27  2.1
    X_P5_T27  CAP_M1_T27  0.7
    X_P5_T27  CAP_M2_T27  2.9
    X_P5_T27  CAP_M3_T27  1.3
    X_P5_T27  CAP_M4_T27  2.6
    X_P5_T27  CAP_M5_T27  1.9
    X_P5_T27  CAP_M6_T27  2.4
    X_P5_T27  CAP_M7_T27  1.8
    X_P5_T27  CAP_M8_T27  1.4
    X_P5_T27  CAP_M9_T27  0.7
    X_P5_T27  CAP_M10_T27  0.6
    X_P5_T27  CAP_M11_T27  2.9
    X_P6_T27  COST      29.1
    X_P6_T27  BAL_P6_T27  1
    X_P6_T27  CAP_M0_T27  1.3
    X_P6_T27  CAP_M1_T27  1.8
    X_P6_T27  CAP_M2_T27  2.5
    X_P6_T27  CAP_M3_T27  2.2
    X_P6_T27  CAP_M4_T27  0.7
    X_P6_T27  CAP_M5_T27  1.5
    X_P6_T27  CAP_M6_T27  0.6
    X_P6_T27  CAP_M7_T27  1.9
    X_P6_T27  CAP_M8_T27  1.3
    X_P6_T27  CAP_M9_T27  2.1
    X_P6_T27  CAP_M10_T27  2.4
    X_P6_T27  CAP_M11_T27  1.1
    X_P7_T27  COST      24.1
    X_P7_T27  BAL_P7_T27  1
    X_P7_T27  CAP_M0_T27  1.1
    X_P7_T27  CAP_M1_T27  2.2
    X_P7_T27  CAP_M2_T27  2.5
    X_P7_T27  CAP_M3_T27  2.9
    X_P7_T27  CAP_M4_T27  1
    X_P7_T27  CAP_M5_T27  2.9
    X_P7_T27  CAP_M6_T27  2.4
    X_P7_T27  CAP_M7_T27  1.6
    X_P7_T27  CAP_M8_T27  1.4
    X_P7_T27  CAP_M9_T27  0.6
    X_P7_T27  CAP_M10_T27  1.6
    X_P7_T27  CAP_M11_T27  1.7
    X_P8_T27  COST      35.9
    X_P8_T27  BAL_P8_T27  1
    X_P8_T27  CAP_M0_T27  1.8
    X_P8_T27  CAP_M1_T27  0.7
    X_P8_T27  CAP_M2_T27  2.7
    X_P8_T27  CAP_M3_T27  2.3
    X_P8_T27  CAP_M4_T27  1.6
    X_P8_T27  CAP_M5_T27  1.3
    X_P8_T27  CAP_M6_T27  2.9
    X_P8_T27  CAP_M7_T27  1.1
    X_P8_T27  CAP_M8_T27  1.5
    X_P8_T27  CAP_M9_T27  2.1
    X_P8_T27  CAP_M10_T27  1.6
    X_P8_T27  CAP_M11_T27  0.7
    X_P9_T27  COST      36.2
    X_P9_T27  BAL_P9_T27  1
    X_P9_T27  CAP_M0_T27  1.3
    X_P9_T27  CAP_M1_T27  2.8
    X_P9_T27  CAP_M2_T27  1.3
    X_P9_T27  CAP_M3_T27  0.6
    X_P9_T27  CAP_M4_T27  1.7
    X_P9_T27  CAP_M5_T27  2.5
    X_P9_T27  CAP_M6_T27  1
    X_P9_T27  CAP_M7_T27  2.5
    X_P9_T27  CAP_M8_T27  2.7
    X_P9_T27  CAP_M9_T27  1.1
    X_P9_T27  CAP_M10_T27  1.8
    X_P9_T27  CAP_M11_T27  2.8
    X_P10_T27  COST      28.5
    X_P10_T27  BAL_P10_T27  1
    X_P10_T27  CAP_M0_T27  0.8
    X_P10_T27  CAP_M1_T27  0.8
    X_P10_T27  CAP_M2_T27  1.3
    X_P10_T27  CAP_M3_T27  0.8
    X_P10_T27  CAP_M4_T27  0.7
    X_P10_T27  CAP_M5_T27  1.7
    X_P10_T27  CAP_M6_T27  1.4
    X_P10_T27  CAP_M7_T27  1.3
    X_P10_T27  CAP_M8_T27  2.9
    X_P10_T27  CAP_M9_T27  1.6
    X_P10_T27  CAP_M10_T27  2.9
    X_P10_T27  CAP_M11_T27  0.7
    X_P11_T27  COST      49.4
    X_P11_T27  BAL_P11_T27  1
    X_P11_T27  CAP_M0_T27  2.4
    X_P11_T27  CAP_M1_T27  1.8
    X_P11_T27  CAP_M2_T27  1.8
    X_P11_T27  CAP_M3_T27  1.5
    X_P11_T27  CAP_M4_T27  2.8
    X_P11_T27  CAP_M5_T27  1.4
    X_P11_T27  CAP_M6_T27  0.7
    X_P11_T27  CAP_M7_T27  0.7
    X_P11_T27  CAP_M8_T27  2
    X_P11_T27  CAP_M9_T27  1.5
    X_P11_T27  CAP_M10_T27  1.7
    X_P11_T27  CAP_M11_T27  2.8
    X_P12_T27  COST      47.5
    X_P12_T27  BAL_P12_T27  1
    X_P12_T27  CAP_M0_T27  2.4
    X_P12_T27  CAP_M1_T27  2.3
    X_P12_T27  CAP_M2_T27  1.7
    X_P12_T27  CAP_M3_T27  2
    X_P12_T27  CAP_M4_T27  1.9
    X_P12_T27  CAP_M5_T27  1.2
    X_P12_T27  CAP_M6_T27  1.7
    X_P12_T27  CAP_M7_T27  1.4
    X_P12_T27  CAP_M8_T27  2
    X_P12_T27  CAP_M9_T27  1.6
    X_P12_T27  CAP_M10_T27  1.3
    X_P12_T27  CAP_M11_T27  2.7
    X_P13_T27  COST      31.3
    X_P13_T27  BAL_P13_T27  1
    X_P13_T27  CAP_M0_T27  2.2
    X_P13_T27  CAP_M1_T27  0.8
    X_P13_T27  CAP_M2_T27  2.7
    X_P13_T27  CAP_M3_T27  2.1
    X_P13_T27  CAP_M4_T27  1.8
    X_P13_T27  CAP_M5_T27  1.2
    X_P13_T27  CAP_M6_T27  1
    X_P13_T27  CAP_M7_T27  1.2
    X_P13_T27  CAP_M8_T27  1.8
    X_P13_T27  CAP_M9_T27  1
    X_P13_T27  CAP_M10_T27  1.3
    X_P13_T27  CAP_M11_T27  1.2
    X_P14_T27  COST      49.2
    X_P14_T27  BAL_P14_T27  1
    X_P14_T27  CAP_M0_T27  1.1
    X_P14_T27  CAP_M1_T27  1.8
    X_P14_T27  CAP_M2_T27  1.9
    X_P14_T27  CAP_M3_T27  1.4
    X_P14_T27  CAP_M4_T27  1.5
    X_P14_T27  CAP_M5_T27  1.9
    X_P14_T27  CAP_M6_T27  2.7
    X_P14_T27  CAP_M7_T27  0.8
    X_P14_T27  CAP_M8_T27  1.7
    X_P14_T27  CAP_M9_T27  2.2
    X_P14_T27  CAP_M10_T27  2.7
    X_P14_T27  CAP_M11_T27  1.2
    X_P15_T27  COST      28.7
    X_P15_T27  BAL_P15_T27  1
    X_P15_T27  CAP_M0_T27  0.8
    X_P15_T27  CAP_M1_T27  0.8
    X_P15_T27  CAP_M2_T27  2.4
    X_P15_T27  CAP_M3_T27  2.3
    X_P15_T27  CAP_M4_T27  1.8
    X_P15_T27  CAP_M5_T27  0.8
    X_P15_T27  CAP_M6_T27  0.8
    X_P15_T27  CAP_M7_T27  1.4
    X_P15_T27  CAP_M8_T27  1.3
    X_P15_T27  CAP_M9_T27  1.8
    X_P15_T27  CAP_M10_T27  2.1
    X_P15_T27  CAP_M11_T27  1.5
    X_P16_T27  COST      11.1
    X_P16_T27  BAL_P16_T27  1
    X_P16_T27  CAP_M0_T27  1.1
    X_P16_T27  CAP_M1_T27  0.5
    X_P16_T27  CAP_M2_T27  1.2
    X_P16_T27  CAP_M3_T27  2.8
    X_P16_T27  CAP_M4_T27  1.1
    X_P16_T27  CAP_M5_T27  1
    X_P16_T27  CAP_M6_T27  1.8
    X_P16_T27  CAP_M7_T27  1.8
    X_P16_T27  CAP_M8_T27  2.5
    X_P16_T27  CAP_M9_T27  1.6
    X_P16_T27  CAP_M10_T27  2.7
    X_P16_T27  CAP_M11_T27  1.3
    X_P17_T27  COST      12.2
    X_P17_T27  BAL_P17_T27  1
    X_P17_T27  CAP_M0_T27  1.8
    X_P17_T27  CAP_M1_T27  2.2
    X_P17_T27  CAP_M2_T27  2.7
    X_P17_T27  CAP_M3_T27  2.2
    X_P17_T27  CAP_M4_T27  1.2
    X_P17_T27  CAP_M5_T27  1.3
    X_P17_T27  CAP_M6_T27  0.7
    X_P17_T27  CAP_M7_T27  1.3
    X_P17_T27  CAP_M8_T27  2.8
    X_P17_T27  CAP_M9_T27  1.4
    X_P17_T27  CAP_M10_T27  2.7
    X_P17_T27  CAP_M11_T27  2.2
    X_P18_T27  COST      45.3
    X_P18_T27  BAL_P18_T27  1
    X_P18_T27  CAP_M0_T27  1.3
    X_P18_T27  CAP_M1_T27  2.9
    X_P18_T27  CAP_M2_T27  1.7
    X_P18_T27  CAP_M3_T27  0.5
    X_P18_T27  CAP_M4_T27  2.4
    X_P18_T27  CAP_M5_T27  2.9
    X_P18_T27  CAP_M6_T27  2.1
    X_P18_T27  CAP_M7_T27  2.7
    X_P18_T27  CAP_M8_T27  1.4
    X_P18_T27  CAP_M9_T27  0.5
    X_P18_T27  CAP_M10_T27  2.1
    X_P18_T27  CAP_M11_T27  1.1
    X_P19_T27  COST      32.5
    X_P19_T27  BAL_P19_T27  1
    X_P19_T27  CAP_M0_T27  2.2
    X_P19_T27  CAP_M1_T27  2.8
    X_P19_T27  CAP_M2_T27  1.6
    X_P19_T27  CAP_M3_T27  2.6
    X_P19_T27  CAP_M4_T27  1.7
    X_P19_T27  CAP_M5_T27  1.3
    X_P19_T27  CAP_M6_T27  1
    X_P19_T27  CAP_M7_T27  1.5
    X_P19_T27  CAP_M8_T27  0.6
    X_P19_T27  CAP_M9_T27  2.8
    X_P19_T27  CAP_M10_T27  0.8
    X_P19_T27  CAP_M11_T27  0.8
    X_P20_T27  COST      34.3
    X_P20_T27  BAL_P20_T27  1
    X_P20_T27  CAP_M0_T27  1.2
    X_P20_T27  CAP_M1_T27  2
    X_P20_T27  CAP_M2_T27  1.4
    X_P20_T27  CAP_M3_T27  2.3
    X_P20_T27  CAP_M4_T27  1.5
    X_P20_T27  CAP_M5_T27  1.6
    X_P20_T27  CAP_M6_T27  2.6
    X_P20_T27  CAP_M7_T27  2.1
    X_P20_T27  CAP_M8_T27  1.2
    X_P20_T27  CAP_M9_T27  1
    X_P20_T27  CAP_M10_T27  2.3
    X_P20_T27  CAP_M11_T27  1.8
    X_P21_T27  COST      49.6
    X_P21_T27  BAL_P21_T27  1
    X_P21_T27  CAP_M0_T27  2.4
    X_P21_T27  CAP_M1_T27  1.9
    X_P21_T27  CAP_M2_T27  2.9
    X_P21_T27  CAP_M3_T27  2.7
    X_P21_T27  CAP_M4_T27  2.7
    X_P21_T27  CAP_M5_T27  1.7
    X_P21_T27  CAP_M6_T27  2.8
    X_P21_T27  CAP_M7_T27  2.5
    X_P21_T27  CAP_M8_T27  3
    X_P21_T27  CAP_M9_T27  2.7
    X_P21_T27  CAP_M10_T27  2.4
    X_P21_T27  CAP_M11_T27  2.4
    X_P22_T27  COST      30.2
    X_P22_T27  BAL_P22_T27  1
    X_P22_T27  CAP_M0_T27  0.6
    X_P22_T27  CAP_M1_T27  2.9
    X_P22_T27  CAP_M2_T27  2.1
    X_P22_T27  CAP_M3_T27  2.1
    X_P22_T27  CAP_M4_T27  2
    X_P22_T27  CAP_M5_T27  2.4
    X_P22_T27  CAP_M6_T27  2.2
    X_P22_T27  CAP_M7_T27  0.7
    X_P22_T27  CAP_M8_T27  0.5
    X_P22_T27  CAP_M9_T27  1.8
    X_P22_T27  CAP_M10_T27  1.1
    X_P22_T27  CAP_M11_T27  2.6
    X_P23_T27  COST      49.6
    X_P23_T27  BAL_P23_T27  1
    X_P23_T27  CAP_M0_T27  2.9
    X_P23_T27  CAP_M1_T27  1.2
    X_P23_T27  CAP_M2_T27  1.8
    X_P23_T27  CAP_M3_T27  1.8
    X_P23_T27  CAP_M4_T27  1.5
    X_P23_T27  CAP_M5_T27  0.5
    X_P23_T27  CAP_M6_T27  2.8
    X_P23_T27  CAP_M7_T27  1.9
    X_P23_T27  CAP_M8_T27  2.2
    X_P23_T27  CAP_M9_T27  2.9
    X_P23_T27  CAP_M10_T27  2.1
    X_P23_T27  CAP_M11_T27  2.2
    X_P24_T27  COST      20.5
    X_P24_T27  BAL_P24_T27  1
    X_P24_T27  CAP_M0_T27  1.1
    X_P24_T27  CAP_M1_T27  2.5
    X_P24_T27  CAP_M2_T27  1.3
    X_P24_T27  CAP_M3_T27  2.8
    X_P24_T27  CAP_M4_T27  1.1
    X_P24_T27  CAP_M5_T27  2
    X_P24_T27  CAP_M6_T27  1.4
    X_P24_T27  CAP_M7_T27  0.5
    X_P24_T27  CAP_M8_T27  1.2
    X_P24_T27  CAP_M9_T27  2.4
    X_P24_T27  CAP_M10_T27  0.6
    X_P24_T27  CAP_M11_T27  1.9
    S_P0_T27  COST      4.7
    S_P0_T27  BAL_P0_T27  -1
    S_P0_T27  STORAGE_T27  1
    S_P0_T27  BAL_P0_T28  1
    S_P1_T27  COST      1.8
    S_P1_T27  BAL_P1_T27  -1
    S_P1_T27  STORAGE_T27  1
    S_P1_T27  BAL_P1_T28  1
    S_P2_T27  COST      3.2
    S_P2_T27  BAL_P2_T27  -1
    S_P2_T27  STORAGE_T27  1
    S_P2_T27  BAL_P2_T28  1
    S_P3_T27  COST      4.7
    S_P3_T27  BAL_P3_T27  -1
    S_P3_T27  STORAGE_T27  1
    S_P3_T27  BAL_P3_T28  1
    S_P4_T27  COST      3
    S_P4_T27  BAL_P4_T27  -1
    S_P4_T27  STORAGE_T27  1
    S_P4_T27  BAL_P4_T28  1
    S_P5_T27  COST      4.1
    S_P5_T27  BAL_P5_T27  -1
    S_P5_T27  STORAGE_T27  1
    S_P5_T27  BAL_P5_T28  1
    S_P6_T27  COST      3.4
    S_P6_T27  BAL_P6_T27  -1
    S_P6_T27  STORAGE_T27  1
    S_P6_T27  BAL_P6_T28  1
    S_P7_T27  COST      4.6
    S_P7_T27  BAL_P7_T27  -1
    S_P7_T27  STORAGE_T27  1
    S_P7_T27  BAL_P7_T28  1
    S_P8_T27  COST      3.2
    S_P8_T27  BAL_P8_T27  -1
    S_P8_T27  STORAGE_T27  1
    S_P8_T27  BAL_P8_T28  1
    S_P9_T27  COST      3.7
    S_P9_T27  BAL_P9_T27  -1
    S_P9_T27  STORAGE_T27  1
    S_P9_T27  BAL_P9_T28  1
    S_P10_T27  COST      1.5
    S_P10_T27  BAL_P10_T27  -1
    S_P10_T27  STORAGE_T27  1
    S_P10_T27  BAL_P10_T28  1
    S_P11_T27  COST      2
    S_P11_T27  BAL_P11_T27  -1
    S_P11_T27  STORAGE_T27  1
    S_P11_T27  BAL_P11_T28  1
    S_P12_T27  COST      2.8
    S_P12_T27  BAL_P12_T27  -1
    S_P12_T27  STORAGE_T27  1
    S_P12_T27  BAL_P12_T28  1
    S_P13_T27  COST      5
    S_P13_T27  BAL_P13_T27  -1
    S_P13_T27  STORAGE_T27  1
    S_P13_T27  BAL_P13_T28  1
    S_P14_T27  COST      3.9
    S_P14_T27  BAL_P14_T27  -1
    S_P14_T27  STORAGE_T27  1
    S_P14_T27  BAL_P14_T28  1
    S_P15_T27  COST      2.1
    S_P15_T27  BAL_P15_T27  -1
    S_P15_T27  STORAGE_T27  1
    S_P15_T27  BAL_P15_T28  1
    S_P16_T27  COST      2
    S_P16_T27  BAL_P16_T27  -1
    S_P16_T27  STORAGE_T27  1
    S_P16_T27  BAL_P16_T28  1
    S_P17_T27  COST      1.5
    S_P17_T27  BAL_P17_T27  -1
    S_P17_T27  STORAGE_T27  1
    S_P17_T27  BAL_P17_T28  1
    S_P18_T27  COST      3.6
    S_P18_T27  BAL_P18_T27  -1
    S_P18_T27  STORAGE_T27  1
    S_P18_T27  BAL_P18_T28  1
    S_P19_T27  COST      1.2
    S_P19_T27  BAL_P19_T27  -1
    S_P19_T27  STORAGE_T27  1
    S_P19_T27  BAL_P19_T28  1
    S_P20_T27  COST      5
    S_P20_T27  BAL_P20_T27  -1
    S_P20_T27  STORAGE_T27  1
    S_P20_T27  BAL_P20_T28  1
    S_P21_T27  COST      2.3
    S_P21_T27  BAL_P21_T27  -1
    S_P21_T27  STORAGE_T27  1
    S_P21_T27  BAL_P21_T28  1
    S_P22_T27  COST      1.2
    S_P22_T27  BAL_P22_T27  -1
    S_P22_T27  STORAGE_T27  1
    S_P22_T27  BAL_P22_T28  1
    S_P23_T27  COST      2.6
    S_P23_T27  BAL_P23_T27  -1
    S_P23_T27  STORAGE_T27  1
    S_P23_T27  BAL_P23_T28  1
    S_P24_T27  COST      2.3
    S_P24_T27  BAL_P24_T27  -1
    S_P24_T27  STORAGE_T27  1
    S_P24_T27  BAL_P24_T28  1
    X_P0_T28  COST      44.8
    X_P0_T28  BAL_P0_T28  1
    X_P0_T28  CAP_M0_T28  1.4
    X_P0_T28  CAP_M1_T28  2.4
    X_P0_T28  CAP_M2_T28  0.5
    X_P0_T28  CAP_M3_T28  1
    X_P0_T28  CAP_M4_T28  1.3
    X_P0_T28  CAP_M5_T28  0.8
    X_P0_T28  CAP_M6_T28  1
    X_P0_T28  CAP_M7_T28  1.7
    X_P0_T28  CAP_M8_T28  0.7
    X_P0_T28  CAP_M9_T28  1.5
    X_P0_T28  CAP_M10_T28  2.4
    X_P0_T28  CAP_M11_T28  0.9
    X_P1_T28  COST      47.5
    X_P1_T28  BAL_P1_T28  1
    X_P1_T28  CAP_M0_T28  1
    X_P1_T28  CAP_M1_T28  2.2
    X_P1_T28  CAP_M2_T28  1
    X_P1_T28  CAP_M3_T28  2.4
    X_P1_T28  CAP_M4_T28  3
    X_P1_T28  CAP_M5_T28  2.2
    X_P1_T28  CAP_M6_T28  2.7
    X_P1_T28  CAP_M7_T28  1.4
    X_P1_T28  CAP_M8_T28  1.9
    X_P1_T28  CAP_M9_T28  0.9
    X_P1_T28  CAP_M10_T28  2.9
    X_P1_T28  CAP_M11_T28  2.2
    X_P2_T28  COST      19.2
    X_P2_T28  BAL_P2_T28  1
    X_P2_T28  CAP_M0_T28  2.6
    X_P2_T28  CAP_M1_T28  1.4
    X_P2_T28  CAP_M2_T28  0.8
    X_P2_T28  CAP_M3_T28  2.3
    X_P2_T28  CAP_M4_T28  2.5
    X_P2_T28  CAP_M5_T28  1
    X_P2_T28  CAP_M6_T28  1.2
    X_P2_T28  CAP_M7_T28  1
    X_P2_T28  CAP_M8_T28  1.1
    X_P2_T28  CAP_M9_T28  1.9
    X_P2_T28  CAP_M10_T28  3
    X_P2_T28  CAP_M11_T28  0.8
    X_P3_T28  COST      40.5
    X_P3_T28  BAL_P3_T28  1
    X_P3_T28  CAP_M0_T28  1.8
    X_P3_T28  CAP_M1_T28  2.8
    X_P3_T28  CAP_M2_T28  2.1
    X_P3_T28  CAP_M3_T28  1.6
    X_P3_T28  CAP_M4_T28  1.1
    X_P3_T28  CAP_M5_T28  0.7
    X_P3_T28  CAP_M6_T28  2
    X_P3_T28  CAP_M7_T28  2.7
    X_P3_T28  CAP_M8_T28  1.9
    X_P3_T28  CAP_M9_T28  2.6
    X_P3_T28  CAP_M10_T28  2.1
    X_P3_T28  CAP_M11_T28  2.3
    X_P4_T28  COST      14
    X_P4_T28  BAL_P4_T28  1
    X_P4_T28  CAP_M0_T28  1.9
    X_P4_T28  CAP_M1_T28  2
    X_P4_T28  CAP_M2_T28  2.5
    X_P4_T28  CAP_M3_T28  2.7
    X_P4_T28  CAP_M4_T28  2.1
    X_P4_T28  CAP_M5_T28  1.2
    X_P4_T28  CAP_M6_T28  1.6
    X_P4_T28  CAP_M7_T28  1.6
    X_P4_T28  CAP_M8_T28  2.1
    X_P4_T28  CAP_M9_T28  1.7
    X_P4_T28  CAP_M10_T28  0.8
    X_P4_T28  CAP_M11_T28  1.6
    X_P5_T28  COST      20.4
    X_P5_T28  BAL_P5_T28  1
    X_P5_T28  CAP_M0_T28  2.1
    X_P5_T28  CAP_M1_T28  0.7
    X_P5_T28  CAP_M2_T28  2.9
    X_P5_T28  CAP_M3_T28  1.3
    X_P5_T28  CAP_M4_T28  2.6
    X_P5_T28  CAP_M5_T28  1.9
    X_P5_T28  CAP_M6_T28  2.4
    X_P5_T28  CAP_M7_T28  1.8
    X_P5_T28  CAP_M8_T28  1.4
    X_P5_T28  CAP_M9_T28  0.7
    X_P5_T28  CAP_M10_T28  0.6
    X_P5_T28  CAP_M11_T28  2.9
    X_P6_T28  COST      29.7
    X_P6_T28  BAL_P6_T28  1
    X_P6_T28  CAP_M0_T28  1.3
    X_P6_T28  CAP_M1_T28  1.8
    X_P6_T28  CAP_M2_T28  2.5
    X_P6_T28  CAP_M3_T28  2.2
    X_P6_T28  CAP_M4_T28  0.7
    X_P6_T28  CAP_M5_T28  1.5
    X_P6_T28  CAP_M6_T28  0.6
    X_P6_T28  CAP_M7_T28  1.9
    X_P6_T28  CAP_M8_T28  1.3
    X_P6_T28  CAP_M9_T28  2.1
    X_P6_T28  CAP_M10_T28  2.4
    X_P6_T28  CAP_M11_T28  1.1
    X_P7_T28  COST      21.5
    X_P7_T28  BAL_P7_T28  1
    X_P7_T28  CAP_M0_T28  1.1
    X_P7_T28  CAP_M1_T28  2.2
    X_P7_T28  CAP_M2_T28  2.5
    X_P7_T28  CAP_M3_T28  2.9
    X_P7_T28  CAP_M4_T28  1
    X_P7_T28  CAP_M5_T28  2.9
    X_P7_T28  CAP_M6_T28  2.4
    X_P7_T28  CAP_M7_T28  1.6
    X_P7_T28  CAP_M8_T28  1.4
    X_P7_T28  CAP_M9_T28  0.6
    X_P7_T28  CAP_M10_T28  1.6
    X_P7_T28  CAP_M11_T28  1.7
    X_P8_T28  COST      29
    X_P8_T28  BAL_P8_T28  1
    X_P8_T28  CAP_M0_T28  1.8
    X_P8_T28  CAP_M1_T28  0.7
    X_P8_T28  CAP_M2_T28  2.7
    X_P8_T28  CAP_M3_T28  2.3
    X_P8_T28  CAP_M4_T28  1.6
    X_P8_T28  CAP_M5_T28  1.3
    X_P8_T28  CAP_M6_T28  2.9
    X_P8_T28  CAP_M7_T28  1.1
    X_P8_T28  CAP_M8_T28  1.5
    X_P8_T28  CAP_M9_T28  2.1
    X_P8_T28  CAP_M10_T28  1.6
    X_P8_T28  CAP_M11_T28  0.7
    X_P9_T28  COST      39.7
    X_P9_T28  BAL_P9_T28  1
    X_P9_T28  CAP_M0_T28  1.3
    X_P9_T28  CAP_M1_T28  2.8
    X_P9_T28  CAP_M2_T28  1.3
    X_P9_T28  CAP_M3_T28  0.6
    X_P9_T28  CAP_M4_T28  1.7
    X_P9_T28  CAP_M5_T28  2.5
    X_P9_T28  CAP_M6_T28  1
    X_P9_T28  CAP_M7_T28  2.5
    X_P9_T28  CAP_M8_T28  2.7
    X_P9_T28  CAP_M9_T28  1.1
    X_P9_T28  CAP_M10_T28  1.8
    X_P9_T28  CAP_M11_T28  2.8
    X_P10_T28  COST      35.7
    X_P10_T28  BAL_P10_T28  1
    X_P10_T28  CAP_M0_T28  0.8
    X_P10_T28  CAP_M1_T28  0.8
    X_P10_T28  CAP_M2_T28  1.3
    X_P10_T28  CAP_M3_T28  0.8
    X_P10_T28  CAP_M4_T28  0.7
    X_P10_T28  CAP_M5_T28  1.7
    X_P10_T28  CAP_M6_T28  1.4
    X_P10_T28  CAP_M7_T28  1.3
    X_P10_T28  CAP_M8_T28  2.9
    X_P10_T28  CAP_M9_T28  1.6
    X_P10_T28  CAP_M10_T28  2.9
    X_P10_T28  CAP_M11_T28  0.7
    X_P11_T28  COST      15.2
    X_P11_T28  BAL_P11_T28  1
    X_P11_T28  CAP_M0_T28  2.4
    X_P11_T28  CAP_M1_T28  1.8
    X_P11_T28  CAP_M2_T28  1.8
    X_P11_T28  CAP_M3_T28  1.5
    X_P11_T28  CAP_M4_T28  2.8
    X_P11_T28  CAP_M5_T28  1.4
    X_P11_T28  CAP_M6_T28  0.7
    X_P11_T28  CAP_M7_T28  0.7
    X_P11_T28  CAP_M8_T28  2
    X_P11_T28  CAP_M9_T28  1.5
    X_P11_T28  CAP_M10_T28  1.7
    X_P11_T28  CAP_M11_T28  2.8
    X_P12_T28  COST      21.7
    X_P12_T28  BAL_P12_T28  1
    X_P12_T28  CAP_M0_T28  2.4
    X_P12_T28  CAP_M1_T28  2.3
    X_P12_T28  CAP_M2_T28  1.7
    X_P12_T28  CAP_M3_T28  2
    X_P12_T28  CAP_M4_T28  1.9
    X_P12_T28  CAP_M5_T28  1.2
    X_P12_T28  CAP_M6_T28  1.7
    X_P12_T28  CAP_M7_T28  1.4
    X_P12_T28  CAP_M8_T28  2
    X_P12_T28  CAP_M9_T28  1.6
    X_P12_T28  CAP_M10_T28  1.3
    X_P12_T28  CAP_M11_T28  2.7
    X_P13_T28  COST      44
    X_P13_T28  BAL_P13_T28  1
    X_P13_T28  CAP_M0_T28  2.2
    X_P13_T28  CAP_M1_T28  0.8
    X_P13_T28  CAP_M2_T28  2.7
    X_P13_T28  CAP_M3_T28  2.1
    X_P13_T28  CAP_M4_T28  1.8
    X_P13_T28  CAP_M5_T28  1.2
    X_P13_T28  CAP_M6_T28  1
    X_P13_T28  CAP_M7_T28  1.2
    X_P13_T28  CAP_M8_T28  1.8
    X_P13_T28  CAP_M9_T28  1
    X_P13_T28  CAP_M10_T28  1.3
    X_P13_T28  CAP_M11_T28  1.2
    X_P14_T28  COST      31
    X_P14_T28  BAL_P14_T28  1
    X_P14_T28  CAP_M0_T28  1.1
    X_P14_T28  CAP_M1_T28  1.8
    X_P14_T28  CAP_M2_T28  1.9
    X_P14_T28  CAP_M3_T28  1.4
    X_P14_T28  CAP_M4_T28  1.5
    X_P14_T28  CAP_M5_T28  1.9
    X_P14_T28  CAP_M6_T28  2.7
    X_P14_T28  CAP_M7_T28  0.8
    X_P14_T28  CAP_M8_T28  1.7
    X_P14_T28  CAP_M9_T28  2.2
    X_P14_T28  CAP_M10_T28  2.7
    X_P14_T28  CAP_M11_T28  1.2
    X_P15_T28  COST      13
    X_P15_T28  BAL_P15_T28  1
    X_P15_T28  CAP_M0_T28  0.8
    X_P15_T28  CAP_M1_T28  0.8
    X_P15_T28  CAP_M2_T28  2.4
    X_P15_T28  CAP_M3_T28  2.3
    X_P15_T28  CAP_M4_T28  1.8
    X_P15_T28  CAP_M5_T28  0.8
    X_P15_T28  CAP_M6_T28  0.8
    X_P15_T28  CAP_M7_T28  1.4
    X_P15_T28  CAP_M8_T28  1.3
    X_P15_T28  CAP_M9_T28  1.8
    X_P15_T28  CAP_M10_T28  2.1
    X_P15_T28  CAP_M11_T28  1.5
    X_P16_T28  COST      39.8
    X_P16_T28  BAL_P16_T28  1
    X_P16_T28  CAP_M0_T28  1.1
    X_P16_T28  CAP_M1_T28  0.5
    X_P16_T28  CAP_M2_T28  1.2
    X_P16_T28  CAP_M3_T28  2.8
    X_P16_T28  CAP_M4_T28  1.1
    X_P16_T28  CAP_M5_T28  1
    X_P16_T28  CAP_M6_T28  1.8
    X_P16_T28  CAP_M7_T28  1.8
    X_P16_T28  CAP_M8_T28  2.5
    X_P16_T28  CAP_M9_T28  1.6
    X_P16_T28  CAP_M10_T28  2.7
    X_P16_T28  CAP_M11_T28  1.3
    X_P17_T28  COST      30.1
    X_P17_T28  BAL_P17_T28  1
    X_P17_T28  CAP_M0_T28  1.8
    X_P17_T28  CAP_M1_T28  2.2
    X_P17_T28  CAP_M2_T28  2.7
    X_P17_T28  CAP_M3_T28  2.2
    X_P17_T28  CAP_M4_T28  1.2
    X_P17_T28  CAP_M5_T28  1.3
    X_P17_T28  CAP_M6_T28  0.7
    X_P17_T28  CAP_M7_T28  1.3
    X_P17_T28  CAP_M8_T28  2.8
    X_P17_T28  CAP_M9_T28  1.4
    X_P17_T28  CAP_M10_T28  2.7
    X_P17_T28  CAP_M11_T28  2.2
    X_P18_T28  COST      19
    X_P18_T28  BAL_P18_T28  1
    X_P18_T28  CAP_M0_T28  1.3
    X_P18_T28  CAP_M1_T28  2.9
    X_P18_T28  CAP_M2_T28  1.7
    X_P18_T28  CAP_M3_T28  0.5
    X_P18_T28  CAP_M4_T28  2.4
    X_P18_T28  CAP_M5_T28  2.9
    X_P18_T28  CAP_M6_T28  2.1
    X_P18_T28  CAP_M7_T28  2.7
    X_P18_T28  CAP_M8_T28  1.4
    X_P18_T28  CAP_M9_T28  0.5
    X_P18_T28  CAP_M10_T28  2.1
    X_P18_T28  CAP_M11_T28  1.1
    X_P19_T28  COST      44.1
    X_P19_T28  BAL_P19_T28  1
    X_P19_T28  CAP_M0_T28  2.2
    X_P19_T28  CAP_M1_T28  2.8
    X_P19_T28  CAP_M2_T28  1.6
    X_P19_T28  CAP_M3_T28  2.6
    X_P19_T28  CAP_M4_T28  1.7
    X_P19_T28  CAP_M5_T28  1.3
    X_P19_T28  CAP_M6_T28  1
    X_P19_T28  CAP_M7_T28  1.5
    X_P19_T28  CAP_M8_T28  0.6
    X_P19_T28  CAP_M9_T28  2.8
    X_P19_T28  CAP_M10_T28  0.8
    X_P19_T28  CAP_M11_T28  0.8
    X_P20_T28  COST      49.2
    X_P20_T28  BAL_P20_T28  1
    X_P20_T28  CAP_M0_T28  1.2
    X_P20_T28  CAP_M1_T28  2
    X_P20_T28  CAP_M2_T28  1.4
    X_P20_T28  CAP_M3_T28  2.3
    X_P20_T28  CAP_M4_T28  1.5
    X_P20_T28  CAP_M5_T28  1.6
    X_P20_T28  CAP_M6_T28  2.6
    X_P20_T28  CAP_M7_T28  2.1
    X_P20_T28  CAP_M8_T28  1.2
    X_P20_T28  CAP_M9_T28  1
    X_P20_T28  CAP_M10_T28  2.3
    X_P20_T28  CAP_M11_T28  1.8
    X_P21_T28  COST      42.5
    X_P21_T28  BAL_P21_T28  1
    X_P21_T28  CAP_M0_T28  2.4
    X_P21_T28  CAP_M1_T28  1.9
    X_P21_T28  CAP_M2_T28  2.9
    X_P21_T28  CAP_M3_T28  2.7
    X_P21_T28  CAP_M4_T28  2.7
    X_P21_T28  CAP_M5_T28  1.7
    X_P21_T28  CAP_M6_T28  2.8
    X_P21_T28  CAP_M7_T28  2.5
    X_P21_T28  CAP_M8_T28  3
    X_P21_T28  CAP_M9_T28  2.7
    X_P21_T28  CAP_M10_T28  2.4
    X_P21_T28  CAP_M11_T28  2.4
    X_P22_T28  COST      44.9
    X_P22_T28  BAL_P22_T28  1
    X_P22_T28  CAP_M0_T28  0.6
    X_P22_T28  CAP_M1_T28  2.9
    X_P22_T28  CAP_M2_T28  2.1
    X_P22_T28  CAP_M3_T28  2.1
    X_P22_T28  CAP_M4_T28  2
    X_P22_T28  CAP_M5_T28  2.4
    X_P22_T28  CAP_M6_T28  2.2
    X_P22_T28  CAP_M7_T28  0.7
    X_P22_T28  CAP_M8_T28  0.5
    X_P22_T28  CAP_M9_T28  1.8
    X_P22_T28  CAP_M10_T28  1.1
    X_P22_T28  CAP_M11_T28  2.6
    X_P23_T28  COST      21
    X_P23_T28  BAL_P23_T28  1
    X_P23_T28  CAP_M0_T28  2.9
    X_P23_T28  CAP_M1_T28  1.2
    X_P23_T28  CAP_M2_T28  1.8
    X_P23_T28  CAP_M3_T28  1.8
    X_P23_T28  CAP_M4_T28  1.5
    X_P23_T28  CAP_M5_T28  0.5
    X_P23_T28  CAP_M6_T28  2.8
    X_P23_T28  CAP_M7_T28  1.9
    X_P23_T28  CAP_M8_T28  2.2
    X_P23_T28  CAP_M9_T28  2.9
    X_P23_T28  CAP_M10_T28  2.1
    X_P23_T28  CAP_M11_T28  2.2
    X_P24_T28  COST      26.2
    X_P24_T28  BAL_P24_T28  1
    X_P24_T28  CAP_M0_T28  1.1
    X_P24_T28  CAP_M1_T28  2.5
    X_P24_T28  CAP_M2_T28  1.3
    X_P24_T28  CAP_M3_T28  2.8
    X_P24_T28  CAP_M4_T28  1.1
    X_P24_T28  CAP_M5_T28  2
    X_P24_T28  CAP_M6_T28  1.4
    X_P24_T28  CAP_M7_T28  0.5
    X_P24_T28  CAP_M8_T28  1.2
    X_P24_T28  CAP_M9_T28  2.4
    X_P24_T28  CAP_M10_T28  0.6
    X_P24_T28  CAP_M11_T28  1.9
    S_P0_T28  COST      4.9
    S_P0_T28  BAL_P0_T28  -1
    S_P0_T28  STORAGE_T28  1
    S_P0_T28  BAL_P0_T29  1
    S_P1_T28  COST      3.7
    S_P1_T28  BAL_P1_T28  -1
    S_P1_T28  STORAGE_T28  1
    S_P1_T28  BAL_P1_T29  1
    S_P2_T28  COST      2.7
    S_P2_T28  BAL_P2_T28  -1
    S_P2_T28  STORAGE_T28  1
    S_P2_T28  BAL_P2_T29  1
    S_P3_T28  COST      2.6
    S_P3_T28  BAL_P3_T28  -1
    S_P3_T28  STORAGE_T28  1
    S_P3_T28  BAL_P3_T29  1
    S_P4_T28  COST      2.6
    S_P4_T28  BAL_P4_T28  -1
    S_P4_T28  STORAGE_T28  1
    S_P4_T28  BAL_P4_T29  1
    S_P5_T28  COST      1.5
    S_P5_T28  BAL_P5_T28  -1
    S_P5_T28  STORAGE_T28  1
    S_P5_T28  BAL_P5_T29  1
    S_P6_T28  COST      3.6
    S_P6_T28  BAL_P6_T28  -1
    S_P6_T28  STORAGE_T28  1
    S_P6_T28  BAL_P6_T29  1
    S_P7_T28  COST      2.1
    S_P7_T28  BAL_P7_T28  -1
    S_P7_T28  STORAGE_T28  1
    S_P7_T28  BAL_P7_T29  1
    S_P8_T28  COST      4.5
    S_P8_T28  BAL_P8_T28  -1
    S_P8_T28  STORAGE_T28  1
    S_P8_T28  BAL_P8_T29  1
    S_P9_T28  COST      1.4
    S_P9_T28  BAL_P9_T28  -1
    S_P9_T28  STORAGE_T28  1
    S_P9_T28  BAL_P9_T29  1
    S_P10_T28  COST      2.8
    S_P10_T28  BAL_P10_T28  -1
    S_P10_T28  STORAGE_T28  1
    S_P10_T28  BAL_P10_T29  1
    S_P11_T28  COST      2.6
    S_P11_T28  BAL_P11_T28  -1
    S_P11_T28  STORAGE_T28  1
    S_P11_T28  BAL_P11_T29  1
    S_P12_T28  COST      3.9
    S_P12_T28  BAL_P12_T28  -1
    S_P12_T28  STORAGE_T28  1
    S_P12_T28  BAL_P12_T29  1
    S_P13_T28  COST      3.4
    S_P13_T28  BAL_P13_T28  -1
    S_P13_T28  STORAGE_T28  1
    S_P13_T28  BAL_P13_T29  1
    S_P14_T28  COST      1.8
    S_P14_T28  BAL_P14_T28  -1
    S_P14_T28  STORAGE_T28  1
    S_P14_T28  BAL_P14_T29  1
    S_P15_T28  COST      4.2
    S_P15_T28  BAL_P15_T28  -1
    S_P15_T28  STORAGE_T28  1
    S_P15_T28  BAL_P15_T29  1
    S_P16_T28  COST      3.2
    S_P16_T28  BAL_P16_T28  -1
    S_P16_T28  STORAGE_T28  1
    S_P16_T28  BAL_P16_T29  1
    S_P17_T28  COST      3.2
    S_P17_T28  BAL_P17_T28  -1
    S_P17_T28  STORAGE_T28  1
    S_P17_T28  BAL_P17_T29  1
    S_P18_T28  COST      4.7
    S_P18_T28  BAL_P18_T28  -1
    S_P18_T28  STORAGE_T28  1
    S_P18_T28  BAL_P18_T29  1
    S_P19_T28  COST      3.1
    S_P19_T28  BAL_P19_T28  -1
    S_P19_T28  STORAGE_T28  1
    S_P19_T28  BAL_P19_T29  1
    S_P20_T28  COST      2.5
    S_P20_T28  BAL_P20_T28  -1
    S_P20_T28  STORAGE_T28  1
    S_P20_T28  BAL_P20_T29  1
    S_P21_T28  COST      4.8
    S_P21_T28  BAL_P21_T28  -1
    S_P21_T28  STORAGE_T28  1
    S_P21_T28  BAL_P21_T29  1
    S_P22_T28  COST      3.2
    S_P22_T28  BAL_P22_T28  -1
    S_P22_T28  STORAGE_T28  1
    S_P22_T28  BAL_P22_T29  1
    S_P23_T28  COST      4.7
    S_P23_T28  BAL_P23_T28  -1
    S_P23_T28  STORAGE_T28  1
    S_P23_T28  BAL_P23_T29  1
    S_P24_T28  COST      4.3
    S_P24_T28  BAL_P24_T28  -1
    S_P24_T28  STORAGE_T28  1
    S_P24_T28  BAL_P24_T29  1
    X_P0_T29  COST      38.3
    X_P0_T29  BAL_P0_T29  1
    X_P0_T29  CAP_M0_T29  1.4
    X_P0_T29  CAP_M1_T29  2.4
    X_P0_T29  CAP_M2_T29  0.5
    X_P0_T29  CAP_M3_T29  1
    X_P0_T29  CAP_M4_T29  1.3
    X_P0_T29  CAP_M5_T29  0.8
    X_P0_T29  CAP_M6_T29  1
    X_P0_T29  CAP_M7_T29  1.7
    X_P0_T29  CAP_M8_T29  0.7
    X_P0_T29  CAP_M9_T29  1.5
    X_P0_T29  CAP_M10_T29  2.4
    X_P0_T29  CAP_M11_T29  0.9
    X_P1_T29  COST      37.2
    X_P1_T29  BAL_P1_T29  1
    X_P1_T29  CAP_M0_T29  1
    X_P1_T29  CAP_M1_T29  2.2
    X_P1_T29  CAP_M2_T29  1
    X_P1_T29  CAP_M3_T29  2.4
    X_P1_T29  CAP_M4_T29  3
    X_P1_T29  CAP_M5_T29  2.2
    X_P1_T29  CAP_M6_T29  2.7
    X_P1_T29  CAP_M7_T29  1.4
    X_P1_T29  CAP_M8_T29  1.9
    X_P1_T29  CAP_M9_T29  0.9
    X_P1_T29  CAP_M10_T29  2.9
    X_P1_T29  CAP_M11_T29  2.2
    X_P2_T29  COST      41.9
    X_P2_T29  BAL_P2_T29  1
    X_P2_T29  CAP_M0_T29  2.6
    X_P2_T29  CAP_M1_T29  1.4
    X_P2_T29  CAP_M2_T29  0.8
    X_P2_T29  CAP_M3_T29  2.3
    X_P2_T29  CAP_M4_T29  2.5
    X_P2_T29  CAP_M5_T29  1
    X_P2_T29  CAP_M6_T29  1.2
    X_P2_T29  CAP_M7_T29  1
    X_P2_T29  CAP_M8_T29  1.1
    X_P2_T29  CAP_M9_T29  1.9
    X_P2_T29  CAP_M10_T29  3
    X_P2_T29  CAP_M11_T29  0.8
    X_P3_T29  COST      11.8
    X_P3_T29  BAL_P3_T29  1
    X_P3_T29  CAP_M0_T29  1.8
    X_P3_T29  CAP_M1_T29  2.8
    X_P3_T29  CAP_M2_T29  2.1
    X_P3_T29  CAP_M3_T29  1.6
    X_P3_T29  CAP_M4_T29  1.1
    X_P3_T29  CAP_M5_T29  0.7
    X_P3_T29  CAP_M6_T29  2
    X_P3_T29  CAP_M7_T29  2.7
    X_P3_T29  CAP_M8_T29  1.9
    X_P3_T29  CAP_M9_T29  2.6
    X_P3_T29  CAP_M10_T29  2.1
    X_P3_T29  CAP_M11_T29  2.3
    X_P4_T29  COST      21.7
    X_P4_T29  BAL_P4_T29  1
    X_P4_T29  CAP_M0_T29  1.9
    X_P4_T29  CAP_M1_T29  2
    X_P4_T29  CAP_M2_T29  2.5
    X_P4_T29  CAP_M3_T29  2.7
    X_P4_T29  CAP_M4_T29  2.1
    X_P4_T29  CAP_M5_T29  1.2
    X_P4_T29  CAP_M6_T29  1.6
    X_P4_T29  CAP_M7_T29  1.6
    X_P4_T29  CAP_M8_T29  2.1
    X_P4_T29  CAP_M9_T29  1.7
    X_P4_T29  CAP_M10_T29  0.8
    X_P4_T29  CAP_M11_T29  1.6
    X_P5_T29  COST      48.8
    X_P5_T29  BAL_P5_T29  1
    X_P5_T29  CAP_M0_T29  2.1
    X_P5_T29  CAP_M1_T29  0.7
    X_P5_T29  CAP_M2_T29  2.9
    X_P5_T29  CAP_M3_T29  1.3
    X_P5_T29  CAP_M4_T29  2.6
    X_P5_T29  CAP_M5_T29  1.9
    X_P5_T29  CAP_M6_T29  2.4
    X_P5_T29  CAP_M7_T29  1.8
    X_P5_T29  CAP_M8_T29  1.4
    X_P5_T29  CAP_M9_T29  0.7
    X_P5_T29  CAP_M10_T29  0.6
    X_P5_T29  CAP_M11_T29  2.9
    X_P6_T29  COST      34.1
    X_P6_T29  BAL_P6_T29  1
    X_P6_T29  CAP_M0_T29  1.3
    X_P6_T29  CAP_M1_T29  1.8
    X_P6_T29  CAP_M2_T29  2.5
    X_P6_T29  CAP_M3_T29  2.2
    X_P6_T29  CAP_M4_T29  0.7
    X_P6_T29  CAP_M5_T29  1.5
    X_P6_T29  CAP_M6_T29  0.6
    X_P6_T29  CAP_M7_T29  1.9
    X_P6_T29  CAP_M8_T29  1.3
    X_P6_T29  CAP_M9_T29  2.1
    X_P6_T29  CAP_M10_T29  2.4
    X_P6_T29  CAP_M11_T29  1.1
    X_P7_T29  COST      44.1
    X_P7_T29  BAL_P7_T29  1
    X_P7_T29  CAP_M0_T29  1.1
    X_P7_T29  CAP_M1_T29  2.2
    X_P7_T29  CAP_M2_T29  2.5
    X_P7_T29  CAP_M3_T29  2.9
    X_P7_T29  CAP_M4_T29  1
    X_P7_T29  CAP_M5_T29  2.9
    X_P7_T29  CAP_M6_T29  2.4
    X_P7_T29  CAP_M7_T29  1.6
    X_P7_T29  CAP_M8_T29  1.4
    X_P7_T29  CAP_M9_T29  0.6
    X_P7_T29  CAP_M10_T29  1.6
    X_P7_T29  CAP_M11_T29  1.7
    X_P8_T29  COST      43.8
    X_P8_T29  BAL_P8_T29  1
    X_P8_T29  CAP_M0_T29  1.8
    X_P8_T29  CAP_M1_T29  0.7
    X_P8_T29  CAP_M2_T29  2.7
    X_P8_T29  CAP_M3_T29  2.3
    X_P8_T29  CAP_M4_T29  1.6
    X_P8_T29  CAP_M5_T29  1.3
    X_P8_T29  CAP_M6_T29  2.9
    X_P8_T29  CAP_M7_T29  1.1
    X_P8_T29  CAP_M8_T29  1.5
    X_P8_T29  CAP_M9_T29  2.1
    X_P8_T29  CAP_M10_T29  1.6
    X_P8_T29  CAP_M11_T29  0.7
    X_P9_T29  COST      32.1
    X_P9_T29  BAL_P9_T29  1
    X_P9_T29  CAP_M0_T29  1.3
    X_P9_T29  CAP_M1_T29  2.8
    X_P9_T29  CAP_M2_T29  1.3
    X_P9_T29  CAP_M3_T29  0.6
    X_P9_T29  CAP_M4_T29  1.7
    X_P9_T29  CAP_M5_T29  2.5
    X_P9_T29  CAP_M6_T29  1
    X_P9_T29  CAP_M7_T29  2.5
    X_P9_T29  CAP_M8_T29  2.7
    X_P9_T29  CAP_M9_T29  1.1
    X_P9_T29  CAP_M10_T29  1.8
    X_P9_T29  CAP_M11_T29  2.8
    X_P10_T29  COST      20.3
    X_P10_T29  BAL_P10_T29  1
    X_P10_T29  CAP_M0_T29  0.8
    X_P10_T29  CAP_M1_T29  0.8
    X_P10_T29  CAP_M2_T29  1.3
    X_P10_T29  CAP_M3_T29  0.8
    X_P10_T29  CAP_M4_T29  0.7
    X_P10_T29  CAP_M5_T29  1.7
    X_P10_T29  CAP_M6_T29  1.4
    X_P10_T29  CAP_M7_T29  1.3
    X_P10_T29  CAP_M8_T29  2.9
    X_P10_T29  CAP_M9_T29  1.6
    X_P10_T29  CAP_M10_T29  2.9
    X_P10_T29  CAP_M11_T29  0.7
    X_P11_T29  COST      13.3
    X_P11_T29  BAL_P11_T29  1
    X_P11_T29  CAP_M0_T29  2.4
    X_P11_T29  CAP_M1_T29  1.8
    X_P11_T29  CAP_M2_T29  1.8
    X_P11_T29  CAP_M3_T29  1.5
    X_P11_T29  CAP_M4_T29  2.8
    X_P11_T29  CAP_M5_T29  1.4
    X_P11_T29  CAP_M6_T29  0.7
    X_P11_T29  CAP_M7_T29  0.7
    X_P11_T29  CAP_M8_T29  2
    X_P11_T29  CAP_M9_T29  1.5
    X_P11_T29  CAP_M10_T29  1.7
    X_P11_T29  CAP_M11_T29  2.8
    X_P12_T29  COST      27
    X_P12_T29  BAL_P12_T29  1
    X_P12_T29  CAP_M0_T29  2.4
    X_P12_T29  CAP_M1_T29  2.3
    X_P12_T29  CAP_M2_T29  1.7
    X_P12_T29  CAP_M3_T29  2
    X_P12_T29  CAP_M4_T29  1.9
    X_P12_T29  CAP_M5_T29  1.2
    X_P12_T29  CAP_M6_T29  1.7
    X_P12_T29  CAP_M7_T29  1.4
    X_P12_T29  CAP_M8_T29  2
    X_P12_T29  CAP_M9_T29  1.6
    X_P12_T29  CAP_M10_T29  1.3
    X_P12_T29  CAP_M11_T29  2.7
    X_P13_T29  COST      34.7
    X_P13_T29  BAL_P13_T29  1
    X_P13_T29  CAP_M0_T29  2.2
    X_P13_T29  CAP_M1_T29  0.8
    X_P13_T29  CAP_M2_T29  2.7
    X_P13_T29  CAP_M3_T29  2.1
    X_P13_T29  CAP_M4_T29  1.8
    X_P13_T29  CAP_M5_T29  1.2
    X_P13_T29  CAP_M6_T29  1
    X_P13_T29  CAP_M7_T29  1.2
    X_P13_T29  CAP_M8_T29  1.8
    X_P13_T29  CAP_M9_T29  1
    X_P13_T29  CAP_M10_T29  1.3
    X_P13_T29  CAP_M11_T29  1.2
    X_P14_T29  COST      49.9
    X_P14_T29  BAL_P14_T29  1
    X_P14_T29  CAP_M0_T29  1.1
    X_P14_T29  CAP_M1_T29  1.8
    X_P14_T29  CAP_M2_T29  1.9
    X_P14_T29  CAP_M3_T29  1.4
    X_P14_T29  CAP_M4_T29  1.5
    X_P14_T29  CAP_M5_T29  1.9
    X_P14_T29  CAP_M6_T29  2.7
    X_P14_T29  CAP_M7_T29  0.8
    X_P14_T29  CAP_M8_T29  1.7
    X_P14_T29  CAP_M9_T29  2.2
    X_P14_T29  CAP_M10_T29  2.7
    X_P14_T29  CAP_M11_T29  1.2
    X_P15_T29  COST      43.2
    X_P15_T29  BAL_P15_T29  1
    X_P15_T29  CAP_M0_T29  0.8
    X_P15_T29  CAP_M1_T29  0.8
    X_P15_T29  CAP_M2_T29  2.4
    X_P15_T29  CAP_M3_T29  2.3
    X_P15_T29  CAP_M4_T29  1.8
    X_P15_T29  CAP_M5_T29  0.8
    X_P15_T29  CAP_M6_T29  0.8
    X_P15_T29  CAP_M7_T29  1.4
    X_P15_T29  CAP_M8_T29  1.3
    X_P15_T29  CAP_M9_T29  1.8
    X_P15_T29  CAP_M10_T29  2.1
    X_P15_T29  CAP_M11_T29  1.5
    X_P16_T29  COST      34.1
    X_P16_T29  BAL_P16_T29  1
    X_P16_T29  CAP_M0_T29  1.1
    X_P16_T29  CAP_M1_T29  0.5
    X_P16_T29  CAP_M2_T29  1.2
    X_P16_T29  CAP_M3_T29  2.8
    X_P16_T29  CAP_M4_T29  1.1
    X_P16_T29  CAP_M5_T29  1
    X_P16_T29  CAP_M6_T29  1.8
    X_P16_T29  CAP_M7_T29  1.8
    X_P16_T29  CAP_M8_T29  2.5
    X_P16_T29  CAP_M9_T29  1.6
    X_P16_T29  CAP_M10_T29  2.7
    X_P16_T29  CAP_M11_T29  1.3
    X_P17_T29  COST      49.4
    X_P17_T29  BAL_P17_T29  1
    X_P17_T29  CAP_M0_T29  1.8
    X_P17_T29  CAP_M1_T29  2.2
    X_P17_T29  CAP_M2_T29  2.7
    X_P17_T29  CAP_M3_T29  2.2
    X_P17_T29  CAP_M4_T29  1.2
    X_P17_T29  CAP_M5_T29  1.3
    X_P17_T29  CAP_M6_T29  0.7
    X_P17_T29  CAP_M7_T29  1.3
    X_P17_T29  CAP_M8_T29  2.8
    X_P17_T29  CAP_M9_T29  1.4
    X_P17_T29  CAP_M10_T29  2.7
    X_P17_T29  CAP_M11_T29  2.2
    X_P18_T29  COST      49.7
    X_P18_T29  BAL_P18_T29  1
    X_P18_T29  CAP_M0_T29  1.3
    X_P18_T29  CAP_M1_T29  2.9
    X_P18_T29  CAP_M2_T29  1.7
    X_P18_T29  CAP_M3_T29  0.5
    X_P18_T29  CAP_M4_T29  2.4
    X_P18_T29  CAP_M5_T29  2.9
    X_P18_T29  CAP_M6_T29  2.1
    X_P18_T29  CAP_M7_T29  2.7
    X_P18_T29  CAP_M8_T29  1.4
    X_P18_T29  CAP_M9_T29  0.5
    X_P18_T29  CAP_M10_T29  2.1
    X_P18_T29  CAP_M11_T29  1.1
    X_P19_T29  COST      12.4
    X_P19_T29  BAL_P19_T29  1
    X_P19_T29  CAP_M0_T29  2.2
    X_P19_T29  CAP_M1_T29  2.8
    X_P19_T29  CAP_M2_T29  1.6
    X_P19_T29  CAP_M3_T29  2.6
    X_P19_T29  CAP_M4_T29  1.7
    X_P19_T29  CAP_M5_T29  1.3
    X_P19_T29  CAP_M6_T29  1
    X_P19_T29  CAP_M7_T29  1.5
    X_P19_T29  CAP_M8_T29  0.6
    X_P19_T29  CAP_M9_T29  2.8
    X_P19_T29  CAP_M10_T29  0.8
    X_P19_T29  CAP_M11_T29  0.8
    X_P20_T29  COST      48.2
    X_P20_T29  BAL_P20_T29  1
    X_P20_T29  CAP_M0_T29  1.2
    X_P20_T29  CAP_M1_T29  2
    X_P20_T29  CAP_M2_T29  1.4
    X_P20_T29  CAP_M3_T29  2.3
    X_P20_T29  CAP_M4_T29  1.5
    X_P20_T29  CAP_M5_T29  1.6
    X_P20_T29  CAP_M6_T29  2.6
    X_P20_T29  CAP_M7_T29  2.1
    X_P20_T29  CAP_M8_T29  1.2
    X_P20_T29  CAP_M9_T29  1
    X_P20_T29  CAP_M10_T29  2.3
    X_P20_T29  CAP_M11_T29  1.8
    X_P21_T29  COST      47
    X_P21_T29  BAL_P21_T29  1
    X_P21_T29  CAP_M0_T29  2.4
    X_P21_T29  CAP_M1_T29  1.9
    X_P21_T29  CAP_M2_T29  2.9
    X_P21_T29  CAP_M3_T29  2.7
    X_P21_T29  CAP_M4_T29  2.7
    X_P21_T29  CAP_M5_T29  1.7
    X_P21_T29  CAP_M6_T29  2.8
    X_P21_T29  CAP_M7_T29  2.5
    X_P21_T29  CAP_M8_T29  3
    X_P21_T29  CAP_M9_T29  2.7
    X_P21_T29  CAP_M10_T29  2.4
    X_P21_T29  CAP_M11_T29  2.4
    X_P22_T29  COST      15.6
    X_P22_T29  BAL_P22_T29  1
    X_P22_T29  CAP_M0_T29  0.6
    X_P22_T29  CAP_M1_T29  2.9
    X_P22_T29  CAP_M2_T29  2.1
    X_P22_T29  CAP_M3_T29  2.1
    X_P22_T29  CAP_M4_T29  2
    X_P22_T29  CAP_M5_T29  2.4
    X_P22_T29  CAP_M6_T29  2.2
    X_P22_T29  CAP_M7_T29  0.7
    X_P22_T29  CAP_M8_T29  0.5
    X_P22_T29  CAP_M9_T29  1.8
    X_P22_T29  CAP_M10_T29  1.1
    X_P22_T29  CAP_M11_T29  2.6
    X_P23_T29  COST      15
    X_P23_T29  BAL_P23_T29  1
    X_P23_T29  CAP_M0_T29  2.9
    X_P23_T29  CAP_M1_T29  1.2
    X_P23_T29  CAP_M2_T29  1.8
    X_P23_T29  CAP_M3_T29  1.8
    X_P23_T29  CAP_M4_T29  1.5
    X_P23_T29  CAP_M5_T29  0.5
    X_P23_T29  CAP_M6_T29  2.8
    X_P23_T29  CAP_M7_T29  1.9
    X_P23_T29  CAP_M8_T29  2.2
    X_P23_T29  CAP_M9_T29  2.9
    X_P23_T29  CAP_M10_T29  2.1
    X_P23_T29  CAP_M11_T29  2.2
    X_P24_T29  COST      29
    X_P24_T29  BAL_P24_T29  1
    X_P24_T29  CAP_M0_T29  1.1
    X_P24_T29  CAP_M1_T29  2.5
    X_P24_T29  CAP_M2_T29  1.3
    X_P24_T29  CAP_M3_T29  2.8
    X_P24_T29  CAP_M4_T29  1.1
    X_P24_T29  CAP_M5_T29  2
    X_P24_T29  CAP_M6_T29  1.4
    X_P24_T29  CAP_M7_T29  0.5
    X_P24_T29  CAP_M8_T29  1.2
    X_P24_T29  CAP_M9_T29  2.4
    X_P24_T29  CAP_M10_T29  0.6
    X_P24_T29  CAP_M11_T29  1.9
    S_P0_T29  COST      3.8
    S_P0_T29  BAL_P0_T29  -1
    S_P0_T29  STORAGE_T29  1
    S_P0_T29  BAL_P0_T30  1
    S_P1_T29  COST      3.9
    S_P1_T29  BAL_P1_T29  -1
    S_P1_T29  STORAGE_T29  1
    S_P1_T29  BAL_P1_T30  1
    S_P2_T29  COST      3.9
    S_P2_T29  BAL_P2_T29  -1
    S_P2_T29  STORAGE_T29  1
    S_P2_T29  BAL_P2_T30  1
    S_P3_T29  COST      2.9
    S_P3_T29  BAL_P3_T29  -1
    S_P3_T29  STORAGE_T29  1
    S_P3_T29  BAL_P3_T30  1
    S_P4_T29  COST      2
    S_P4_T29  BAL_P4_T29  -1
    S_P4_T29  STORAGE_T29  1
    S_P4_T29  BAL_P4_T30  1
    S_P5_T29  COST      2.8
    S_P5_T29  BAL_P5_T29  -1
    S_P5_T29  STORAGE_T29  1
    S_P5_T29  BAL_P5_T30  1
    S_P6_T29  COST      1.3
    S_P6_T29  BAL_P6_T29  -1
    S_P6_T29  STORAGE_T29  1
    S_P6_T29  BAL_P6_T30  1
    S_P7_T29  COST      1.6
    S_P7_T29  BAL_P7_T29  -1
    S_P7_T29  STORAGE_T29  1
    S_P7_T29  BAL_P7_T30  1
    S_P8_T29  COST      4.1
    S_P8_T29  BAL_P8_T29  -1
    S_P8_T29  STORAGE_T29  1
    S_P8_T29  BAL_P8_T30  1
    S_P9_T29  COST      3.1
    S_P9_T29  BAL_P9_T29  -1
    S_P9_T29  STORAGE_T29  1
    S_P9_T29  BAL_P9_T30  1
    S_P10_T29  COST      4.5
    S_P10_T29  BAL_P10_T29  -1
    S_P10_T29  STORAGE_T29  1
    S_P10_T29  BAL_P10_T30  1
    S_P11_T29  COST      3.8
    S_P11_T29  BAL_P11_T29  -1
    S_P11_T29  STORAGE_T29  1
    S_P11_T29  BAL_P11_T30  1
    S_P12_T29  COST      3.5
    S_P12_T29  BAL_P12_T29  -1
    S_P12_T29  STORAGE_T29  1
    S_P12_T29  BAL_P12_T30  1
    S_P13_T29  COST      1.4
    S_P13_T29  BAL_P13_T29  -1
    S_P13_T29  STORAGE_T29  1
    S_P13_T29  BAL_P13_T30  1
    S_P14_T29  COST      4.1
    S_P14_T29  BAL_P14_T29  -1
    S_P14_T29  STORAGE_T29  1
    S_P14_T29  BAL_P14_T30  1
    S_P15_T29  COST      4.2
    S_P15_T29  BAL_P15_T29  -1
    S_P15_T29  STORAGE_T29  1
    S_P15_T29  BAL_P15_T30  1
    S_P16_T29  COST      3.8
    S_P16_T29  BAL_P16_T29  -1
    S_P16_T29  STORAGE_T29  1
    S_P16_T29  BAL_P16_T30  1
    S_P17_T29  COST      2.5
    S_P17_T29  BAL_P17_T29  -1
    S_P17_T29  STORAGE_T29  1
    S_P17_T29  BAL_P17_T30  1
    S_P18_T29  COST      4.2
    S_P18_T29  BAL_P18_T29  -1
    S_P18_T29  STORAGE_T29  1
    S_P18_T29  BAL_P18_T30  1
    S_P19_T29  COST      4.6
    S_P19_T29  BAL_P19_T29  -1
    S_P19_T29  STORAGE_T29  1
    S_P19_T29  BAL_P19_T30  1
    S_P20_T29  COST      4.4
    S_P20_T29  BAL_P20_T29  -1
    S_P20_T29  STORAGE_T29  1
    S_P20_T29  BAL_P20_T30  1
    S_P21_T29  COST      4.1
    S_P21_T29  BAL_P21_T29  -1
    S_P21_T29  STORAGE_T29  1
    S_P21_T29  BAL_P21_T30  1
    S_P22_T29  COST      3.9
    S_P22_T29  BAL_P22_T29  -1
    S_P22_T29  STORAGE_T29  1
    S_P22_T29  BAL_P22_T30  1
    S_P23_T29  COST      4.8
    S_P23_T29  BAL_P23_T29  -1
    S_P23_T29  STORAGE_T29  1
    S_P23_T29  BAL_P23_T30  1
    S_P24_T29  COST      2.8
    S_P24_T29  BAL_P24_T29  -1
    S_P24_T29  STORAGE_T29  1
    S_P24_T29  BAL_P24_T30  1
    X_P0_T30  COST      47.6
    X_P0_T30  BAL_P0_T30  1
    X_P0_T30  CAP_M0_T30  1.4
    X_P0_T30  CAP_M1_T30  2.4
    X_P0_T30  CAP_M2_T30  0.5
    X_P0_T30  CAP_M3_T30  1
    X_P0_T30  CAP_M4_T30  1.3
    X_P0_T30  CAP_M5_T30  0.8
    X_P0_T30  CAP_M6_T30  1
    X_P0_T30  CAP_M7_T30  1.7
    X_P0_T30  CAP_M8_T30  0.7
    X_P0_T30  CAP_M9_T30  1.5
    X_P0_T30  CAP_M10_T30  2.4
    X_P0_T30  CAP_M11_T30  0.9
    X_P1_T30  COST      48.1
    X_P1_T30  BAL_P1_T30  1
    X_P1_T30  CAP_M0_T30  1
    X_P1_T30  CAP_M1_T30  2.2
    X_P1_T30  CAP_M2_T30  1
    X_P1_T30  CAP_M3_T30  2.4
    X_P1_T30  CAP_M4_T30  3
    X_P1_T30  CAP_M5_T30  2.2
    X_P1_T30  CAP_M6_T30  2.7
    X_P1_T30  CAP_M7_T30  1.4
    X_P1_T30  CAP_M8_T30  1.9
    X_P1_T30  CAP_M9_T30  0.9
    X_P1_T30  CAP_M10_T30  2.9
    X_P1_T30  CAP_M11_T30  2.2
    X_P2_T30  COST      30.3
    X_P2_T30  BAL_P2_T30  1
    X_P2_T30  CAP_M0_T30  2.6
    X_P2_T30  CAP_M1_T30  1.4
    X_P2_T30  CAP_M2_T30  0.8
    X_P2_T30  CAP_M3_T30  2.3
    X_P2_T30  CAP_M4_T30  2.5
    X_P2_T30  CAP_M5_T30  1
    X_P2_T30  CAP_M6_T30  1.2
    X_P2_T30  CAP_M7_T30  1
    X_P2_T30  CAP_M8_T30  1.1
    X_P2_T30  CAP_M9_T30  1.9
    X_P2_T30  CAP_M10_T30  3
    X_P2_T30  CAP_M11_T30  0.8
    X_P3_T30  COST      40.3
    X_P3_T30  BAL_P3_T30  1
    X_P3_T30  CAP_M0_T30  1.8
    X_P3_T30  CAP_M1_T30  2.8
    X_P3_T30  CAP_M2_T30  2.1
    X_P3_T30  CAP_M3_T30  1.6
    X_P3_T30  CAP_M4_T30  1.1
    X_P3_T30  CAP_M5_T30  0.7
    X_P3_T30  CAP_M6_T30  2
    X_P3_T30  CAP_M7_T30  2.7
    X_P3_T30  CAP_M8_T30  1.9
    X_P3_T30  CAP_M9_T30  2.6
    X_P3_T30  CAP_M10_T30  2.1
    X_P3_T30  CAP_M11_T30  2.3
    X_P4_T30  COST      30.6
    X_P4_T30  BAL_P4_T30  1
    X_P4_T30  CAP_M0_T30  1.9
    X_P4_T30  CAP_M1_T30  2
    X_P4_T30  CAP_M2_T30  2.5
    X_P4_T30  CAP_M3_T30  2.7
    X_P4_T30  CAP_M4_T30  2.1
    X_P4_T30  CAP_M5_T30  1.2
    X_P4_T30  CAP_M6_T30  1.6
    X_P4_T30  CAP_M7_T30  1.6
    X_P4_T30  CAP_M8_T30  2.1
    X_P4_T30  CAP_M9_T30  1.7
    X_P4_T30  CAP_M10_T30  0.8
    X_P4_T30  CAP_M11_T30  1.6
    X_P5_T30  COST      20.4
    X_P5_T30  BAL_P5_T30  1
    X_P5_T30  CAP_M0_T30  2.1
    X_P5_T30  CAP_M1_T30  0.7
    X_P5_T30  CAP_M2_T30  2.9
    X_P5_T30  CAP_M3_T30  1.3
    X_P5_T30  CAP_M4_T30  2.6
    X_P5_T30  CAP_M5_T30  1.9
    X_P5_T30  CAP_M6_T30  2.4
    X_P5_T30  CAP_M7_T30  1.8
    X_P5_T30  CAP_M8_T30  1.4
    X_P5_T30  CAP_M9_T30  0.7
    X_P5_T30  CAP_M10_T30  0.6
    X_P5_T30  CAP_M11_T30  2.9
    X_P6_T30  COST      16.7
    X_P6_T30  BAL_P6_T30  1
    X_P6_T30  CAP_M0_T30  1.3
    X_P6_T30  CAP_M1_T30  1.8
    X_P6_T30  CAP_M2_T30  2.5
    X_P6_T30  CAP_M3_T30  2.2
    X_P6_T30  CAP_M4_T30  0.7
    X_P6_T30  CAP_M5_T30  1.5
    X_P6_T30  CAP_M6_T30  0.6
    X_P6_T30  CAP_M7_T30  1.9
    X_P6_T30  CAP_M8_T30  1.3
    X_P6_T30  CAP_M9_T30  2.1
    X_P6_T30  CAP_M10_T30  2.4
    X_P6_T30  CAP_M11_T30  1.1
    X_P7_T30  COST      43.7
    X_P7_T30  BAL_P7_T30  1
    X_P7_T30  CAP_M0_T30  1.1
    X_P7_T30  CAP_M1_T30  2.2
    X_P7_T30  CAP_M2_T30  2.5
    X_P7_T30  CAP_M3_T30  2.9
    X_P7_T30  CAP_M4_T30  1
    X_P7_T30  CAP_M5_T30  2.9
    X_P7_T30  CAP_M6_T30  2.4
    X_P7_T30  CAP_M7_T30  1.6
    X_P7_T30  CAP_M8_T30  1.4
    X_P7_T30  CAP_M9_T30  0.6
    X_P7_T30  CAP_M10_T30  1.6
    X_P7_T30  CAP_M11_T30  1.7
    X_P8_T30  COST      40.6
    X_P8_T30  BAL_P8_T30  1
    X_P8_T30  CAP_M0_T30  1.8
    X_P8_T30  CAP_M1_T30  0.7
    X_P8_T30  CAP_M2_T30  2.7
    X_P8_T30  CAP_M3_T30  2.3
    X_P8_T30  CAP_M4_T30  1.6
    X_P8_T30  CAP_M5_T30  1.3
    X_P8_T30  CAP_M6_T30  2.9
    X_P8_T30  CAP_M7_T30  1.1
    X_P8_T30  CAP_M8_T30  1.5
    X_P8_T30  CAP_M9_T30  2.1
    X_P8_T30  CAP_M10_T30  1.6
    X_P8_T30  CAP_M11_T30  0.7
    X_P9_T30  COST      20.4
    X_P9_T30  BAL_P9_T30  1
    X_P9_T30  CAP_M0_T30  1.3
    X_P9_T30  CAP_M1_T30  2.8
    X_P9_T30  CAP_M2_T30  1.3
    X_P9_T30  CAP_M3_T30  0.6
    X_P9_T30  CAP_M4_T30  1.7
    X_P9_T30  CAP_M5_T30  2.5
    X_P9_T30  CAP_M6_T30  1
    X_P9_T30  CAP_M7_T30  2.5
    X_P9_T30  CAP_M8_T30  2.7
    X_P9_T30  CAP_M9_T30  1.1
    X_P9_T30  CAP_M10_T30  1.8
    X_P9_T30  CAP_M11_T30  2.8
    X_P10_T30  COST      41.2
    X_P10_T30  BAL_P10_T30  1
    X_P10_T30  CAP_M0_T30  0.8
    X_P10_T30  CAP_M1_T30  0.8
    X_P10_T30  CAP_M2_T30  1.3
    X_P10_T30  CAP_M3_T30  0.8
    X_P10_T30  CAP_M4_T30  0.7
    X_P10_T30  CAP_M5_T30  1.7
    X_P10_T30  CAP_M6_T30  1.4
    X_P10_T30  CAP_M7_T30  1.3
    X_P10_T30  CAP_M8_T30  2.9
    X_P10_T30  CAP_M9_T30  1.6
    X_P10_T30  CAP_M10_T30  2.9
    X_P10_T30  CAP_M11_T30  0.7
    X_P11_T30  COST      13.3
    X_P11_T30  BAL_P11_T30  1
    X_P11_T30  CAP_M0_T30  2.4
    X_P11_T30  CAP_M1_T30  1.8
    X_P11_T30  CAP_M2_T30  1.8
    X_P11_T30  CAP_M3_T30  1.5
    X_P11_T30  CAP_M4_T30  2.8
    X_P11_T30  CAP_M5_T30  1.4
    X_P11_T30  CAP_M6_T30  0.7
    X_P11_T30  CAP_M7_T30  0.7
    X_P11_T30  CAP_M8_T30  2
    X_P11_T30  CAP_M9_T30  1.5
    X_P11_T30  CAP_M10_T30  1.7
    X_P11_T30  CAP_M11_T30  2.8
    X_P12_T30  COST      21.8
    X_P12_T30  BAL_P12_T30  1
    X_P12_T30  CAP_M0_T30  2.4
    X_P12_T30  CAP_M1_T30  2.3
    X_P12_T30  CAP_M2_T30  1.7
    X_P12_T30  CAP_M3_T30  2
    X_P12_T30  CAP_M4_T30  1.9
    X_P12_T30  CAP_M5_T30  1.2
    X_P12_T30  CAP_M6_T30  1.7
    X_P12_T30  CAP_M7_T30  1.4
    X_P12_T30  CAP_M8_T30  2
    X_P12_T30  CAP_M9_T30  1.6
    X_P12_T30  CAP_M10_T30  1.3
    X_P12_T30  CAP_M11_T30  2.7
    X_P13_T30  COST      11.9
    X_P13_T30  BAL_P13_T30  1
    X_P13_T30  CAP_M0_T30  2.2
    X_P13_T30  CAP_M1_T30  0.8
    X_P13_T30  CAP_M2_T30  2.7
    X_P13_T30  CAP_M3_T30  2.1
    X_P13_T30  CAP_M4_T30  1.8
    X_P13_T30  CAP_M5_T30  1.2
    X_P13_T30  CAP_M6_T30  1
    X_P13_T30  CAP_M7_T30  1.2
    X_P13_T30  CAP_M8_T30  1.8
    X_P13_T30  CAP_M9_T30  1
    X_P13_T30  CAP_M10_T30  1.3
    X_P13_T30  CAP_M11_T30  1.2
    X_P14_T30  COST      30.7
    X_P14_T30  BAL_P14_T30  1
    X_P14_T30  CAP_M0_T30  1.1
    X_P14_T30  CAP_M1_T30  1.8
    X_P14_T30  CAP_M2_T30  1.9
    X_P14_T30  CAP_M3_T30  1.4
    X_P14_T30  CAP_M4_T30  1.5
    X_P14_T30  CAP_M5_T30  1.9
    X_P14_T30  CAP_M6_T30  2.7
    X_P14_T30  CAP_M7_T30  0.8
    X_P14_T30  CAP_M8_T30  1.7
    X_P14_T30  CAP_M9_T30  2.2
    X_P14_T30  CAP_M10_T30  2.7
    X_P14_T30  CAP_M11_T30  1.2
    X_P15_T30  COST      32.4
    X_P15_T30  BAL_P15_T30  1
    X_P15_T30  CAP_M0_T30  0.8
    X_P15_T30  CAP_M1_T30  0.8
    X_P15_T30  CAP_M2_T30  2.4
    X_P15_T30  CAP_M3_T30  2.3
    X_P15_T30  CAP_M4_T30  1.8
    X_P15_T30  CAP_M5_T30  0.8
    X_P15_T30  CAP_M6_T30  0.8
    X_P15_T30  CAP_M7_T30  1.4
    X_P15_T30  CAP_M8_T30  1.3
    X_P15_T30  CAP_M9_T30  1.8
    X_P15_T30  CAP_M10_T30  2.1
    X_P15_T30  CAP_M11_T30  1.5
    X_P16_T30  COST      40.6
    X_P16_T30  BAL_P16_T30  1
    X_P16_T30  CAP_M0_T30  1.1
    X_P16_T30  CAP_M1_T30  0.5
    X_P16_T30  CAP_M2_T30  1.2
    X_P16_T30  CAP_M3_T30  2.8
    X_P16_T30  CAP_M4_T30  1.1
    X_P16_T30  CAP_M5_T30  1
    X_P16_T30  CAP_M6_T30  1.8
    X_P16_T30  CAP_M7_T30  1.8
    X_P16_T30  CAP_M8_T30  2.5
    X_P16_T30  CAP_M9_T30  1.6
    X_P16_T30  CAP_M10_T30  2.7
    X_P16_T30  CAP_M11_T30  1.3
    X_P17_T30  COST      49.7
    X_P17_T30  BAL_P17_T30  1
    X_P17_T30  CAP_M0_T30  1.8
    X_P17_T30  CAP_M1_T30  2.2
    X_P17_T30  CAP_M2_T30  2.7
    X_P17_T30  CAP_M3_T30  2.2
    X_P17_T30  CAP_M4_T30  1.2
    X_P17_T30  CAP_M5_T30  1.3
    X_P17_T30  CAP_M6_T30  0.7
    X_P17_T30  CAP_M7_T30  1.3
    X_P17_T30  CAP_M8_T30  2.8
    X_P17_T30  CAP_M9_T30  1.4
    X_P17_T30  CAP_M10_T30  2.7
    X_P17_T30  CAP_M11_T30  2.2
    X_P18_T30  COST      10.1
    X_P18_T30  BAL_P18_T30  1
    X_P18_T30  CAP_M0_T30  1.3
    X_P18_T30  CAP_M1_T30  2.9
    X_P18_T30  CAP_M2_T30  1.7
    X_P18_T30  CAP_M3_T30  0.5
    X_P18_T30  CAP_M4_T30  2.4
    X_P18_T30  CAP_M5_T30  2.9
    X_P18_T30  CAP_M6_T30  2.1
    X_P18_T30  CAP_M7_T30  2.7
    X_P18_T30  CAP_M8_T30  1.4
    X_P18_T30  CAP_M9_T30  0.5
    X_P18_T30  CAP_M10_T30  2.1
    X_P18_T30  CAP_M11_T30  1.1
    X_P19_T30  COST      30
    X_P19_T30  BAL_P19_T30  1
    X_P19_T30  CAP_M0_T30  2.2
    X_P19_T30  CAP_M1_T30  2.8
    X_P19_T30  CAP_M2_T30  1.6
    X_P19_T30  CAP_M3_T30  2.6
    X_P19_T30  CAP_M4_T30  1.7
    X_P19_T30  CAP_M5_T30  1.3
    X_P19_T30  CAP_M6_T30  1
    X_P19_T30  CAP_M7_T30  1.5
    X_P19_T30  CAP_M8_T30  0.6
    X_P19_T30  CAP_M9_T30  2.8
    X_P19_T30  CAP_M10_T30  0.8
    X_P19_T30  CAP_M11_T30  0.8
    X_P20_T30  COST      25.5
    X_P20_T30  BAL_P20_T30  1
    X_P20_T30  CAP_M0_T30  1.2
    X_P20_T30  CAP_M1_T30  2
    X_P20_T30  CAP_M2_T30  1.4
    X_P20_T30  CAP_M3_T30  2.3
    X_P20_T30  CAP_M4_T30  1.5
    X_P20_T30  CAP_M5_T30  1.6
    X_P20_T30  CAP_M6_T30  2.6
    X_P20_T30  CAP_M7_T30  2.1
    X_P20_T30  CAP_M8_T30  1.2
    X_P20_T30  CAP_M9_T30  1
    X_P20_T30  CAP_M10_T30  2.3
    X_P20_T30  CAP_M11_T30  1.8
    X_P21_T30  COST      23.9
    X_P21_T30  BAL_P21_T30  1
    X_P21_T30  CAP_M0_T30  2.4
    X_P21_T30  CAP_M1_T30  1.9
    X_P21_T30  CAP_M2_T30  2.9
    X_P21_T30  CAP_M3_T30  2.7
    X_P21_T30  CAP_M4_T30  2.7
    X_P21_T30  CAP_M5_T30  1.7
    X_P21_T30  CAP_M6_T30  2.8
    X_P21_T30  CAP_M7_T30  2.5
    X_P21_T30  CAP_M8_T30  3
    X_P21_T30  CAP_M9_T30  2.7
    X_P21_T30  CAP_M10_T30  2.4
    X_P21_T30  CAP_M11_T30  2.4
    X_P22_T30  COST      16.8
    X_P22_T30  BAL_P22_T30  1
    X_P22_T30  CAP_M0_T30  0.6
    X_P22_T30  CAP_M1_T30  2.9
    X_P22_T30  CAP_M2_T30  2.1
    X_P22_T30  CAP_M3_T30  2.1
    X_P22_T30  CAP_M4_T30  2
    X_P22_T30  CAP_M5_T30  2.4
    X_P22_T30  CAP_M6_T30  2.2
    X_P22_T30  CAP_M7_T30  0.7
    X_P22_T30  CAP_M8_T30  0.5
    X_P22_T30  CAP_M9_T30  1.8
    X_P22_T30  CAP_M10_T30  1.1
    X_P22_T30  CAP_M11_T30  2.6
    X_P23_T30  COST      23.8
    X_P23_T30  BAL_P23_T30  1
    X_P23_T30  CAP_M0_T30  2.9
    X_P23_T30  CAP_M1_T30  1.2
    X_P23_T30  CAP_M2_T30  1.8
    X_P23_T30  CAP_M3_T30  1.8
    X_P23_T30  CAP_M4_T30  1.5
    X_P23_T30  CAP_M5_T30  0.5
    X_P23_T30  CAP_M6_T30  2.8
    X_P23_T30  CAP_M7_T30  1.9
    X_P23_T30  CAP_M8_T30  2.2
    X_P23_T30  CAP_M9_T30  2.9
    X_P23_T30  CAP_M10_T30  2.1
    X_P23_T30  CAP_M11_T30  2.2
    X_P24_T30  COST      49.4
    X_P24_T30  BAL_P24_T30  1
    X_P24_T30  CAP_M0_T30  1.1
    X_P24_T30  CAP_M1_T30  2.5
    X_P24_T30  CAP_M2_T30  1.3
    X_P24_T30  CAP_M3_T30  2.8
    X_P24_T30  CAP_M4_T30  1.1
    X_P24_T30  CAP_M5_T30  2
    X_P24_T30  CAP_M6_T30  1.4
    X_P24_T30  CAP_M7_T30  0.5
    X_P24_T30  CAP_M8_T30  1.2
    X_P24_T30  CAP_M9_T30  2.4
    X_P24_T30  CAP_M10_T30  0.6
    X_P24_T30  CAP_M11_T30  1.9
    S_P0_T30  COST      1.6
    S_P0_T30  BAL_P0_T30  -1
    S_P0_T30  STORAGE_T30  1
    S_P0_T30  BAL_P0_T31  1
    S_P1_T30  COST      2.5
    S_P1_T30  BAL_P1_T30  -1
    S_P1_T30  STORAGE_T30  1
    S_P1_T30  BAL_P1_T31  1
    S_P2_T30  COST      2
    S_P2_T30  BAL_P2_T30  -1
    S_P2_T30  STORAGE_T30  1
    S_P2_T30  BAL_P2_T31  1
    S_P3_T30  COST      1.2
    S_P3_T30  BAL_P3_T30  -1
    S_P3_T30  STORAGE_T30  1
    S_P3_T30  BAL_P3_T31  1
    S_P4_T30  COST      3.2
    S_P4_T30  BAL_P4_T30  -1
    S_P4_T30  STORAGE_T30  1
    S_P4_T30  BAL_P4_T31  1
    S_P5_T30  COST      2.5
    S_P5_T30  BAL_P5_T30  -1
    S_P5_T30  STORAGE_T30  1
    S_P5_T30  BAL_P5_T31  1
    S_P6_T30  COST      2.3
    S_P6_T30  BAL_P6_T30  -1
    S_P6_T30  STORAGE_T30  1
    S_P6_T30  BAL_P6_T31  1
    S_P7_T30  COST      3.7
    S_P7_T30  BAL_P7_T30  -1
    S_P7_T30  STORAGE_T30  1
    S_P7_T30  BAL_P7_T31  1
    S_P8_T30  COST      2.2
    S_P8_T30  BAL_P8_T30  -1
    S_P8_T30  STORAGE_T30  1
    S_P8_T30  BAL_P8_T31  1
    S_P9_T30  COST      4
    S_P9_T30  BAL_P9_T30  -1
    S_P9_T30  STORAGE_T30  1
    S_P9_T30  BAL_P9_T31  1
    S_P10_T30  COST      2.2
    S_P10_T30  BAL_P10_T30  -1
    S_P10_T30  STORAGE_T30  1
    S_P10_T30  BAL_P10_T31  1
    S_P11_T30  COST      1.8
    S_P11_T30  BAL_P11_T30  -1
    S_P11_T30  STORAGE_T30  1
    S_P11_T30  BAL_P11_T31  1
    S_P12_T30  COST      2.8
    S_P12_T30  BAL_P12_T30  -1
    S_P12_T30  STORAGE_T30  1
    S_P12_T30  BAL_P12_T31  1
    S_P13_T30  COST      3.6
    S_P13_T30  BAL_P13_T30  -1
    S_P13_T30  STORAGE_T30  1
    S_P13_T30  BAL_P13_T31  1
    S_P14_T30  COST      3.3
    S_P14_T30  BAL_P14_T30  -1
    S_P14_T30  STORAGE_T30  1
    S_P14_T30  BAL_P14_T31  1
    S_P15_T30  COST      1.8
    S_P15_T30  BAL_P15_T30  -1
    S_P15_T30  STORAGE_T30  1
    S_P15_T30  BAL_P15_T31  1
    S_P16_T30  COST      1.9
    S_P16_T30  BAL_P16_T30  -1
    S_P16_T30  STORAGE_T30  1
    S_P16_T30  BAL_P16_T31  1
    S_P17_T30  COST      4.1
    S_P17_T30  BAL_P17_T30  -1
    S_P17_T30  STORAGE_T30  1
    S_P17_T30  BAL_P17_T31  1
    S_P18_T30  COST      4.6
    S_P18_T30  BAL_P18_T30  -1
    S_P18_T30  STORAGE_T30  1
    S_P18_T30  BAL_P18_T31  1
    S_P19_T30  COST      2.5
    S_P19_T30  BAL_P19_T30  -1
    S_P19_T30  STORAGE_T30  1
    S_P19_T30  BAL_P19_T31  1
    S_P20_T30  COST      4.3
    S_P20_T30  BAL_P20_T30  -1
    S_P20_T30  STORAGE_T30  1
    S_P20_T30  BAL_P20_T31  1
    S_P21_T30  COST      4.8
    S_P21_T30  BAL_P21_T30  -1
    S_P21_T30  STORAGE_T30  1
    S_P21_T30  BAL_P21_T31  1
    S_P22_T30  COST      2.7
    S_P22_T30  BAL_P22_T30  -1
    S_P22_T30  STORAGE_T30  1
    S_P22_T30  BAL_P22_T31  1
    S_P23_T30  COST      3.1
    S_P23_T30  BAL_P23_T30  -1
    S_P23_T30  STORAGE_T30  1
    S_P23_T30  BAL_P23_T31  1
    S_P24_T30  COST      2.3
    S_P24_T30  BAL_P24_T30  -1
    S_P24_T30  STORAGE_T30  1
    S_P24_T30  BAL_P24_T31  1
    X_P0_T31  COST      31.7
    X_P0_T31  BAL_P0_T31  1
    X_P0_T31  CAP_M0_T31  1.4
    X_P0_T31  CAP_M1_T31  2.4
    X_P0_T31  CAP_M2_T31  0.5
    X_P0_T31  CAP_M3_T31  1
    X_P0_T31  CAP_M4_T31  1.3
    X_P0_T31  CAP_M5_T31  0.8
    X_P0_T31  CAP_M6_T31  1
    X_P0_T31  CAP_M7_T31  1.7
    X_P0_T31  CAP_M8_T31  0.7
    X_P0_T31  CAP_M9_T31  1.5
    X_P0_T31  CAP_M10_T31  2.4
    X_P0_T31  CAP_M11_T31  0.9
    X_P1_T31  COST      36.9
    X_P1_T31  BAL_P1_T31  1
    X_P1_T31  CAP_M0_T31  1
    X_P1_T31  CAP_M1_T31  2.2
    X_P1_T31  CAP_M2_T31  1
    X_P1_T31  CAP_M3_T31  2.4
    X_P1_T31  CAP_M4_T31  3
    X_P1_T31  CAP_M5_T31  2.2
    X_P1_T31  CAP_M6_T31  2.7
    X_P1_T31  CAP_M7_T31  1.4
    X_P1_T31  CAP_M8_T31  1.9
    X_P1_T31  CAP_M9_T31  0.9
    X_P1_T31  CAP_M10_T31  2.9
    X_P1_T31  CAP_M11_T31  2.2
    X_P2_T31  COST      21.8
    X_P2_T31  BAL_P2_T31  1
    X_P2_T31  CAP_M0_T31  2.6
    X_P2_T31  CAP_M1_T31  1.4
    X_P2_T31  CAP_M2_T31  0.8
    X_P2_T31  CAP_M3_T31  2.3
    X_P2_T31  CAP_M4_T31  2.5
    X_P2_T31  CAP_M5_T31  1
    X_P2_T31  CAP_M6_T31  1.2
    X_P2_T31  CAP_M7_T31  1
    X_P2_T31  CAP_M8_T31  1.1
    X_P2_T31  CAP_M9_T31  1.9
    X_P2_T31  CAP_M10_T31  3
    X_P2_T31  CAP_M11_T31  0.8
    X_P3_T31  COST      35.1
    X_P3_T31  BAL_P3_T31  1
    X_P3_T31  CAP_M0_T31  1.8
    X_P3_T31  CAP_M1_T31  2.8
    X_P3_T31  CAP_M2_T31  2.1
    X_P3_T31  CAP_M3_T31  1.6
    X_P3_T31  CAP_M4_T31  1.1
    X_P3_T31  CAP_M5_T31  0.7
    X_P3_T31  CAP_M6_T31  2
    X_P3_T31  CAP_M7_T31  2.7
    X_P3_T31  CAP_M8_T31  1.9
    X_P3_T31  CAP_M9_T31  2.6
    X_P3_T31  CAP_M10_T31  2.1
    X_P3_T31  CAP_M11_T31  2.3
    X_P4_T31  COST      10.3
    X_P4_T31  BAL_P4_T31  1
    X_P4_T31  CAP_M0_T31  1.9
    X_P4_T31  CAP_M1_T31  2
    X_P4_T31  CAP_M2_T31  2.5
    X_P4_T31  CAP_M3_T31  2.7
    X_P4_T31  CAP_M4_T31  2.1
    X_P4_T31  CAP_M5_T31  1.2
    X_P4_T31  CAP_M6_T31  1.6
    X_P4_T31  CAP_M7_T31  1.6
    X_P4_T31  CAP_M8_T31  2.1
    X_P4_T31  CAP_M9_T31  1.7
    X_P4_T31  CAP_M10_T31  0.8
    X_P4_T31  CAP_M11_T31  1.6
    X_P5_T31  COST      33.6
    X_P5_T31  BAL_P5_T31  1
    X_P5_T31  CAP_M0_T31  2.1
    X_P5_T31  CAP_M1_T31  0.7
    X_P5_T31  CAP_M2_T31  2.9
    X_P5_T31  CAP_M3_T31  1.3
    X_P5_T31  CAP_M4_T31  2.6
    X_P5_T31  CAP_M5_T31  1.9
    X_P5_T31  CAP_M6_T31  2.4
    X_P5_T31  CAP_M7_T31  1.8
    X_P5_T31  CAP_M8_T31  1.4
    X_P5_T31  CAP_M9_T31  0.7
    X_P5_T31  CAP_M10_T31  0.6
    X_P5_T31  CAP_M11_T31  2.9
    X_P6_T31  COST      46.4
    X_P6_T31  BAL_P6_T31  1
    X_P6_T31  CAP_M0_T31  1.3
    X_P6_T31  CAP_M1_T31  1.8
    X_P6_T31  CAP_M2_T31  2.5
    X_P6_T31  CAP_M3_T31  2.2
    X_P6_T31  CAP_M4_T31  0.7
    X_P6_T31  CAP_M5_T31  1.5
    X_P6_T31  CAP_M6_T31  0.6
    X_P6_T31  CAP_M7_T31  1.9
    X_P6_T31  CAP_M8_T31  1.3
    X_P6_T31  CAP_M9_T31  2.1
    X_P6_T31  CAP_M10_T31  2.4
    X_P6_T31  CAP_M11_T31  1.1
    X_P7_T31  COST      37.4
    X_P7_T31  BAL_P7_T31  1
    X_P7_T31  CAP_M0_T31  1.1
    X_P7_T31  CAP_M1_T31  2.2
    X_P7_T31  CAP_M2_T31  2.5
    X_P7_T31  CAP_M3_T31  2.9
    X_P7_T31  CAP_M4_T31  1
    X_P7_T31  CAP_M5_T31  2.9
    X_P7_T31  CAP_M6_T31  2.4
    X_P7_T31  CAP_M7_T31  1.6
    X_P7_T31  CAP_M8_T31  1.4
    X_P7_T31  CAP_M9_T31  0.6
    X_P7_T31  CAP_M10_T31  1.6
    X_P7_T31  CAP_M11_T31  1.7
    X_P8_T31  COST      43.2
    X_P8_T31  BAL_P8_T31  1
    X_P8_T31  CAP_M0_T31  1.8
    X_P8_T31  CAP_M1_T31  0.7
    X_P8_T31  CAP_M2_T31  2.7
    X_P8_T31  CAP_M3_T31  2.3
    X_P8_T31  CAP_M4_T31  1.6
    X_P8_T31  CAP_M5_T31  1.3
    X_P8_T31  CAP_M6_T31  2.9
    X_P8_T31  CAP_M7_T31  1.1
    X_P8_T31  CAP_M8_T31  1.5
    X_P8_T31  CAP_M9_T31  2.1
    X_P8_T31  CAP_M10_T31  1.6
    X_P8_T31  CAP_M11_T31  0.7
    X_P9_T31  COST      32.4
    X_P9_T31  BAL_P9_T31  1
    X_P9_T31  CAP_M0_T31  1.3
    X_P9_T31  CAP_M1_T31  2.8
    X_P9_T31  CAP_M2_T31  1.3
    X_P9_T31  CAP_M3_T31  0.6
    X_P9_T31  CAP_M4_T31  1.7
    X_P9_T31  CAP_M5_T31  2.5
    X_P9_T31  CAP_M6_T31  1
    X_P9_T31  CAP_M7_T31  2.5
    X_P9_T31  CAP_M8_T31  2.7
    X_P9_T31  CAP_M9_T31  1.1
    X_P9_T31  CAP_M10_T31  1.8
    X_P9_T31  CAP_M11_T31  2.8
    X_P10_T31  COST      20
    X_P10_T31  BAL_P10_T31  1
    X_P10_T31  CAP_M0_T31  0.8
    X_P10_T31  CAP_M1_T31  0.8
    X_P10_T31  CAP_M2_T31  1.3
    X_P10_T31  CAP_M3_T31  0.8
    X_P10_T31  CAP_M4_T31  0.7
    X_P10_T31  CAP_M5_T31  1.7
    X_P10_T31  CAP_M6_T31  1.4
    X_P10_T31  CAP_M7_T31  1.3
    X_P10_T31  CAP_M8_T31  2.9
    X_P10_T31  CAP_M9_T31  1.6
    X_P10_T31  CAP_M10_T31  2.9
    X_P10_T31  CAP_M11_T31  0.7
    X_P11_T31  COST      35
    X_P11_T31  BAL_P11_T31  1
    X_P11_T31  CAP_M0_T31  2.4
    X_P11_T31  CAP_M1_T31  1.8
    X_P11_T31  CAP_M2_T31  1.8
    X_P11_T31  CAP_M3_T31  1.5
    X_P11_T31  CAP_M4_T31  2.8
    X_P11_T31  CAP_M5_T31  1.4
    X_P11_T31  CAP_M6_T31  0.7
    X_P11_T31  CAP_M7_T31  0.7
    X_P11_T31  CAP_M8_T31  2
    X_P11_T31  CAP_M9_T31  1.5
    X_P11_T31  CAP_M10_T31  1.7
    X_P11_T31  CAP_M11_T31  2.8
    X_P12_T31  COST      38.1
    X_P12_T31  BAL_P12_T31  1
    X_P12_T31  CAP_M0_T31  2.4
    X_P12_T31  CAP_M1_T31  2.3
    X_P12_T31  CAP_M2_T31  1.7
    X_P12_T31  CAP_M3_T31  2
    X_P12_T31  CAP_M4_T31  1.9
    X_P12_T31  CAP_M5_T31  1.2
    X_P12_T31  CAP_M6_T31  1.7
    X_P12_T31  CAP_M7_T31  1.4
    X_P12_T31  CAP_M8_T31  2
    X_P12_T31  CAP_M9_T31  1.6
    X_P12_T31  CAP_M10_T31  1.3
    X_P12_T31  CAP_M11_T31  2.7
    X_P13_T31  COST      13.7
    X_P13_T31  BAL_P13_T31  1
    X_P13_T31  CAP_M0_T31  2.2
    X_P13_T31  CAP_M1_T31  0.8
    X_P13_T31  CAP_M2_T31  2.7
    X_P13_T31  CAP_M3_T31  2.1
    X_P13_T31  CAP_M4_T31  1.8
    X_P13_T31  CAP_M5_T31  1.2
    X_P13_T31  CAP_M6_T31  1
    X_P13_T31  CAP_M7_T31  1.2
    X_P13_T31  CAP_M8_T31  1.8
    X_P13_T31  CAP_M9_T31  1
    X_P13_T31  CAP_M10_T31  1.3
    X_P13_T31  CAP_M11_T31  1.2
    X_P14_T31  COST      16.4
    X_P14_T31  BAL_P14_T31  1
    X_P14_T31  CAP_M0_T31  1.1
    X_P14_T31  CAP_M1_T31  1.8
    X_P14_T31  CAP_M2_T31  1.9
    X_P14_T31  CAP_M3_T31  1.4
    X_P14_T31  CAP_M4_T31  1.5
    X_P14_T31  CAP_M5_T31  1.9
    X_P14_T31  CAP_M6_T31  2.7
    X_P14_T31  CAP_M7_T31  0.8
    X_P14_T31  CAP_M8_T31  1.7
    X_P14_T31  CAP_M9_T31  2.2
    X_P14_T31  CAP_M10_T31  2.7
    X_P14_T31  CAP_M11_T31  1.2
    X_P15_T31  COST      40.2
    X_P15_T31  BAL_P15_T31  1
    X_P15_T31  CAP_M0_T31  0.8
    X_P15_T31  CAP_M1_T31  0.8
    X_P15_T31  CAP_M2_T31  2.4
    X_P15_T31  CAP_M3_T31  2.3
    X_P15_T31  CAP_M4_T31  1.8
    X_P15_T31  CAP_M5_T31  0.8
    X_P15_T31  CAP_M6_T31  0.8
    X_P15_T31  CAP_M7_T31  1.4
    X_P15_T31  CAP_M8_T31  1.3
    X_P15_T31  CAP_M9_T31  1.8
    X_P15_T31  CAP_M10_T31  2.1
    X_P15_T31  CAP_M11_T31  1.5
    X_P16_T31  COST      30.6
    X_P16_T31  BAL_P16_T31  1
    X_P16_T31  CAP_M0_T31  1.1
    X_P16_T31  CAP_M1_T31  0.5
    X_P16_T31  CAP_M2_T31  1.2
    X_P16_T31  CAP_M3_T31  2.8
    X_P16_T31  CAP_M4_T31  1.1
    X_P16_T31  CAP_M5_T31  1
    X_P16_T31  CAP_M6_T31  1.8
    X_P16_T31  CAP_M7_T31  1.8
    X_P16_T31  CAP_M8_T31  2.5
    X_P16_T31  CAP_M9_T31  1.6
    X_P16_T31  CAP_M10_T31  2.7
    X_P16_T31  CAP_M11_T31  1.3
    X_P17_T31  COST      36.4
    X_P17_T31  BAL_P17_T31  1
    X_P17_T31  CAP_M0_T31  1.8
    X_P17_T31  CAP_M1_T31  2.2
    X_P17_T31  CAP_M2_T31  2.7
    X_P17_T31  CAP_M3_T31  2.2
    X_P17_T31  CAP_M4_T31  1.2
    X_P17_T31  CAP_M5_T31  1.3
    X_P17_T31  CAP_M6_T31  0.7
    X_P17_T31  CAP_M7_T31  1.3
    X_P17_T31  CAP_M8_T31  2.8
    X_P17_T31  CAP_M9_T31  1.4
    X_P17_T31  CAP_M10_T31  2.7
    X_P17_T31  CAP_M11_T31  2.2
    X_P18_T31  COST      12.6
    X_P18_T31  BAL_P18_T31  1
    X_P18_T31  CAP_M0_T31  1.3
    X_P18_T31  CAP_M1_T31  2.9
    X_P18_T31  CAP_M2_T31  1.7
    X_P18_T31  CAP_M3_T31  0.5
    X_P18_T31  CAP_M4_T31  2.4
    X_P18_T31  CAP_M5_T31  2.9
    X_P18_T31  CAP_M6_T31  2.1
    X_P18_T31  CAP_M7_T31  2.7
    X_P18_T31  CAP_M8_T31  1.4
    X_P18_T31  CAP_M9_T31  0.5
    X_P18_T31  CAP_M10_T31  2.1
    X_P18_T31  CAP_M11_T31  1.1
    X_P19_T31  COST      32.5
    X_P19_T31  BAL_P19_T31  1
    X_P19_T31  CAP_M0_T31  2.2
    X_P19_T31  CAP_M1_T31  2.8
    X_P19_T31  CAP_M2_T31  1.6
    X_P19_T31  CAP_M3_T31  2.6
    X_P19_T31  CAP_M4_T31  1.7
    X_P19_T31  CAP_M5_T31  1.3
    X_P19_T31  CAP_M6_T31  1
    X_P19_T31  CAP_M7_T31  1.5
    X_P19_T31  CAP_M8_T31  0.6
    X_P19_T31  CAP_M9_T31  2.8
    X_P19_T31  CAP_M10_T31  0.8
    X_P19_T31  CAP_M11_T31  0.8
    X_P20_T31  COST      26.2
    X_P20_T31  BAL_P20_T31  1
    X_P20_T31  CAP_M0_T31  1.2
    X_P20_T31  CAP_M1_T31  2
    X_P20_T31  CAP_M2_T31  1.4
    X_P20_T31  CAP_M3_T31  2.3
    X_P20_T31  CAP_M4_T31  1.5
    X_P20_T31  CAP_M5_T31  1.6
    X_P20_T31  CAP_M6_T31  2.6
    X_P20_T31  CAP_M7_T31  2.1
    X_P20_T31  CAP_M8_T31  1.2
    X_P20_T31  CAP_M9_T31  1
    X_P20_T31  CAP_M10_T31  2.3
    X_P20_T31  CAP_M11_T31  1.8
    X_P21_T31  COST      43.1
    X_P21_T31  BAL_P21_T31  1
    X_P21_T31  CAP_M0_T31  2.4
    X_P21_T31  CAP_M1_T31  1.9
    X_P21_T31  CAP_M2_T31  2.9
    X_P21_T31  CAP_M3_T31  2.7
    X_P21_T31  CAP_M4_T31  2.7
    X_P21_T31  CAP_M5_T31  1.7
    X_P21_T31  CAP_M6_T31  2.8
    X_P21_T31  CAP_M7_T31  2.5
    X_P21_T31  CAP_M8_T31  3
    X_P21_T31  CAP_M9_T31  2.7
    X_P21_T31  CAP_M10_T31  2.4
    X_P21_T31  CAP_M11_T31  2.4
    X_P22_T31  COST      36.5
    X_P22_T31  BAL_P22_T31  1
    X_P22_T31  CAP_M0_T31  0.6
    X_P22_T31  CAP_M1_T31  2.9
    X_P22_T31  CAP_M2_T31  2.1
    X_P22_T31  CAP_M3_T31  2.1
    X_P22_T31  CAP_M4_T31  2
    X_P22_T31  CAP_M5_T31  2.4
    X_P22_T31  CAP_M6_T31  2.2
    X_P22_T31  CAP_M7_T31  0.7
    X_P22_T31  CAP_M8_T31  0.5
    X_P22_T31  CAP_M9_T31  1.8
    X_P22_T31  CAP_M10_T31  1.1
    X_P22_T31  CAP_M11_T31  2.6
    X_P23_T31  COST      42
    X_P23_T31  BAL_P23_T31  1
    X_P23_T31  CAP_M0_T31  2.9
    X_P23_T31  CAP_M1_T31  1.2
    X_P23_T31  CAP_M2_T31  1.8
    X_P23_T31  CAP_M3_T31  1.8
    X_P23_T31  CAP_M4_T31  1.5
    X_P23_T31  CAP_M5_T31  0.5
    X_P23_T31  CAP_M6_T31  2.8
    X_P23_T31  CAP_M7_T31  1.9
    X_P23_T31  CAP_M8_T31  2.2
    X_P23_T31  CAP_M9_T31  2.9
    X_P23_T31  CAP_M10_T31  2.1
    X_P23_T31  CAP_M11_T31  2.2
    X_P24_T31  COST      31.3
    X_P24_T31  BAL_P24_T31  1
    X_P24_T31  CAP_M0_T31  1.1
    X_P24_T31  CAP_M1_T31  2.5
    X_P24_T31  CAP_M2_T31  1.3
    X_P24_T31  CAP_M3_T31  2.8
    X_P24_T31  CAP_M4_T31  1.1
    X_P24_T31  CAP_M5_T31  2
    X_P24_T31  CAP_M6_T31  1.4
    X_P24_T31  CAP_M7_T31  0.5
    X_P24_T31  CAP_M8_T31  1.2
    X_P24_T31  CAP_M9_T31  2.4
    X_P24_T31  CAP_M10_T31  0.6
    X_P24_T31  CAP_M11_T31  1.9
    S_P0_T31  COST      2.2
    S_P0_T31  BAL_P0_T31  -1
    S_P0_T31  STORAGE_T31  1
    S_P0_T31  BAL_P0_T32  1
    S_P1_T31  COST      4.5
    S_P1_T31  BAL_P1_T31  -1
    S_P1_T31  STORAGE_T31  1
    S_P1_T31  BAL_P1_T32  1
    S_P2_T31  COST      1.3
    S_P2_T31  BAL_P2_T31  -1
    S_P2_T31  STORAGE_T31  1
    S_P2_T31  BAL_P2_T32  1
    S_P3_T31  COST      2.4
    S_P3_T31  BAL_P3_T31  -1
    S_P3_T31  STORAGE_T31  1
    S_P3_T31  BAL_P3_T32  1
    S_P4_T31  COST      2.7
    S_P4_T31  BAL_P4_T31  -1
    S_P4_T31  STORAGE_T31  1
    S_P4_T31  BAL_P4_T32  1
    S_P5_T31  COST      4.4
    S_P5_T31  BAL_P5_T31  -1
    S_P5_T31  STORAGE_T31  1
    S_P5_T31  BAL_P5_T32  1
    S_P6_T31  COST      1.9
    S_P6_T31  BAL_P6_T31  -1
    S_P6_T31  STORAGE_T31  1
    S_P6_T31  BAL_P6_T32  1
    S_P7_T31  COST      1.9
    S_P7_T31  BAL_P7_T31  -1
    S_P7_T31  STORAGE_T31  1
    S_P7_T31  BAL_P7_T32  1
    S_P8_T31  COST      1.1
    S_P8_T31  BAL_P8_T31  -1
    S_P8_T31  STORAGE_T31  1
    S_P8_T31  BAL_P8_T32  1
    S_P9_T31  COST      1.4
    S_P9_T31  BAL_P9_T31  -1
    S_P9_T31  STORAGE_T31  1
    S_P9_T31  BAL_P9_T32  1
    S_P10_T31  COST      2.9
    S_P10_T31  BAL_P10_T31  -1
    S_P10_T31  STORAGE_T31  1
    S_P10_T31  BAL_P10_T32  1
    S_P11_T31  COST      4.2
    S_P11_T31  BAL_P11_T31  -1
    S_P11_T31  STORAGE_T31  1
    S_P11_T31  BAL_P11_T32  1
    S_P12_T31  COST      3.2
    S_P12_T31  BAL_P12_T31  -1
    S_P12_T31  STORAGE_T31  1
    S_P12_T31  BAL_P12_T32  1
    S_P13_T31  COST      1.7
    S_P13_T31  BAL_P13_T31  -1
    S_P13_T31  STORAGE_T31  1
    S_P13_T31  BAL_P13_T32  1
    S_P14_T31  COST      2.2
    S_P14_T31  BAL_P14_T31  -1
    S_P14_T31  STORAGE_T31  1
    S_P14_T31  BAL_P14_T32  1
    S_P15_T31  COST      2.1
    S_P15_T31  BAL_P15_T31  -1
    S_P15_T31  STORAGE_T31  1
    S_P15_T31  BAL_P15_T32  1
    S_P16_T31  COST      3
    S_P16_T31  BAL_P16_T31  -1
    S_P16_T31  STORAGE_T31  1
    S_P16_T31  BAL_P16_T32  1
    S_P17_T31  COST      3
    S_P17_T31  BAL_P17_T31  -1
    S_P17_T31  STORAGE_T31  1
    S_P17_T31  BAL_P17_T32  1
    S_P18_T31  COST      3.8
    S_P18_T31  BAL_P18_T31  -1
    S_P18_T31  STORAGE_T31  1
    S_P18_T31  BAL_P18_T32  1
    S_P19_T31  COST      3.1
    S_P19_T31  BAL_P19_T31  -1
    S_P19_T31  STORAGE_T31  1
    S_P19_T31  BAL_P19_T32  1
    S_P20_T31  COST      2.3
    S_P20_T31  BAL_P20_T31  -1
    S_P20_T31  STORAGE_T31  1
    S_P20_T31  BAL_P20_T32  1
    S_P21_T31  COST      3.1
    S_P21_T31  BAL_P21_T31  -1
    S_P21_T31  STORAGE_T31  1
    S_P21_T31  BAL_P21_T32  1
    S_P22_T31  COST      3.9
    S_P22_T31  BAL_P22_T31  -1
    S_P22_T31  STORAGE_T31  1
    S_P22_T31  BAL_P22_T32  1
    S_P23_T31  COST      4.7
    S_P23_T31  BAL_P23_T31  -1
    S_P23_T31  STORAGE_T31  1
    S_P23_T31  BAL_P23_T32  1
    S_P24_T31  COST      4.8
    S_P24_T31  BAL_P24_T31  -1
    S_P24_T31  STORAGE_T31  1
    S_P24_T31  BAL_P24_T32  1
    X_P0_T32  COST      19.4
    X_P0_T32  BAL_P0_T32  1
    X_P0_T32  CAP_M0_T32  1.4
    X_P0_T32  CAP_M1_T32  2.4
    X_P0_T32  CAP_M2_T32  0.5
    X_P0_T32  CAP_M3_T32  1
    X_P0_T32  CAP_M4_T32  1.3
    X_P0_T32  CAP_M5_T32  0.8
    X_P0_T32  CAP_M6_T32  1
    X_P0_T32  CAP_M7_T32  1.7
    X_P0_T32  CAP_M8_T32  0.7
    X_P0_T32  CAP_M9_T32  1.5
    X_P0_T32  CAP_M10_T32  2.4
    X_P0_T32  CAP_M11_T32  0.9
    X_P1_T32  COST      22.5
    X_P1_T32  BAL_P1_T32  1
    X_P1_T32  CAP_M0_T32  1
    X_P1_T32  CAP_M1_T32  2.2
    X_P1_T32  CAP_M2_T32  1
    X_P1_T32  CAP_M3_T32  2.4
    X_P1_T32  CAP_M4_T32  3
    X_P1_T32  CAP_M5_T32  2.2
    X_P1_T32  CAP_M6_T32  2.7
    X_P1_T32  CAP_M7_T32  1.4
    X_P1_T32  CAP_M8_T32  1.9
    X_P1_T32  CAP_M9_T32  0.9
    X_P1_T32  CAP_M10_T32  2.9
    X_P1_T32  CAP_M11_T32  2.2
    X_P2_T32  COST      20.2
    X_P2_T32  BAL_P2_T32  1
    X_P2_T32  CAP_M0_T32  2.6
    X_P2_T32  CAP_M1_T32  1.4
    X_P2_T32  CAP_M2_T32  0.8
    X_P2_T32  CAP_M3_T32  2.3
    X_P2_T32  CAP_M4_T32  2.5
    X_P2_T32  CAP_M5_T32  1
    X_P2_T32  CAP_M6_T32  1.2
    X_P2_T32  CAP_M7_T32  1
    X_P2_T32  CAP_M8_T32  1.1
    X_P2_T32  CAP_M9_T32  1.9
    X_P2_T32  CAP_M10_T32  3
    X_P2_T32  CAP_M11_T32  0.8
    X_P3_T32  COST      37.4
    X_P3_T32  BAL_P3_T32  1
    X_P3_T32  CAP_M0_T32  1.8
    X_P3_T32  CAP_M1_T32  2.8
    X_P3_T32  CAP_M2_T32  2.1
    X_P3_T32  CAP_M3_T32  1.6
    X_P3_T32  CAP_M4_T32  1.1
    X_P3_T32  CAP_M5_T32  0.7
    X_P3_T32  CAP_M6_T32  2
    X_P3_T32  CAP_M7_T32  2.7
    X_P3_T32  CAP_M8_T32  1.9
    X_P3_T32  CAP_M9_T32  2.6
    X_P3_T32  CAP_M10_T32  2.1
    X_P3_T32  CAP_M11_T32  2.3
    X_P4_T32  COST      11.4
    X_P4_T32  BAL_P4_T32  1
    X_P4_T32  CAP_M0_T32  1.9
    X_P4_T32  CAP_M1_T32  2
    X_P4_T32  CAP_M2_T32  2.5
    X_P4_T32  CAP_M3_T32  2.7
    X_P4_T32  CAP_M4_T32  2.1
    X_P4_T32  CAP_M5_T32  1.2
    X_P4_T32  CAP_M6_T32  1.6
    X_P4_T32  CAP_M7_T32  1.6
    X_P4_T32  CAP_M8_T32  2.1
    X_P4_T32  CAP_M9_T32  1.7
    X_P4_T32  CAP_M10_T32  0.8
    X_P4_T32  CAP_M11_T32  1.6
    X_P5_T32  COST      39.4
    X_P5_T32  BAL_P5_T32  1
    X_P5_T32  CAP_M0_T32  2.1
    X_P5_T32  CAP_M1_T32  0.7
    X_P5_T32  CAP_M2_T32  2.9
    X_P5_T32  CAP_M3_T32  1.3
    X_P5_T32  CAP_M4_T32  2.6
    X_P5_T32  CAP_M5_T32  1.9
    X_P5_T32  CAP_M6_T32  2.4
    X_P5_T32  CAP_M7_T32  1.8
    X_P5_T32  CAP_M8_T32  1.4
    X_P5_T32  CAP_M9_T32  0.7
    X_P5_T32  CAP_M10_T32  0.6
    X_P5_T32  CAP_M11_T32  2.9
    X_P6_T32  COST      38.3
    X_P6_T32  BAL_P6_T32  1
    X_P6_T32  CAP_M0_T32  1.3
    X_P6_T32  CAP_M1_T32  1.8
    X_P6_T32  CAP_M2_T32  2.5
    X_P6_T32  CAP_M3_T32  2.2
    X_P6_T32  CAP_M4_T32  0.7
    X_P6_T32  CAP_M5_T32  1.5
    X_P6_T32  CAP_M6_T32  0.6
    X_P6_T32  CAP_M7_T32  1.9
    X_P6_T32  CAP_M8_T32  1.3
    X_P6_T32  CAP_M9_T32  2.1
    X_P6_T32  CAP_M10_T32  2.4
    X_P6_T32  CAP_M11_T32  1.1
    X_P7_T32  COST      23.3
    X_P7_T32  BAL_P7_T32  1
    X_P7_T32  CAP_M0_T32  1.1
    X_P7_T32  CAP_M1_T32  2.2
    X_P7_T32  CAP_M2_T32  2.5
    X_P7_T32  CAP_M3_T32  2.9
    X_P7_T32  CAP_M4_T32  1
    X_P7_T32  CAP_M5_T32  2.9
    X_P7_T32  CAP_M6_T32  2.4
    X_P7_T32  CAP_M7_T32  1.6
    X_P7_T32  CAP_M8_T32  1.4
    X_P7_T32  CAP_M9_T32  0.6
    X_P7_T32  CAP_M10_T32  1.6
    X_P7_T32  CAP_M11_T32  1.7
    X_P8_T32  COST      42.1
    X_P8_T32  BAL_P8_T32  1
    X_P8_T32  CAP_M0_T32  1.8
    X_P8_T32  CAP_M1_T32  0.7
    X_P8_T32  CAP_M2_T32  2.7
    X_P8_T32  CAP_M3_T32  2.3
    X_P8_T32  CAP_M4_T32  1.6
    X_P8_T32  CAP_M5_T32  1.3
    X_P8_T32  CAP_M6_T32  2.9
    X_P8_T32  CAP_M7_T32  1.1
    X_P8_T32  CAP_M8_T32  1.5
    X_P8_T32  CAP_M9_T32  2.1
    X_P8_T32  CAP_M10_T32  1.6
    X_P8_T32  CAP_M11_T32  0.7
    X_P9_T32  COST      42.9
    X_P9_T32  BAL_P9_T32  1
    X_P9_T32  CAP_M0_T32  1.3
    X_P9_T32  CAP_M1_T32  2.8
    X_P9_T32  CAP_M2_T32  1.3
    X_P9_T32  CAP_M3_T32  0.6
    X_P9_T32  CAP_M4_T32  1.7
    X_P9_T32  CAP_M5_T32  2.5
    X_P9_T32  CAP_M6_T32  1
    X_P9_T32  CAP_M7_T32  2.5
    X_P9_T32  CAP_M8_T32  2.7
    X_P9_T32  CAP_M9_T32  1.1
    X_P9_T32  CAP_M10_T32  1.8
    X_P9_T32  CAP_M11_T32  2.8
    X_P10_T32  COST      40.1
    X_P10_T32  BAL_P10_T32  1
    X_P10_T32  CAP_M0_T32  0.8
    X_P10_T32  CAP_M1_T32  0.8
    X_P10_T32  CAP_M2_T32  1.3
    X_P10_T32  CAP_M3_T32  0.8
    X_P10_T32  CAP_M4_T32  0.7
    X_P10_T32  CAP_M5_T32  1.7
    X_P10_T32  CAP_M6_T32  1.4
    X_P10_T32  CAP_M7_T32  1.3
    X_P10_T32  CAP_M8_T32  2.9
    X_P10_T32  CAP_M9_T32  1.6
    X_P10_T32  CAP_M10_T32  2.9
    X_P10_T32  CAP_M11_T32  0.7
    X_P11_T32  COST      27
    X_P11_T32  BAL_P11_T32  1
    X_P11_T32  CAP_M0_T32  2.4
    X_P11_T32  CAP_M1_T32  1.8
    X_P11_T32  CAP_M2_T32  1.8
    X_P11_T32  CAP_M3_T32  1.5
    X_P11_T32  CAP_M4_T32  2.8
    X_P11_T32  CAP_M5_T32  1.4
    X_P11_T32  CAP_M6_T32  0.7
    X_P11_T32  CAP_M7_T32  0.7
    X_P11_T32  CAP_M8_T32  2
    X_P11_T32  CAP_M9_T32  1.5
    X_P11_T32  CAP_M10_T32  1.7
    X_P11_T32  CAP_M11_T32  2.8
    X_P12_T32  COST      16.3
    X_P12_T32  BAL_P12_T32  1
    X_P12_T32  CAP_M0_T32  2.4
    X_P12_T32  CAP_M1_T32  2.3
    X_P12_T32  CAP_M2_T32  1.7
    X_P12_T32  CAP_M3_T32  2
    X_P12_T32  CAP_M4_T32  1.9
    X_P12_T32  CAP_M5_T32  1.2
    X_P12_T32  CAP_M6_T32  1.7
    X_P12_T32  CAP_M7_T32  1.4
    X_P12_T32  CAP_M8_T32  2
    X_P12_T32  CAP_M9_T32  1.6
    X_P12_T32  CAP_M10_T32  1.3
    X_P12_T32  CAP_M11_T32  2.7
    X_P13_T32  COST      31.6
    X_P13_T32  BAL_P13_T32  1
    X_P13_T32  CAP_M0_T32  2.2
    X_P13_T32  CAP_M1_T32  0.8
    X_P13_T32  CAP_M2_T32  2.7
    X_P13_T32  CAP_M3_T32  2.1
    X_P13_T32  CAP_M4_T32  1.8
    X_P13_T32  CAP_M5_T32  1.2
    X_P13_T32  CAP_M6_T32  1
    X_P13_T32  CAP_M7_T32  1.2
    X_P13_T32  CAP_M8_T32  1.8
    X_P13_T32  CAP_M9_T32  1
    X_P13_T32  CAP_M10_T32  1.3
    X_P13_T32  CAP_M11_T32  1.2
    X_P14_T32  COST      33.4
    X_P14_T32  BAL_P14_T32  1
    X_P14_T32  CAP_M0_T32  1.1
    X_P14_T32  CAP_M1_T32  1.8
    X_P14_T32  CAP_M2_T32  1.9
    X_P14_T32  CAP_M3_T32  1.4
    X_P14_T32  CAP_M4_T32  1.5
    X_P14_T32  CAP_M5_T32  1.9
    X_P14_T32  CAP_M6_T32  2.7
    X_P14_T32  CAP_M7_T32  0.8
    X_P14_T32  CAP_M8_T32  1.7
    X_P14_T32  CAP_M9_T32  2.2
    X_P14_T32  CAP_M10_T32  2.7
    X_P14_T32  CAP_M11_T32  1.2
    X_P15_T32  COST      48.3
    X_P15_T32  BAL_P15_T32  1
    X_P15_T32  CAP_M0_T32  0.8
    X_P15_T32  CAP_M1_T32  0.8
    X_P15_T32  CAP_M2_T32  2.4
    X_P15_T32  CAP_M3_T32  2.3
    X_P15_T32  CAP_M4_T32  1.8
    X_P15_T32  CAP_M5_T32  0.8
    X_P15_T32  CAP_M6_T32  0.8
    X_P15_T32  CAP_M7_T32  1.4
    X_P15_T32  CAP_M8_T32  1.3
    X_P15_T32  CAP_M9_T32  1.8
    X_P15_T32  CAP_M10_T32  2.1
    X_P15_T32  CAP_M11_T32  1.5
    X_P16_T32  COST      21.5
    X_P16_T32  BAL_P16_T32  1
    X_P16_T32  CAP_M0_T32  1.1
    X_P16_T32  CAP_M1_T32  0.5
    X_P16_T32  CAP_M2_T32  1.2
    X_P16_T32  CAP_M3_T32  2.8
    X_P16_T32  CAP_M4_T32  1.1
    X_P16_T32  CAP_M5_T32  1
    X_P16_T32  CAP_M6_T32  1.8
    X_P16_T32  CAP_M7_T32  1.8
    X_P16_T32  CAP_M8_T32  2.5
    X_P16_T32  CAP_M9_T32  1.6
    X_P16_T32  CAP_M10_T32  2.7
    X_P16_T32  CAP_M11_T32  1.3
    X_P17_T32  COST      32.7
    X_P17_T32  BAL_P17_T32  1
    X_P17_T32  CAP_M0_T32  1.8
    X_P17_T32  CAP_M1_T32  2.2
    X_P17_T32  CAP_M2_T32  2.7
    X_P17_T32  CAP_M3_T32  2.2
    X_P17_T32  CAP_M4_T32  1.2
    X_P17_T32  CAP_M5_T32  1.3
    X_P17_T32  CAP_M6_T32  0.7
    X_P17_T32  CAP_M7_T32  1.3
    X_P17_T32  CAP_M8_T32  2.8
    X_P17_T32  CAP_M9_T32  1.4
    X_P17_T32  CAP_M10_T32  2.7
    X_P17_T32  CAP_M11_T32  2.2
    X_P18_T32  COST      29.5
    X_P18_T32  BAL_P18_T32  1
    X_P18_T32  CAP_M0_T32  1.3
    X_P18_T32  CAP_M1_T32  2.9
    X_P18_T32  CAP_M2_T32  1.7
    X_P18_T32  CAP_M3_T32  0.5
    X_P18_T32  CAP_M4_T32  2.4
    X_P18_T32  CAP_M5_T32  2.9
    X_P18_T32  CAP_M6_T32  2.1
    X_P18_T32  CAP_M7_T32  2.7
    X_P18_T32  CAP_M8_T32  1.4
    X_P18_T32  CAP_M9_T32  0.5
    X_P18_T32  CAP_M10_T32  2.1
    X_P18_T32  CAP_M11_T32  1.1
    X_P19_T32  COST      29.9
    X_P19_T32  BAL_P19_T32  1
    X_P19_T32  CAP_M0_T32  2.2
    X_P19_T32  CAP_M1_T32  2.8
    X_P19_T32  CAP_M2_T32  1.6
    X_P19_T32  CAP_M3_T32  2.6
    X_P19_T32  CAP_M4_T32  1.7
    X_P19_T32  CAP_M5_T32  1.3
    X_P19_T32  CAP_M6_T32  1
    X_P19_T32  CAP_M7_T32  1.5
    X_P19_T32  CAP_M8_T32  0.6
    X_P19_T32  CAP_M9_T32  2.8
    X_P19_T32  CAP_M10_T32  0.8
    X_P19_T32  CAP_M11_T32  0.8
    X_P20_T32  COST      49.4
    X_P20_T32  BAL_P20_T32  1
    X_P20_T32  CAP_M0_T32  1.2
    X_P20_T32  CAP_M1_T32  2
    X_P20_T32  CAP_M2_T32  1.4
    X_P20_T32  CAP_M3_T32  2.3
    X_P20_T32  CAP_M4_T32  1.5
    X_P20_T32  CAP_M5_T32  1.6
    X_P20_T32  CAP_M6_T32  2.6
    X_P20_T32  CAP_M7_T32  2.1
    X_P20_T32  CAP_M8_T32  1.2
    X_P20_T32  CAP_M9_T32  1
    X_P20_T32  CAP_M10_T32  2.3
    X_P20_T32  CAP_M11_T32  1.8
    X_P21_T32  COST      21.4
    X_P21_T32  BAL_P21_T32  1
    X_P21_T32  CAP_M0_T32  2.4
    X_P21_T32  CAP_M1_T32  1.9
    X_P21_T32  CAP_M2_T32  2.9
    X_P21_T32  CAP_M3_T32  2.7
    X_P21_T32  CAP_M4_T32  2.7
    X_P21_T32  CAP_M5_T32  1.7
    X_P21_T32  CAP_M6_T32  2.8
    X_P21_T32  CAP_M7_T32  2.5
    X_P21_T32  CAP_M8_T32  3
    X_P21_T32  CAP_M9_T32  2.7
    X_P21_T32  CAP_M10_T32  2.4
    X_P21_T32  CAP_M11_T32  2.4
    X_P22_T32  COST      49.8
    X_P22_T32  BAL_P22_T32  1
    X_P22_T32  CAP_M0_T32  0.6
    X_P22_T32  CAP_M1_T32  2.9
    X_P22_T32  CAP_M2_T32  2.1
    X_P22_T32  CAP_M3_T32  2.1
    X_P22_T32  CAP_M4_T32  2
    X_P22_T32  CAP_M5_T32  2.4
    X_P22_T32  CAP_M6_T32  2.2
    X_P22_T32  CAP_M7_T32  0.7
    X_P22_T32  CAP_M8_T32  0.5
    X_P22_T32  CAP_M9_T32  1.8
    X_P22_T32  CAP_M10_T32  1.1
    X_P22_T32  CAP_M11_T32  2.6
    X_P23_T32  COST      21.9
    X_P23_T32  BAL_P23_T32  1
    X_P23_T32  CAP_M0_T32  2.9
    X_P23_T32  CAP_M1_T32  1.2
    X_P23_T32  CAP_M2_T32  1.8
    X_P23_T32  CAP_M3_T32  1.8
    X_P23_T32  CAP_M4_T32  1.5
    X_P23_T32  CAP_M5_T32  0.5
    X_P23_T32  CAP_M6_T32  2.8
    X_P23_T32  CAP_M7_T32  1.9
    X_P23_T32  CAP_M8_T32  2.2
    X_P23_T32  CAP_M9_T32  2.9
    X_P23_T32  CAP_M10_T32  2.1
    X_P23_T32  CAP_M11_T32  2.2
    X_P24_T32  COST      36.5
    X_P24_T32  BAL_P24_T32  1
    X_P24_T32  CAP_M0_T32  1.1
    X_P24_T32  CAP_M1_T32  2.5
    X_P24_T32  CAP_M2_T32  1.3
    X_P24_T32  CAP_M3_T32  2.8
    X_P24_T32  CAP_M4_T32  1.1
    X_P24_T32  CAP_M5_T32  2
    X_P24_T32  CAP_M6_T32  1.4
    X_P24_T32  CAP_M7_T32  0.5
    X_P24_T32  CAP_M8_T32  1.2
    X_P24_T32  CAP_M9_T32  2.4
    X_P24_T32  CAP_M10_T32  0.6
    X_P24_T32  CAP_M11_T32  1.9
    S_P0_T32  COST      2.1
    S_P0_T32  BAL_P0_T32  -1
    S_P0_T32  STORAGE_T32  1
    S_P0_T32  BAL_P0_T33  1
    S_P1_T32  COST      1.3
    S_P1_T32  BAL_P1_T32  -1
    S_P1_T32  STORAGE_T32  1
    S_P1_T32  BAL_P1_T33  1
    S_P2_T32  COST      1.1
    S_P2_T32  BAL_P2_T32  -1
    S_P2_T32  STORAGE_T32  1
    S_P2_T32  BAL_P2_T33  1
    S_P3_T32  COST      3.4
    S_P3_T32  BAL_P3_T32  -1
    S_P3_T32  STORAGE_T32  1
    S_P3_T32  BAL_P3_T33  1
    S_P4_T32  COST      3.7
    S_P4_T32  BAL_P4_T32  -1
    S_P4_T32  STORAGE_T32  1
    S_P4_T32  BAL_P4_T33  1
    S_P5_T32  COST      1.6
    S_P5_T32  BAL_P5_T32  -1
    S_P5_T32  STORAGE_T32  1
    S_P5_T32  BAL_P5_T33  1
    S_P6_T32  COST      3.1
    S_P6_T32  BAL_P6_T32  -1
    S_P6_T32  STORAGE_T32  1
    S_P6_T32  BAL_P6_T33  1
    S_P7_T32  COST      2.7
    S_P7_T32  BAL_P7_T32  -1
    S_P7_T32  STORAGE_T32  1
    S_P7_T32  BAL_P7_T33  1
    S_P8_T32  COST      4.3
    S_P8_T32  BAL_P8_T32  -1
    S_P8_T32  STORAGE_T32  1
    S_P8_T32  BAL_P8_T33  1
    S_P9_T32  COST      2.5
    S_P9_T32  BAL_P9_T32  -1
    S_P9_T32  STORAGE_T32  1
    S_P9_T32  BAL_P9_T33  1
    S_P10_T32  COST      1.3
    S_P10_T32  BAL_P10_T32  -1
    S_P10_T32  STORAGE_T32  1
    S_P10_T32  BAL_P10_T33  1
    S_P11_T32  COST      4.6
    S_P11_T32  BAL_P11_T32  -1
    S_P11_T32  STORAGE_T32  1
    S_P11_T32  BAL_P11_T33  1
    S_P12_T32  COST      2.1
    S_P12_T32  BAL_P12_T32  -1
    S_P12_T32  STORAGE_T32  1
    S_P12_T32  BAL_P12_T33  1
    S_P13_T32  COST      3.9
    S_P13_T32  BAL_P13_T32  -1
    S_P13_T32  STORAGE_T32  1
    S_P13_T32  BAL_P13_T33  1
    S_P14_T32  COST      2.7
    S_P14_T32  BAL_P14_T32  -1
    S_P14_T32  STORAGE_T32  1
    S_P14_T32  BAL_P14_T33  1
    S_P15_T32  COST      4.1
    S_P15_T32  BAL_P15_T32  -1
    S_P15_T32  STORAGE_T32  1
    S_P15_T32  BAL_P15_T33  1
    S_P16_T32  COST      2.6
    S_P16_T32  BAL_P16_T32  -1
    S_P16_T32  STORAGE_T32  1
    S_P16_T32  BAL_P16_T33  1
    S_P17_T32  COST      4.9
    S_P17_T32  BAL_P17_T32  -1
    S_P17_T32  STORAGE_T32  1
    S_P17_T32  BAL_P17_T33  1
    S_P18_T32  COST      3.1
    S_P18_T32  BAL_P18_T32  -1
    S_P18_T32  STORAGE_T32  1
    S_P18_T32  BAL_P18_T33  1
    S_P19_T32  COST      2.2
    S_P19_T32  BAL_P19_T32  -1
    S_P19_T32  STORAGE_T32  1
    S_P19_T32  BAL_P19_T33  1
    S_P20_T32  COST      4.8
    S_P20_T32  BAL_P20_T32  -1
    S_P20_T32  STORAGE_T32  1
    S_P20_T32  BAL_P20_T33  1
    S_P21_T32  COST      3.9
    S_P21_T32  BAL_P21_T32  -1
    S_P21_T32  STORAGE_T32  1
    S_P21_T32  BAL_P21_T33  1
    S_P22_T32  COST      1.1
    S_P22_T32  BAL_P22_T32  -1
    S_P22_T32  STORAGE_T32  1
    S_P22_T32  BAL_P22_T33  1
    S_P23_T32  COST      4.4
    S_P23_T32  BAL_P23_T32  -1
    S_P23_T32  STORAGE_T32  1
    S_P23_T32  BAL_P23_T33  1
    S_P24_T32  COST      2.6
    S_P24_T32  BAL_P24_T32  -1
    S_P24_T32  STORAGE_T32  1
    S_P24_T32  BAL_P24_T33  1
    X_P0_T33  COST      43.1
    X_P0_T33  BAL_P0_T33  1
    X_P0_T33  CAP_M0_T33  1.4
    X_P0_T33  CAP_M1_T33  2.4
    X_P0_T33  CAP_M2_T33  0.5
    X_P0_T33  CAP_M3_T33  1
    X_P0_T33  CAP_M4_T33  1.3
    X_P0_T33  CAP_M5_T33  0.8
    X_P0_T33  CAP_M6_T33  1
    X_P0_T33  CAP_M7_T33  1.7
    X_P0_T33  CAP_M8_T33  0.7
    X_P0_T33  CAP_M9_T33  1.5
    X_P0_T33  CAP_M10_T33  2.4
    X_P0_T33  CAP_M11_T33  0.9
    X_P1_T33  COST      41.2
    X_P1_T33  BAL_P1_T33  1
    X_P1_T33  CAP_M0_T33  1
    X_P1_T33  CAP_M1_T33  2.2
    X_P1_T33  CAP_M2_T33  1
    X_P1_T33  CAP_M3_T33  2.4
    X_P1_T33  CAP_M4_T33  3
    X_P1_T33  CAP_M5_T33  2.2
    X_P1_T33  CAP_M6_T33  2.7
    X_P1_T33  CAP_M7_T33  1.4
    X_P1_T33  CAP_M8_T33  1.9
    X_P1_T33  CAP_M9_T33  0.9
    X_P1_T33  CAP_M10_T33  2.9
    X_P1_T33  CAP_M11_T33  2.2
    X_P2_T33  COST      37
    X_P2_T33  BAL_P2_T33  1
    X_P2_T33  CAP_M0_T33  2.6
    X_P2_T33  CAP_M1_T33  1.4
    X_P2_T33  CAP_M2_T33  0.8
    X_P2_T33  CAP_M3_T33  2.3
    X_P2_T33  CAP_M4_T33  2.5
    X_P2_T33  CAP_M5_T33  1
    X_P2_T33  CAP_M6_T33  1.2
    X_P2_T33  CAP_M7_T33  1
    X_P2_T33  CAP_M8_T33  1.1
    X_P2_T33  CAP_M9_T33  1.9
    X_P2_T33  CAP_M10_T33  3
    X_P2_T33  CAP_M11_T33  0.8
    X_P3_T33  COST      20.1
    X_P3_T33  BAL_P3_T33  1
    X_P3_T33  CAP_M0_T33  1.8
    X_P3_T33  CAP_M1_T33  2.8
    X_P3_T33  CAP_M2_T33  2.1
    X_P3_T33  CAP_M3_T33  1.6
    X_P3_T33  CAP_M4_T33  1.1
    X_P3_T33  CAP_M5_T33  0.7
    X_P3_T33  CAP_M6_T33  2
    X_P3_T33  CAP_M7_T33  2.7
    X_P3_T33  CAP_M8_T33  1.9
    X_P3_T33  CAP_M9_T33  2.6
    X_P3_T33  CAP_M10_T33  2.1
    X_P3_T33  CAP_M11_T33  2.3
    X_P4_T33  COST      29.8
    X_P4_T33  BAL_P4_T33  1
    X_P4_T33  CAP_M0_T33  1.9
    X_P4_T33  CAP_M1_T33  2
    X_P4_T33  CAP_M2_T33  2.5
    X_P4_T33  CAP_M3_T33  2.7
    X_P4_T33  CAP_M4_T33  2.1
    X_P4_T33  CAP_M5_T33  1.2
    X_P4_T33  CAP_M6_T33  1.6
    X_P4_T33  CAP_M7_T33  1.6
    X_P4_T33  CAP_M8_T33  2.1
    X_P4_T33  CAP_M9_T33  1.7
    X_P4_T33  CAP_M10_T33  0.8
    X_P4_T33  CAP_M11_T33  1.6
    X_P5_T33  COST      28.2
    X_P5_T33  BAL_P5_T33  1
    X_P5_T33  CAP_M0_T33  2.1
    X_P5_T33  CAP_M1_T33  0.7
    X_P5_T33  CAP_M2_T33  2.9
    X_P5_T33  CAP_M3_T33  1.3
    X_P5_T33  CAP_M4_T33  2.6
    X_P5_T33  CAP_M5_T33  1.9
    X_P5_T33  CAP_M6_T33  2.4
    X_P5_T33  CAP_M7_T33  1.8
    X_P5_T33  CAP_M8_T33  1.4
    X_P5_T33  CAP_M9_T33  0.7
    X_P5_T33  CAP_M10_T33  0.6
    X_P5_T33  CAP_M11_T33  2.9
    X_P6_T33  COST      35.7
    X_P6_T33  BAL_P6_T33  1
    X_P6_T33  CAP_M0_T33  1.3
    X_P6_T33  CAP_M1_T33  1.8
    X_P6_T33  CAP_M2_T33  2.5
    X_P6_T33  CAP_M3_T33  2.2
    X_P6_T33  CAP_M4_T33  0.7
    X_P6_T33  CAP_M5_T33  1.5
    X_P6_T33  CAP_M6_T33  0.6
    X_P6_T33  CAP_M7_T33  1.9
    X_P6_T33  CAP_M8_T33  1.3
    X_P6_T33  CAP_M9_T33  2.1
    X_P6_T33  CAP_M10_T33  2.4
    X_P6_T33  CAP_M11_T33  1.1
    X_P7_T33  COST      33.1
    X_P7_T33  BAL_P7_T33  1
    X_P7_T33  CAP_M0_T33  1.1
    X_P7_T33  CAP_M1_T33  2.2
    X_P7_T33  CAP_M2_T33  2.5
    X_P7_T33  CAP_M3_T33  2.9
    X_P7_T33  CAP_M4_T33  1
    X_P7_T33  CAP_M5_T33  2.9
    X_P7_T33  CAP_M6_T33  2.4
    X_P7_T33  CAP_M7_T33  1.6
    X_P7_T33  CAP_M8_T33  1.4
    X_P7_T33  CAP_M9_T33  0.6
    X_P7_T33  CAP_M10_T33  1.6
    X_P7_T33  CAP_M11_T33  1.7
    X_P8_T33  COST      33.2
    X_P8_T33  BAL_P8_T33  1
    X_P8_T33  CAP_M0_T33  1.8
    X_P8_T33  CAP_M1_T33  0.7
    X_P8_T33  CAP_M2_T33  2.7
    X_P8_T33  CAP_M3_T33  2.3
    X_P8_T33  CAP_M4_T33  1.6
    X_P8_T33  CAP_M5_T33  1.3
    X_P8_T33  CAP_M6_T33  2.9
    X_P8_T33  CAP_M7_T33  1.1
    X_P8_T33  CAP_M8_T33  1.5
    X_P8_T33  CAP_M9_T33  2.1
    X_P8_T33  CAP_M10_T33  1.6
    X_P8_T33  CAP_M11_T33  0.7
    X_P9_T33  COST      46.9
    X_P9_T33  BAL_P9_T33  1
    X_P9_T33  CAP_M0_T33  1.3
    X_P9_T33  CAP_M1_T33  2.8
    X_P9_T33  CAP_M2_T33  1.3
    X_P9_T33  CAP_M3_T33  0.6
    X_P9_T33  CAP_M4_T33  1.7
    X_P9_T33  CAP_M5_T33  2.5
    X_P9_T33  CAP_M6_T33  1
    X_P9_T33  CAP_M7_T33  2.5
    X_P9_T33  CAP_M8_T33  2.7
    X_P9_T33  CAP_M9_T33  1.1
    X_P9_T33  CAP_M10_T33  1.8
    X_P9_T33  CAP_M11_T33  2.8
    X_P10_T33  COST      29.4
    X_P10_T33  BAL_P10_T33  1
    X_P10_T33  CAP_M0_T33  0.8
    X_P10_T33  CAP_M1_T33  0.8
    X_P10_T33  CAP_M2_T33  1.3
    X_P10_T33  CAP_M3_T33  0.8
    X_P10_T33  CAP_M4_T33  0.7
    X_P10_T33  CAP_M5_T33  1.7
    X_P10_T33  CAP_M6_T33  1.4
    X_P10_T33  CAP_M7_T33  1.3
    X_P10_T33  CAP_M8_T33  2.9
    X_P10_T33  CAP_M9_T33  1.6
    X_P10_T33  CAP_M10_T33  2.9
    X_P10_T33  CAP_M11_T33  0.7
    X_P11_T33  COST      34.7
    X_P11_T33  BAL_P11_T33  1
    X_P11_T33  CAP_M0_T33  2.4
    X_P11_T33  CAP_M1_T33  1.8
    X_P11_T33  CAP_M2_T33  1.8
    X_P11_T33  CAP_M3_T33  1.5
    X_P11_T33  CAP_M4_T33  2.8
    X_P11_T33  CAP_M5_T33  1.4
    X_P11_T33  CAP_M6_T33  0.7
    X_P11_T33  CAP_M7_T33  0.7
    X_P11_T33  CAP_M8_T33  2
    X_P11_T33  CAP_M9_T33  1.5
    X_P11_T33  CAP_M10_T33  1.7
    X_P11_T33  CAP_M11_T33  2.8
    X_P12_T33  COST      40.9
    X_P12_T33  BAL_P12_T33  1
    X_P12_T33  CAP_M0_T33  2.4
    X_P12_T33  CAP_M1_T33  2.3
    X_P12_T33  CAP_M2_T33  1.7
    X_P12_T33  CAP_M3_T33  2
    X_P12_T33  CAP_M4_T33  1.9
    X_P12_T33  CAP_M5_T33  1.2
    X_P12_T33  CAP_M6_T33  1.7
    X_P12_T33  CAP_M7_T33  1.4
    X_P12_T33  CAP_M8_T33  2
    X_P12_T33  CAP_M9_T33  1.6
    X_P12_T33  CAP_M10_T33  1.3
    X_P12_T33  CAP_M11_T33  2.7
    X_P13_T33  COST      23.5
    X_P13_T33  BAL_P13_T33  1
    X_P13_T33  CAP_M0_T33  2.2
    X_P13_T33  CAP_M1_T33  0.8
    X_P13_T33  CAP_M2_T33  2.7
    X_P13_T33  CAP_M3_T33  2.1
    X_P13_T33  CAP_M4_T33  1.8
    X_P13_T33  CAP_M5_T33  1.2
    X_P13_T33  CAP_M6_T33  1
    X_P13_T33  CAP_M7_T33  1.2
    X_P13_T33  CAP_M8_T33  1.8
    X_P13_T33  CAP_M9_T33  1
    X_P13_T33  CAP_M10_T33  1.3
    X_P13_T33  CAP_M11_T33  1.2
    X_P14_T33  COST      18.5
    X_P14_T33  BAL_P14_T33  1
    X_P14_T33  CAP_M0_T33  1.1
    X_P14_T33  CAP_M1_T33  1.8
    X_P14_T33  CAP_M2_T33  1.9
    X_P14_T33  CAP_M3_T33  1.4
    X_P14_T33  CAP_M4_T33  1.5
    X_P14_T33  CAP_M5_T33  1.9
    X_P14_T33  CAP_M6_T33  2.7
    X_P14_T33  CAP_M7_T33  0.8
    X_P14_T33  CAP_M8_T33  1.7
    X_P14_T33  CAP_M9_T33  2.2
    X_P14_T33  CAP_M10_T33  2.7
    X_P14_T33  CAP_M11_T33  1.2
    X_P15_T33  COST      45.2
    X_P15_T33  BAL_P15_T33  1
    X_P15_T33  CAP_M0_T33  0.8
    X_P15_T33  CAP_M1_T33  0.8
    X_P15_T33  CAP_M2_T33  2.4
    X_P15_T33  CAP_M3_T33  2.3
    X_P15_T33  CAP_M4_T33  1.8
    X_P15_T33  CAP_M5_T33  0.8
    X_P15_T33  CAP_M6_T33  0.8
    X_P15_T33  CAP_M7_T33  1.4
    X_P15_T33  CAP_M8_T33  1.3
    X_P15_T33  CAP_M9_T33  1.8
    X_P15_T33  CAP_M10_T33  2.1
    X_P15_T33  CAP_M11_T33  1.5
    X_P16_T33  COST      41
    X_P16_T33  BAL_P16_T33  1
    X_P16_T33  CAP_M0_T33  1.1
    X_P16_T33  CAP_M1_T33  0.5
    X_P16_T33  CAP_M2_T33  1.2
    X_P16_T33  CAP_M3_T33  2.8
    X_P16_T33  CAP_M4_T33  1.1
    X_P16_T33  CAP_M5_T33  1
    X_P16_T33  CAP_M6_T33  1.8
    X_P16_T33  CAP_M7_T33  1.8
    X_P16_T33  CAP_M8_T33  2.5
    X_P16_T33  CAP_M9_T33  1.6
    X_P16_T33  CAP_M10_T33  2.7
    X_P16_T33  CAP_M11_T33  1.3
    X_P17_T33  COST      38.7
    X_P17_T33  BAL_P17_T33  1
    X_P17_T33  CAP_M0_T33  1.8
    X_P17_T33  CAP_M1_T33  2.2
    X_P17_T33  CAP_M2_T33  2.7
    X_P17_T33  CAP_M3_T33  2.2
    X_P17_T33  CAP_M4_T33  1.2
    X_P17_T33  CAP_M5_T33  1.3
    X_P17_T33  CAP_M6_T33  0.7
    X_P17_T33  CAP_M7_T33  1.3
    X_P17_T33  CAP_M8_T33  2.8
    X_P17_T33  CAP_M9_T33  1.4
    X_P17_T33  CAP_M10_T33  2.7
    X_P17_T33  CAP_M11_T33  2.2
    X_P18_T33  COST      39.5
    X_P18_T33  BAL_P18_T33  1
    X_P18_T33  CAP_M0_T33  1.3
    X_P18_T33  CAP_M1_T33  2.9
    X_P18_T33  CAP_M2_T33  1.7
    X_P18_T33  CAP_M3_T33  0.5
    X_P18_T33  CAP_M4_T33  2.4
    X_P18_T33  CAP_M5_T33  2.9
    X_P18_T33  CAP_M6_T33  2.1
    X_P18_T33  CAP_M7_T33  2.7
    X_P18_T33  CAP_M8_T33  1.4
    X_P18_T33  CAP_M9_T33  0.5
    X_P18_T33  CAP_M10_T33  2.1
    X_P18_T33  CAP_M11_T33  1.1
    X_P19_T33  COST      45.9
    X_P19_T33  BAL_P19_T33  1
    X_P19_T33  CAP_M0_T33  2.2
    X_P19_T33  CAP_M1_T33  2.8
    X_P19_T33  CAP_M2_T33  1.6
    X_P19_T33  CAP_M3_T33  2.6
    X_P19_T33  CAP_M4_T33  1.7
    X_P19_T33  CAP_M5_T33  1.3
    X_P19_T33  CAP_M6_T33  1
    X_P19_T33  CAP_M7_T33  1.5
    X_P19_T33  CAP_M8_T33  0.6
    X_P19_T33  CAP_M9_T33  2.8
    X_P19_T33  CAP_M10_T33  0.8
    X_P19_T33  CAP_M11_T33  0.8
    X_P20_T33  COST      46
    X_P20_T33  BAL_P20_T33  1
    X_P20_T33  CAP_M0_T33  1.2
    X_P20_T33  CAP_M1_T33  2
    X_P20_T33  CAP_M2_T33  1.4
    X_P20_T33  CAP_M3_T33  2.3
    X_P20_T33  CAP_M4_T33  1.5
    X_P20_T33  CAP_M5_T33  1.6
    X_P20_T33  CAP_M6_T33  2.6
    X_P20_T33  CAP_M7_T33  2.1
    X_P20_T33  CAP_M8_T33  1.2
    X_P20_T33  CAP_M9_T33  1
    X_P20_T33  CAP_M10_T33  2.3
    X_P20_T33  CAP_M11_T33  1.8
    X_P21_T33  COST      36.8
    X_P21_T33  BAL_P21_T33  1
    X_P21_T33  CAP_M0_T33  2.4
    X_P21_T33  CAP_M1_T33  1.9
    X_P21_T33  CAP_M2_T33  2.9
    X_P21_T33  CAP_M3_T33  2.7
    X_P21_T33  CAP_M4_T33  2.7
    X_P21_T33  CAP_M5_T33  1.7
    X_P21_T33  CAP_M6_T33  2.8
    X_P21_T33  CAP_M7_T33  2.5
    X_P21_T33  CAP_M8_T33  3
    X_P21_T33  CAP_M9_T33  2.7
    X_P21_T33  CAP_M10_T33  2.4
    X_P21_T33  CAP_M11_T33  2.4
    X_P22_T33  COST      45.7
    X_P22_T33  BAL_P22_T33  1
    X_P22_T33  CAP_M0_T33  0.6
    X_P22_T33  CAP_M1_T33  2.9
    X_P22_T33  CAP_M2_T33  2.1
    X_P22_T33  CAP_M3_T33  2.1
    X_P22_T33  CAP_M4_T33  2
    X_P22_T33  CAP_M5_T33  2.4
    X_P22_T33  CAP_M6_T33  2.2
    X_P22_T33  CAP_M7_T33  0.7
    X_P22_T33  CAP_M8_T33  0.5
    X_P22_T33  CAP_M9_T33  1.8
    X_P22_T33  CAP_M10_T33  1.1
    X_P22_T33  CAP_M11_T33  2.6
    X_P23_T33  COST      45.2
    X_P23_T33  BAL_P23_T33  1
    X_P23_T33  CAP_M0_T33  2.9
    X_P23_T33  CAP_M1_T33  1.2
    X_P23_T33  CAP_M2_T33  1.8
    X_P23_T33  CAP_M3_T33  1.8
    X_P23_T33  CAP_M4_T33  1.5
    X_P23_T33  CAP_M5_T33  0.5
    X_P23_T33  CAP_M6_T33  2.8
    X_P23_T33  CAP_M7_T33  1.9
    X_P23_T33  CAP_M8_T33  2.2
    X_P23_T33  CAP_M9_T33  2.9
    X_P23_T33  CAP_M10_T33  2.1
    X_P23_T33  CAP_M11_T33  2.2
    X_P24_T33  COST      11.8
    X_P24_T33  BAL_P24_T33  1
    X_P24_T33  CAP_M0_T33  1.1
    X_P24_T33  CAP_M1_T33  2.5
    X_P24_T33  CAP_M2_T33  1.3
    X_P24_T33  CAP_M3_T33  2.8
    X_P24_T33  CAP_M4_T33  1.1
    X_P24_T33  CAP_M5_T33  2
    X_P24_T33  CAP_M6_T33  1.4
    X_P24_T33  CAP_M7_T33  0.5
    X_P24_T33  CAP_M8_T33  1.2
    X_P24_T33  CAP_M9_T33  2.4
    X_P24_T33  CAP_M10_T33  0.6
    X_P24_T33  CAP_M11_T33  1.9
    S_P0_T33  COST      3.3
    S_P0_T33  BAL_P0_T33  -1
    S_P0_T33  STORAGE_T33  1
    S_P0_T33  BAL_P0_T34  1
    S_P1_T33  COST      1.6
    S_P1_T33  BAL_P1_T33  -1
    S_P1_T33  STORAGE_T33  1
    S_P1_T33  BAL_P1_T34  1
    S_P2_T33  COST      2.2
    S_P2_T33  BAL_P2_T33  -1
    S_P2_T33  STORAGE_T33  1
    S_P2_T33  BAL_P2_T34  1
    S_P3_T33  COST      1.9
    S_P3_T33  BAL_P3_T33  -1
    S_P3_T33  STORAGE_T33  1
    S_P3_T33  BAL_P3_T34  1
    S_P4_T33  COST      4.8
    S_P4_T33  BAL_P4_T33  -1
    S_P4_T33  STORAGE_T33  1
    S_P4_T33  BAL_P4_T34  1
    S_P5_T33  COST      2.5
    S_P5_T33  BAL_P5_T33  -1
    S_P5_T33  STORAGE_T33  1
    S_P5_T33  BAL_P5_T34  1
    S_P6_T33  COST      1.9
    S_P6_T33  BAL_P6_T33  -1
    S_P6_T33  STORAGE_T33  1
    S_P6_T33  BAL_P6_T34  1
    S_P7_T33  COST      2
    S_P7_T33  BAL_P7_T33  -1
    S_P7_T33  STORAGE_T33  1
    S_P7_T33  BAL_P7_T34  1
    S_P8_T33  COST      4.2
    S_P8_T33  BAL_P8_T33  -1
    S_P8_T33  STORAGE_T33  1
    S_P8_T33  BAL_P8_T34  1
    S_P9_T33  COST      3.3
    S_P9_T33  BAL_P9_T33  -1
    S_P9_T33  STORAGE_T33  1
    S_P9_T33  BAL_P9_T34  1
    S_P10_T33  COST      1
    S_P10_T33  BAL_P10_T33  -1
    S_P10_T33  STORAGE_T33  1
    S_P10_T33  BAL_P10_T34  1
    S_P11_T33  COST      2.8
    S_P11_T33  BAL_P11_T33  -1
    S_P11_T33  STORAGE_T33  1
    S_P11_T33  BAL_P11_T34  1
    S_P12_T33  COST      3.9
    S_P12_T33  BAL_P12_T33  -1
    S_P12_T33  STORAGE_T33  1
    S_P12_T33  BAL_P12_T34  1
    S_P13_T33  COST      1.2
    S_P13_T33  BAL_P13_T33  -1
    S_P13_T33  STORAGE_T33  1
    S_P13_T33  BAL_P13_T34  1
    S_P14_T33  COST      1.2
    S_P14_T33  BAL_P14_T33  -1
    S_P14_T33  STORAGE_T33  1
    S_P14_T33  BAL_P14_T34  1
    S_P15_T33  COST      4.3
    S_P15_T33  BAL_P15_T33  -1
    S_P15_T33  STORAGE_T33  1
    S_P15_T33  BAL_P15_T34  1
    S_P16_T33  COST      2
    S_P16_T33  BAL_P16_T33  -1
    S_P16_T33  STORAGE_T33  1
    S_P16_T33  BAL_P16_T34  1
    S_P17_T33  COST      1.6
    S_P17_T33  BAL_P17_T33  -1
    S_P17_T33  STORAGE_T33  1
    S_P17_T33  BAL_P17_T34  1
    S_P18_T33  COST      2.9
    S_P18_T33  BAL_P18_T33  -1
    S_P18_T33  STORAGE_T33  1
    S_P18_T33  BAL_P18_T34  1
    S_P19_T33  COST      4.5
    S_P19_T33  BAL_P19_T33  -1
    S_P19_T33  STORAGE_T33  1
    S_P19_T33  BAL_P19_T34  1
    S_P20_T33  COST      3.7
    S_P20_T33  BAL_P20_T33  -1
    S_P20_T33  STORAGE_T33  1
    S_P20_T33  BAL_P20_T34  1
    S_P21_T33  COST      4.4
    S_P21_T33  BAL_P21_T33  -1
    S_P21_T33  STORAGE_T33  1
    S_P21_T33  BAL_P21_T34  1
    S_P22_T33  COST      3.3
    S_P22_T33  BAL_P22_T33  -1
    S_P22_T33  STORAGE_T33  1
    S_P22_T33  BAL_P22_T34  1
    S_P23_T33  COST      3.4
    S_P23_T33  BAL_P23_T33  -1
    S_P23_T33  STORAGE_T33  1
    S_P23_T33  BAL_P23_T34  1
    S_P24_T33  COST      4.2
    S_P24_T33  BAL_P24_T33  -1
    S_P24_T33  STORAGE_T33  1
    S_P24_T33  BAL_P24_T34  1
    X_P0_T34  COST      25.3
    X_P0_T34  BAL_P0_T34  1
    X_P0_T34  CAP_M0_T34  1.4
    X_P0_T34  CAP_M1_T34  2.4
    X_P0_T34  CAP_M2_T34  0.5
    X_P0_T34  CAP_M3_T34  1
    X_P0_T34  CAP_M4_T34  1.3
    X_P0_T34  CAP_M5_T34  0.8
    X_P0_T34  CAP_M6_T34  1
    X_P0_T34  CAP_M7_T34  1.7
    X_P0_T34  CAP_M8_T34  0.7
    X_P0_T34  CAP_M9_T34  1.5
    X_P0_T34  CAP_M10_T34  2.4
    X_P0_T34  CAP_M11_T34  0.9
    X_P1_T34  COST      35.4
    X_P1_T34  BAL_P1_T34  1
    X_P1_T34  CAP_M0_T34  1
    X_P1_T34  CAP_M1_T34  2.2
    X_P1_T34  CAP_M2_T34  1
    X_P1_T34  CAP_M3_T34  2.4
    X_P1_T34  CAP_M4_T34  3
    X_P1_T34  CAP_M5_T34  2.2
    X_P1_T34  CAP_M6_T34  2.7
    X_P1_T34  CAP_M7_T34  1.4
    X_P1_T34  CAP_M8_T34  1.9
    X_P1_T34  CAP_M9_T34  0.9
    X_P1_T34  CAP_M10_T34  2.9
    X_P1_T34  CAP_M11_T34  2.2
    X_P2_T34  COST      44.1
    X_P2_T34  BAL_P2_T34  1
    X_P2_T34  CAP_M0_T34  2.6
    X_P2_T34  CAP_M1_T34  1.4
    X_P2_T34  CAP_M2_T34  0.8
    X_P2_T34  CAP_M3_T34  2.3
    X_P2_T34  CAP_M4_T34  2.5
    X_P2_T34  CAP_M5_T34  1
    X_P2_T34  CAP_M6_T34  1.2
    X_P2_T34  CAP_M7_T34  1
    X_P2_T34  CAP_M8_T34  1.1
    X_P2_T34  CAP_M9_T34  1.9
    X_P2_T34  CAP_M10_T34  3
    X_P2_T34  CAP_M11_T34  0.8
    X_P3_T34  COST      27.5
    X_P3_T34  BAL_P3_T34  1
    X_P3_T34  CAP_M0_T34  1.8
    X_P3_T34  CAP_M1_T34  2.8
    X_P3_T34  CAP_M2_T34  2.1
    X_P3_T34  CAP_M3_T34  1.6
    X_P3_T34  CAP_M4_T34  1.1
    X_P3_T34  CAP_M5_T34  0.7
    X_P3_T34  CAP_M6_T34  2
    X_P3_T34  CAP_M7_T34  2.7
    X_P3_T34  CAP_M8_T34  1.9
    X_P3_T34  CAP_M9_T34  2.6
    X_P3_T34  CAP_M10_T34  2.1
    X_P3_T34  CAP_M11_T34  2.3
    X_P4_T34  COST      10.4
    X_P4_T34  BAL_P4_T34  1
    X_P4_T34  CAP_M0_T34  1.9
    X_P4_T34  CAP_M1_T34  2
    X_P4_T34  CAP_M2_T34  2.5
    X_P4_T34  CAP_M3_T34  2.7
    X_P4_T34  CAP_M4_T34  2.1
    X_P4_T34  CAP_M5_T34  1.2
    X_P4_T34  CAP_M6_T34  1.6
    X_P4_T34  CAP_M7_T34  1.6
    X_P4_T34  CAP_M8_T34  2.1
    X_P4_T34  CAP_M9_T34  1.7
    X_P4_T34  CAP_M10_T34  0.8
    X_P4_T34  CAP_M11_T34  1.6
    X_P5_T34  COST      15.6
    X_P5_T34  BAL_P5_T34  1
    X_P5_T34  CAP_M0_T34  2.1
    X_P5_T34  CAP_M1_T34  0.7
    X_P5_T34  CAP_M2_T34  2.9
    X_P5_T34  CAP_M3_T34  1.3
    X_P5_T34  CAP_M4_T34  2.6
    X_P5_T34  CAP_M5_T34  1.9
    X_P5_T34  CAP_M6_T34  2.4
    X_P5_T34  CAP_M7_T34  1.8
    X_P5_T34  CAP_M8_T34  1.4
    X_P5_T34  CAP_M9_T34  0.7
    X_P5_T34  CAP_M10_T34  0.6
    X_P5_T34  CAP_M11_T34  2.9
    X_P6_T34  COST      44.2
    X_P6_T34  BAL_P6_T34  1
    X_P6_T34  CAP_M0_T34  1.3
    X_P6_T34  CAP_M1_T34  1.8
    X_P6_T34  CAP_M2_T34  2.5
    X_P6_T34  CAP_M3_T34  2.2
    X_P6_T34  CAP_M4_T34  0.7
    X_P6_T34  CAP_M5_T34  1.5
    X_P6_T34  CAP_M6_T34  0.6
    X_P6_T34  CAP_M7_T34  1.9
    X_P6_T34  CAP_M8_T34  1.3
    X_P6_T34  CAP_M9_T34  2.1
    X_P6_T34  CAP_M10_T34  2.4
    X_P6_T34  CAP_M11_T34  1.1
    X_P7_T34  COST      32.2
    X_P7_T34  BAL_P7_T34  1
    X_P7_T34  CAP_M0_T34  1.1
    X_P7_T34  CAP_M1_T34  2.2
    X_P7_T34  CAP_M2_T34  2.5
    X_P7_T34  CAP_M3_T34  2.9
    X_P7_T34  CAP_M4_T34  1
    X_P7_T34  CAP_M5_T34  2.9
    X_P7_T34  CAP_M6_T34  2.4
    X_P7_T34  CAP_M7_T34  1.6
    X_P7_T34  CAP_M8_T34  1.4
    X_P7_T34  CAP_M9_T34  0.6
    X_P7_T34  CAP_M10_T34  1.6
    X_P7_T34  CAP_M11_T34  1.7
    X_P8_T34  COST      25.9
    X_P8_T34  BAL_P8_T34  1
    X_P8_T34  CAP_M0_T34  1.8
    X_P8_T34  CAP_M1_T34  0.7
    X_P8_T34  CAP_M2_T34  2.7
    X_P8_T34  CAP_M3_T34  2.3
    X_P8_T34  CAP_M4_T34  1.6
    X_P8_T34  CAP_M5_T34  1.3
    X_P8_T34  CAP_M6_T34  2.9
    X_P8_T34  CAP_M7_T34  1.1
    X_P8_T34  CAP_M8_T34  1.5
    X_P8_T34  CAP_M9_T34  2.1
    X_P8_T34  CAP_M10_T34  1.6
    X_P8_T34  CAP_M11_T34  0.7
    X_P9_T34  COST      19.5
    X_P9_T34  BAL_P9_T34  1
    X_P9_T34  CAP_M0_T34  1.3
    X_P9_T34  CAP_M1_T34  2.8
    X_P9_T34  CAP_M2_T34  1.3
    X_P9_T34  CAP_M3_T34  0.6
    X_P9_T34  CAP_M4_T34  1.7
    X_P9_T34  CAP_M5_T34  2.5
    X_P9_T34  CAP_M6_T34  1
    X_P9_T34  CAP_M7_T34  2.5
    X_P9_T34  CAP_M8_T34  2.7
    X_P9_T34  CAP_M9_T34  1.1
    X_P9_T34  CAP_M10_T34  1.8
    X_P9_T34  CAP_M11_T34  2.8
    X_P10_T34  COST      34.9
    X_P10_T34  BAL_P10_T34  1
    X_P10_T34  CAP_M0_T34  0.8
    X_P10_T34  CAP_M1_T34  0.8
    X_P10_T34  CAP_M2_T34  1.3
    X_P10_T34  CAP_M3_T34  0.8
    X_P10_T34  CAP_M4_T34  0.7
    X_P10_T34  CAP_M5_T34  1.7
    X_P10_T34  CAP_M6_T34  1.4
    X_P10_T34  CAP_M7_T34  1.3
    X_P10_T34  CAP_M8_T34  2.9
    X_P10_T34  CAP_M9_T34  1.6
    X_P10_T34  CAP_M10_T34  2.9
    X_P10_T34  CAP_M11_T34  0.7
    X_P11_T34  COST      38.3
    X_P11_T34  BAL_P11_T34  1
    X_P11_T34  CAP_M0_T34  2.4
    X_P11_T34  CAP_M1_T34  1.8
    X_P11_T34  CAP_M2_T34  1.8
    X_P11_T34  CAP_M3_T34  1.5
    X_P11_T34  CAP_M4_T34  2.8
    X_P11_T34  CAP_M5_T34  1.4
    X_P11_T34  CAP_M6_T34  0.7
    X_P11_T34  CAP_M7_T34  0.7
    X_P11_T34  CAP_M8_T34  2
    X_P11_T34  CAP_M9_T34  1.5
    X_P11_T34  CAP_M10_T34  1.7
    X_P11_T34  CAP_M11_T34  2.8
    X_P12_T34  COST      16.2
    X_P12_T34  BAL_P12_T34  1
    X_P12_T34  CAP_M0_T34  2.4
    X_P12_T34  CAP_M1_T34  2.3
    X_P12_T34  CAP_M2_T34  1.7
    X_P12_T34  CAP_M3_T34  2
    X_P12_T34  CAP_M4_T34  1.9
    X_P12_T34  CAP_M5_T34  1.2
    X_P12_T34  CAP_M6_T34  1.7
    X_P12_T34  CAP_M7_T34  1.4
    X_P12_T34  CAP_M8_T34  2
    X_P12_T34  CAP_M9_T34  1.6
    X_P12_T34  CAP_M10_T34  1.3
    X_P12_T34  CAP_M11_T34  2.7
    X_P13_T34  COST      45.3
    X_P13_T34  BAL_P13_T34  1
    X_P13_T34  CAP_M0_T34  2.2
    X_P13_T34  CAP_M1_T34  0.8
    X_P13_T34  CAP_M2_T34  2.7
    X_P13_T34  CAP_M3_T34  2.1
    X_P13_T34  CAP_M4_T34  1.8
    X_P13_T34  CAP_M5_T34  1.2
    X_P13_T34  CAP_M6_T34  1
    X_P13_T34  CAP_M7_T34  1.2
    X_P13_T34  CAP_M8_T34  1.8
    X_P13_T34  CAP_M9_T34  1
    X_P13_T34  CAP_M10_T34  1.3
    X_P13_T34  CAP_M11_T34  1.2
    X_P14_T34  COST      46.8
    X_P14_T34  BAL_P14_T34  1
    X_P14_T34  CAP_M0_T34  1.1
    X_P14_T34  CAP_M1_T34  1.8
    X_P14_T34  CAP_M2_T34  1.9
    X_P14_T34  CAP_M3_T34  1.4
    X_P14_T34  CAP_M4_T34  1.5
    X_P14_T34  CAP_M5_T34  1.9
    X_P14_T34  CAP_M6_T34  2.7
    X_P14_T34  CAP_M7_T34  0.8
    X_P14_T34  CAP_M8_T34  1.7
    X_P14_T34  CAP_M9_T34  2.2
    X_P14_T34  CAP_M10_T34  2.7
    X_P14_T34  CAP_M11_T34  1.2
    X_P15_T34  COST      49.3
    X_P15_T34  BAL_P15_T34  1
    X_P15_T34  CAP_M0_T34  0.8
    X_P15_T34  CAP_M1_T34  0.8
    X_P15_T34  CAP_M2_T34  2.4
    X_P15_T34  CAP_M3_T34  2.3
    X_P15_T34  CAP_M4_T34  1.8
    X_P15_T34  CAP_M5_T34  0.8
    X_P15_T34  CAP_M6_T34  0.8
    X_P15_T34  CAP_M7_T34  1.4
    X_P15_T34  CAP_M8_T34  1.3
    X_P15_T34  CAP_M9_T34  1.8
    X_P15_T34  CAP_M10_T34  2.1
    X_P15_T34  CAP_M11_T34  1.5
    X_P16_T34  COST      32.7
    X_P16_T34  BAL_P16_T34  1
    X_P16_T34  CAP_M0_T34  1.1
    X_P16_T34  CAP_M1_T34  0.5
    X_P16_T34  CAP_M2_T34  1.2
    X_P16_T34  CAP_M3_T34  2.8
    X_P16_T34  CAP_M4_T34  1.1
    X_P16_T34  CAP_M5_T34  1
    X_P16_T34  CAP_M6_T34  1.8
    X_P16_T34  CAP_M7_T34  1.8
    X_P16_T34  CAP_M8_T34  2.5
    X_P16_T34  CAP_M9_T34  1.6
    X_P16_T34  CAP_M10_T34  2.7
    X_P16_T34  CAP_M11_T34  1.3
    X_P17_T34  COST      35.2
    X_P17_T34  BAL_P17_T34  1
    X_P17_T34  CAP_M0_T34  1.8
    X_P17_T34  CAP_M1_T34  2.2
    X_P17_T34  CAP_M2_T34  2.7
    X_P17_T34  CAP_M3_T34  2.2
    X_P17_T34  CAP_M4_T34  1.2
    X_P17_T34  CAP_M5_T34  1.3
    X_P17_T34  CAP_M6_T34  0.7
    X_P17_T34  CAP_M7_T34  1.3
    X_P17_T34  CAP_M8_T34  2.8
    X_P17_T34  CAP_M9_T34  1.4
    X_P17_T34  CAP_M10_T34  2.7
    X_P17_T34  CAP_M11_T34  2.2
    X_P18_T34  COST      42
    X_P18_T34  BAL_P18_T34  1
    X_P18_T34  CAP_M0_T34  1.3
    X_P18_T34  CAP_M1_T34  2.9
    X_P18_T34  CAP_M2_T34  1.7
    X_P18_T34  CAP_M3_T34  0.5
    X_P18_T34  CAP_M4_T34  2.4
    X_P18_T34  CAP_M5_T34  2.9
    X_P18_T34  CAP_M6_T34  2.1
    X_P18_T34  CAP_M7_T34  2.7
    X_P18_T34  CAP_M8_T34  1.4
    X_P18_T34  CAP_M9_T34  0.5
    X_P18_T34  CAP_M10_T34  2.1
    X_P18_T34  CAP_M11_T34  1.1
    X_P19_T34  COST      34.5
    X_P19_T34  BAL_P19_T34  1
    X_P19_T34  CAP_M0_T34  2.2
    X_P19_T34  CAP_M1_T34  2.8
    X_P19_T34  CAP_M2_T34  1.6
    X_P19_T34  CAP_M3_T34  2.6
    X_P19_T34  CAP_M4_T34  1.7
    X_P19_T34  CAP_M5_T34  1.3
    X_P19_T34  CAP_M6_T34  1
    X_P19_T34  CAP_M7_T34  1.5
    X_P19_T34  CAP_M8_T34  0.6
    X_P19_T34  CAP_M9_T34  2.8
    X_P19_T34  CAP_M10_T34  0.8
    X_P19_T34  CAP_M11_T34  0.8
    X_P20_T34  COST      34.4
    X_P20_T34  BAL_P20_T34  1
    X_P20_T34  CAP_M0_T34  1.2
    X_P20_T34  CAP_M1_T34  2
    X_P20_T34  CAP_M2_T34  1.4
    X_P20_T34  CAP_M3_T34  2.3
    X_P20_T34  CAP_M4_T34  1.5
    X_P20_T34  CAP_M5_T34  1.6
    X_P20_T34  CAP_M6_T34  2.6
    X_P20_T34  CAP_M7_T34  2.1
    X_P20_T34  CAP_M8_T34  1.2
    X_P20_T34  CAP_M9_T34  1
    X_P20_T34  CAP_M10_T34  2.3
    X_P20_T34  CAP_M11_T34  1.8
    X_P21_T34  COST      25.2
    X_P21_T34  BAL_P21_T34  1
    X_P21_T34  CAP_M0_T34  2.4
    X_P21_T34  CAP_M1_T34  1.9
    X_P21_T34  CAP_M2_T34  2.9
    X_P21_T34  CAP_M3_T34  2.7
    X_P21_T34  CAP_M4_T34  2.7
    X_P21_T34  CAP_M5_T34  1.7
    X_P21_T34  CAP_M6_T34  2.8
    X_P21_T34  CAP_M7_T34  2.5
    X_P21_T34  CAP_M8_T34  3
    X_P21_T34  CAP_M9_T34  2.7
    X_P21_T34  CAP_M10_T34  2.4
    X_P21_T34  CAP_M11_T34  2.4
    X_P22_T34  COST      35.5
    X_P22_T34  BAL_P22_T34  1
    X_P22_T34  CAP_M0_T34  0.6
    X_P22_T34  CAP_M1_T34  2.9
    X_P22_T34  CAP_M2_T34  2.1
    X_P22_T34  CAP_M3_T34  2.1
    X_P22_T34  CAP_M4_T34  2
    X_P22_T34  CAP_M5_T34  2.4
    X_P22_T34  CAP_M6_T34  2.2
    X_P22_T34  CAP_M7_T34  0.7
    X_P22_T34  CAP_M8_T34  0.5
    X_P22_T34  CAP_M9_T34  1.8
    X_P22_T34  CAP_M10_T34  1.1
    X_P22_T34  CAP_M11_T34  2.6
    X_P23_T34  COST      24.6
    X_P23_T34  BAL_P23_T34  1
    X_P23_T34  CAP_M0_T34  2.9
    X_P23_T34  CAP_M1_T34  1.2
    X_P23_T34  CAP_M2_T34  1.8
    X_P23_T34  CAP_M3_T34  1.8
    X_P23_T34  CAP_M4_T34  1.5
    X_P23_T34  CAP_M5_T34  0.5
    X_P23_T34  CAP_M6_T34  2.8
    X_P23_T34  CAP_M7_T34  1.9
    X_P23_T34  CAP_M8_T34  2.2
    X_P23_T34  CAP_M9_T34  2.9
    X_P23_T34  CAP_M10_T34  2.1
    X_P23_T34  CAP_M11_T34  2.2
    X_P24_T34  COST      39.9
    X_P24_T34  BAL_P24_T34  1
    X_P24_T34  CAP_M0_T34  1.1
    X_P24_T34  CAP_M1_T34  2.5
    X_P24_T34  CAP_M2_T34  1.3
    X_P24_T34  CAP_M3_T34  2.8
    X_P24_T34  CAP_M4_T34  1.1
    X_P24_T34  CAP_M5_T34  2
    X_P24_T34  CAP_M6_T34  1.4
    X_P24_T34  CAP_M7_T34  0.5
    X_P24_T34  CAP_M8_T34  1.2
    X_P24_T34  CAP_M9_T34  2.4
    X_P24_T34  CAP_M10_T34  0.6
    X_P24_T34  CAP_M11_T34  1.9
    S_P0_T34  COST      3.1
    S_P0_T34  BAL_P0_T34  -1
    S_P0_T34  STORAGE_T34  1
    S_P0_T34  BAL_P0_T35  1
    S_P1_T34  COST      2.4
    S_P1_T34  BAL_P1_T34  -1
    S_P1_T34  STORAGE_T34  1
    S_P1_T34  BAL_P1_T35  1
    S_P2_T34  COST      3.6
    S_P2_T34  BAL_P2_T34  -1
    S_P2_T34  STORAGE_T34  1
    S_P2_T34  BAL_P2_T35  1
    S_P3_T34  COST      2.9
    S_P3_T34  BAL_P3_T34  -1
    S_P3_T34  STORAGE_T34  1
    S_P3_T34  BAL_P3_T35  1
    S_P4_T34  COST      1.8
    S_P4_T34  BAL_P4_T34  -1
    S_P4_T34  STORAGE_T34  1
    S_P4_T34  BAL_P4_T35  1
    S_P5_T34  COST      1.7
    S_P5_T34  BAL_P5_T34  -1
    S_P5_T34  STORAGE_T34  1
    S_P5_T34  BAL_P5_T35  1
    S_P6_T34  COST      2.2
    S_P6_T34  BAL_P6_T34  -1
    S_P6_T34  STORAGE_T34  1
    S_P6_T34  BAL_P6_T35  1
    S_P7_T34  COST      3.1
    S_P7_T34  BAL_P7_T34  -1
    S_P7_T34  STORAGE_T34  1
    S_P7_T34  BAL_P7_T35  1
    S_P8_T34  COST      2
    S_P8_T34  BAL_P8_T34  -1
    S_P8_T34  STORAGE_T34  1
    S_P8_T34  BAL_P8_T35  1
    S_P9_T34  COST      1
    S_P9_T34  BAL_P9_T34  -1
    S_P9_T34  STORAGE_T34  1
    S_P9_T34  BAL_P9_T35  1
    S_P10_T34  COST      4.6
    S_P10_T34  BAL_P10_T34  -1
    S_P10_T34  STORAGE_T34  1
    S_P10_T34  BAL_P10_T35  1
    S_P11_T34  COST      4.5
    S_P11_T34  BAL_P11_T34  -1
    S_P11_T34  STORAGE_T34  1
    S_P11_T34  BAL_P11_T35  1
    S_P12_T34  COST      4.3
    S_P12_T34  BAL_P12_T34  -1
    S_P12_T34  STORAGE_T34  1
    S_P12_T34  BAL_P12_T35  1
    S_P13_T34  COST      2.7
    S_P13_T34  BAL_P13_T34  -1
    S_P13_T34  STORAGE_T34  1
    S_P13_T34  BAL_P13_T35  1
    S_P14_T34  COST      4.6
    S_P14_T34  BAL_P14_T34  -1
    S_P14_T34  STORAGE_T34  1
    S_P14_T34  BAL_P14_T35  1
    S_P15_T34  COST      1.3
    S_P15_T34  BAL_P15_T34  -1
    S_P15_T34  STORAGE_T34  1
    S_P15_T34  BAL_P15_T35  1
    S_P16_T34  COST      2.3
    S_P16_T34  BAL_P16_T34  -1
    S_P16_T34  STORAGE_T34  1
    S_P16_T34  BAL_P16_T35  1
    S_P17_T34  COST      1
    S_P17_T34  BAL_P17_T34  -1
    S_P17_T34  STORAGE_T34  1
    S_P17_T34  BAL_P17_T35  1
    S_P18_T34  COST      1.9
    S_P18_T34  BAL_P18_T34  -1
    S_P18_T34  STORAGE_T34  1
    S_P18_T34  BAL_P18_T35  1
    S_P19_T34  COST      1.1
    S_P19_T34  BAL_P19_T34  -1
    S_P19_T34  STORAGE_T34  1
    S_P19_T34  BAL_P19_T35  1
    S_P20_T34  COST      3
    S_P20_T34  BAL_P20_T34  -1
    S_P20_T34  STORAGE_T34  1
    S_P20_T34  BAL_P20_T35  1
    S_P21_T34  COST      1.4
    S_P21_T34  BAL_P21_T34  -1
    S_P21_T34  STORAGE_T34  1
    S_P21_T34  BAL_P21_T35  1
    S_P22_T34  COST      3.5
    S_P22_T34  BAL_P22_T34  -1
    S_P22_T34  STORAGE_T34  1
    S_P22_T34  BAL_P22_T35  1
    S_P23_T34  COST      2.3
    S_P23_T34  BAL_P23_T34  -1
    S_P23_T34  STORAGE_T34  1
    S_P23_T34  BAL_P23_T35  1
    S_P24_T34  COST      4.2
    S_P24_T34  BAL_P24_T34  -1
    S_P24_T34  STORAGE_T34  1
    S_P24_T34  BAL_P24_T35  1
    X_P0_T35  COST      37.7
    X_P0_T35  BAL_P0_T35  1
    X_P0_T35  CAP_M0_T35  1.4
    X_P0_T35  CAP_M1_T35  2.4
    X_P0_T35  CAP_M2_T35  0.5
    X_P0_T35  CAP_M3_T35  1
    X_P0_T35  CAP_M4_T35  1.3
    X_P0_T35  CAP_M5_T35  0.8
    X_P0_T35  CAP_M6_T35  1
    X_P0_T35  CAP_M7_T35  1.7
    X_P0_T35  CAP_M8_T35  0.7
    X_P0_T35  CAP_M9_T35  1.5
    X_P0_T35  CAP_M10_T35  2.4
    X_P0_T35  CAP_M11_T35  0.9
    X_P1_T35  COST      44.6
    X_P1_T35  BAL_P1_T35  1
    X_P1_T35  CAP_M0_T35  1
    X_P1_T35  CAP_M1_T35  2.2
    X_P1_T35  CAP_M2_T35  1
    X_P1_T35  CAP_M3_T35  2.4
    X_P1_T35  CAP_M4_T35  3
    X_P1_T35  CAP_M5_T35  2.2
    X_P1_T35  CAP_M6_T35  2.7
    X_P1_T35  CAP_M7_T35  1.4
    X_P1_T35  CAP_M8_T35  1.9
    X_P1_T35  CAP_M9_T35  0.9
    X_P1_T35  CAP_M10_T35  2.9
    X_P1_T35  CAP_M11_T35  2.2
    X_P2_T35  COST      26.4
    X_P2_T35  BAL_P2_T35  1
    X_P2_T35  CAP_M0_T35  2.6
    X_P2_T35  CAP_M1_T35  1.4
    X_P2_T35  CAP_M2_T35  0.8
    X_P2_T35  CAP_M3_T35  2.3
    X_P2_T35  CAP_M4_T35  2.5
    X_P2_T35  CAP_M5_T35  1
    X_P2_T35  CAP_M6_T35  1.2
    X_P2_T35  CAP_M7_T35  1
    X_P2_T35  CAP_M8_T35  1.1
    X_P2_T35  CAP_M9_T35  1.9
    X_P2_T35  CAP_M10_T35  3
    X_P2_T35  CAP_M11_T35  0.8
    X_P3_T35  COST      31.1
    X_P3_T35  BAL_P3_T35  1
    X_P3_T35  CAP_M0_T35  1.8
    X_P3_T35  CAP_M1_T35  2.8
    X_P3_T35  CAP_M2_T35  2.1
    X_P3_T35  CAP_M3_T35  1.6
    X_P3_T35  CAP_M4_T35  1.1
    X_P3_T35  CAP_M5_T35  0.7
    X_P3_T35  CAP_M6_T35  2
    X_P3_T35  CAP_M7_T35  2.7
    X_P3_T35  CAP_M8_T35  1.9
    X_P3_T35  CAP_M9_T35  2.6
    X_P3_T35  CAP_M10_T35  2.1
    X_P3_T35  CAP_M11_T35  2.3
    X_P4_T35  COST      21.1
    X_P4_T35  BAL_P4_T35  1
    X_P4_T35  CAP_M0_T35  1.9
    X_P4_T35  CAP_M1_T35  2
    X_P4_T35  CAP_M2_T35  2.5
    X_P4_T35  CAP_M3_T35  2.7
    X_P4_T35  CAP_M4_T35  2.1
    X_P4_T35  CAP_M5_T35  1.2
    X_P4_T35  CAP_M6_T35  1.6
    X_P4_T35  CAP_M7_T35  1.6
    X_P4_T35  CAP_M8_T35  2.1
    X_P4_T35  CAP_M9_T35  1.7
    X_P4_T35  CAP_M10_T35  0.8
    X_P4_T35  CAP_M11_T35  1.6
    X_P5_T35  COST      11.6
    X_P5_T35  BAL_P5_T35  1
    X_P5_T35  CAP_M0_T35  2.1
    X_P5_T35  CAP_M1_T35  0.7
    X_P5_T35  CAP_M2_T35  2.9
    X_P5_T35  CAP_M3_T35  1.3
    X_P5_T35  CAP_M4_T35  2.6
    X_P5_T35  CAP_M5_T35  1.9
    X_P5_T35  CAP_M6_T35  2.4
    X_P5_T35  CAP_M7_T35  1.8
    X_P5_T35  CAP_M8_T35  1.4
    X_P5_T35  CAP_M9_T35  0.7
    X_P5_T35  CAP_M10_T35  0.6
    X_P5_T35  CAP_M11_T35  2.9
    X_P6_T35  COST      35.7
    X_P6_T35  BAL_P6_T35  1
    X_P6_T35  CAP_M0_T35  1.3
    X_P6_T35  CAP_M1_T35  1.8
    X_P6_T35  CAP_M2_T35  2.5
    X_P6_T35  CAP_M3_T35  2.2
    X_P6_T35  CAP_M4_T35  0.7
    X_P6_T35  CAP_M5_T35  1.5
    X_P6_T35  CAP_M6_T35  0.6
    X_P6_T35  CAP_M7_T35  1.9
    X_P6_T35  CAP_M8_T35  1.3
    X_P6_T35  CAP_M9_T35  2.1
    X_P6_T35  CAP_M10_T35  2.4
    X_P6_T35  CAP_M11_T35  1.1
    X_P7_T35  COST      45.2
    X_P7_T35  BAL_P7_T35  1
    X_P7_T35  CAP_M0_T35  1.1
    X_P7_T35  CAP_M1_T35  2.2
    X_P7_T35  CAP_M2_T35  2.5
    X_P7_T35  CAP_M3_T35  2.9
    X_P7_T35  CAP_M4_T35  1
    X_P7_T35  CAP_M5_T35  2.9
    X_P7_T35  CAP_M6_T35  2.4
    X_P7_T35  CAP_M7_T35  1.6
    X_P7_T35  CAP_M8_T35  1.4
    X_P7_T35  CAP_M9_T35  0.6
    X_P7_T35  CAP_M10_T35  1.6
    X_P7_T35  CAP_M11_T35  1.7
    X_P8_T35  COST      49.6
    X_P8_T35  BAL_P8_T35  1
    X_P8_T35  CAP_M0_T35  1.8
    X_P8_T35  CAP_M1_T35  0.7
    X_P8_T35  CAP_M2_T35  2.7
    X_P8_T35  CAP_M3_T35  2.3
    X_P8_T35  CAP_M4_T35  1.6
    X_P8_T35  CAP_M5_T35  1.3
    X_P8_T35  CAP_M6_T35  2.9
    X_P8_T35  CAP_M7_T35  1.1
    X_P8_T35  CAP_M8_T35  1.5
    X_P8_T35  CAP_M9_T35  2.1
    X_P8_T35  CAP_M10_T35  1.6
    X_P8_T35  CAP_M11_T35  0.7
    X_P9_T35  COST      32.1
    X_P9_T35  BAL_P9_T35  1
    X_P9_T35  CAP_M0_T35  1.3
    X_P9_T35  CAP_M1_T35  2.8
    X_P9_T35  CAP_M2_T35  1.3
    X_P9_T35  CAP_M3_T35  0.6
    X_P9_T35  CAP_M4_T35  1.7
    X_P9_T35  CAP_M5_T35  2.5
    X_P9_T35  CAP_M6_T35  1
    X_P9_T35  CAP_M7_T35  2.5
    X_P9_T35  CAP_M8_T35  2.7
    X_P9_T35  CAP_M9_T35  1.1
    X_P9_T35  CAP_M10_T35  1.8
    X_P9_T35  CAP_M11_T35  2.8
    X_P10_T35  COST      36.2
    X_P10_T35  BAL_P10_T35  1
    X_P10_T35  CAP_M0_T35  0.8
    X_P10_T35  CAP_M1_T35  0.8
    X_P10_T35  CAP_M2_T35  1.3
    X_P10_T35  CAP_M3_T35  0.8
    X_P10_T35  CAP_M4_T35  0.7
    X_P10_T35  CAP_M5_T35  1.7
    X_P10_T35  CAP_M6_T35  1.4
    X_P10_T35  CAP_M7_T35  1.3
    X_P10_T35  CAP_M8_T35  2.9
    X_P10_T35  CAP_M9_T35  1.6
    X_P10_T35  CAP_M10_T35  2.9
    X_P10_T35  CAP_M11_T35  0.7
    X_P11_T35  COST      28.2
    X_P11_T35  BAL_P11_T35  1
    X_P11_T35  CAP_M0_T35  2.4
    X_P11_T35  CAP_M1_T35  1.8
    X_P11_T35  CAP_M2_T35  1.8
    X_P11_T35  CAP_M3_T35  1.5
    X_P11_T35  CAP_M4_T35  2.8
    X_P11_T35  CAP_M5_T35  1.4
    X_P11_T35  CAP_M6_T35  0.7
    X_P11_T35  CAP_M7_T35  0.7
    X_P11_T35  CAP_M8_T35  2
    X_P11_T35  CAP_M9_T35  1.5
    X_P11_T35  CAP_M10_T35  1.7
    X_P11_T35  CAP_M11_T35  2.8
    X_P12_T35  COST      24.7
    X_P12_T35  BAL_P12_T35  1
    X_P12_T35  CAP_M0_T35  2.4
    X_P12_T35  CAP_M1_T35  2.3
    X_P12_T35  CAP_M2_T35  1.7
    X_P12_T35  CAP_M3_T35  2
    X_P12_T35  CAP_M4_T35  1.9
    X_P12_T35  CAP_M5_T35  1.2
    X_P12_T35  CAP_M6_T35  1.7
    X_P12_T35  CAP_M7_T35  1.4
    X_P12_T35  CAP_M8_T35  2
    X_P12_T35  CAP_M9_T35  1.6
    X_P12_T35  CAP_M10_T35  1.3
    X_P12_T35  CAP_M11_T35  2.7
    X_P13_T35  COST      45.1
    X_P13_T35  BAL_P13_T35  1
    X_P13_T35  CAP_M0_T35  2.2
    X_P13_T35  CAP_M1_T35  0.8
    X_P13_T35  CAP_M2_T35  2.7
    X_P13_T35  CAP_M3_T35  2.1
    X_P13_T35  CAP_M4_T35  1.8
    X_P13_T35  CAP_M5_T35  1.2
    X_P13_T35  CAP_M6_T35  1
    X_P13_T35  CAP_M7_T35  1.2
    X_P13_T35  CAP_M8_T35  1.8
    X_P13_T35  CAP_M9_T35  1
    X_P13_T35  CAP_M10_T35  1.3
    X_P13_T35  CAP_M11_T35  1.2
    X_P14_T35  COST      24.7
    X_P14_T35  BAL_P14_T35  1
    X_P14_T35  CAP_M0_T35  1.1
    X_P14_T35  CAP_M1_T35  1.8
    X_P14_T35  CAP_M2_T35  1.9
    X_P14_T35  CAP_M3_T35  1.4
    X_P14_T35  CAP_M4_T35  1.5
    X_P14_T35  CAP_M5_T35  1.9
    X_P14_T35  CAP_M6_T35  2.7
    X_P14_T35  CAP_M7_T35  0.8
    X_P14_T35  CAP_M8_T35  1.7
    X_P14_T35  CAP_M9_T35  2.2
    X_P14_T35  CAP_M10_T35  2.7
    X_P14_T35  CAP_M11_T35  1.2
    X_P15_T35  COST      10.4
    X_P15_T35  BAL_P15_T35  1
    X_P15_T35  CAP_M0_T35  0.8
    X_P15_T35  CAP_M1_T35  0.8
    X_P15_T35  CAP_M2_T35  2.4
    X_P15_T35  CAP_M3_T35  2.3
    X_P15_T35  CAP_M4_T35  1.8
    X_P15_T35  CAP_M5_T35  0.8
    X_P15_T35  CAP_M6_T35  0.8
    X_P15_T35  CAP_M7_T35  1.4
    X_P15_T35  CAP_M8_T35  1.3
    X_P15_T35  CAP_M9_T35  1.8
    X_P15_T35  CAP_M10_T35  2.1
    X_P15_T35  CAP_M11_T35  1.5
    X_P16_T35  COST      29
    X_P16_T35  BAL_P16_T35  1
    X_P16_T35  CAP_M0_T35  1.1
    X_P16_T35  CAP_M1_T35  0.5
    X_P16_T35  CAP_M2_T35  1.2
    X_P16_T35  CAP_M3_T35  2.8
    X_P16_T35  CAP_M4_T35  1.1
    X_P16_T35  CAP_M5_T35  1
    X_P16_T35  CAP_M6_T35  1.8
    X_P16_T35  CAP_M7_T35  1.8
    X_P16_T35  CAP_M8_T35  2.5
    X_P16_T35  CAP_M9_T35  1.6
    X_P16_T35  CAP_M10_T35  2.7
    X_P16_T35  CAP_M11_T35  1.3
    X_P17_T35  COST      45.1
    X_P17_T35  BAL_P17_T35  1
    X_P17_T35  CAP_M0_T35  1.8
    X_P17_T35  CAP_M1_T35  2.2
    X_P17_T35  CAP_M2_T35  2.7
    X_P17_T35  CAP_M3_T35  2.2
    X_P17_T35  CAP_M4_T35  1.2
    X_P17_T35  CAP_M5_T35  1.3
    X_P17_T35  CAP_M6_T35  0.7
    X_P17_T35  CAP_M7_T35  1.3
    X_P17_T35  CAP_M8_T35  2.8
    X_P17_T35  CAP_M9_T35  1.4
    X_P17_T35  CAP_M10_T35  2.7
    X_P17_T35  CAP_M11_T35  2.2
    X_P18_T35  COST      11
    X_P18_T35  BAL_P18_T35  1
    X_P18_T35  CAP_M0_T35  1.3
    X_P18_T35  CAP_M1_T35  2.9
    X_P18_T35  CAP_M2_T35  1.7
    X_P18_T35  CAP_M3_T35  0.5
    X_P18_T35  CAP_M4_T35  2.4
    X_P18_T35  CAP_M5_T35  2.9
    X_P18_T35  CAP_M6_T35  2.1
    X_P18_T35  CAP_M7_T35  2.7
    X_P18_T35  CAP_M8_T35  1.4
    X_P18_T35  CAP_M9_T35  0.5
    X_P18_T35  CAP_M10_T35  2.1
    X_P18_T35  CAP_M11_T35  1.1
    X_P19_T35  COST      12
    X_P19_T35  BAL_P19_T35  1
    X_P19_T35  CAP_M0_T35  2.2
    X_P19_T35  CAP_M1_T35  2.8
    X_P19_T35  CAP_M2_T35  1.6
    X_P19_T35  CAP_M3_T35  2.6
    X_P19_T35  CAP_M4_T35  1.7
    X_P19_T35  CAP_M5_T35  1.3
    X_P19_T35  CAP_M6_T35  1
    X_P19_T35  CAP_M7_T35  1.5
    X_P19_T35  CAP_M8_T35  0.6
    X_P19_T35  CAP_M9_T35  2.8
    X_P19_T35  CAP_M10_T35  0.8
    X_P19_T35  CAP_M11_T35  0.8
    X_P20_T35  COST      41.4
    X_P20_T35  BAL_P20_T35  1
    X_P20_T35  CAP_M0_T35  1.2
    X_P20_T35  CAP_M1_T35  2
    X_P20_T35  CAP_M2_T35  1.4
    X_P20_T35  CAP_M3_T35  2.3
    X_P20_T35  CAP_M4_T35  1.5
    X_P20_T35  CAP_M5_T35  1.6
    X_P20_T35  CAP_M6_T35  2.6
    X_P20_T35  CAP_M7_T35  2.1
    X_P20_T35  CAP_M8_T35  1.2
    X_P20_T35  CAP_M9_T35  1
    X_P20_T35  CAP_M10_T35  2.3
    X_P20_T35  CAP_M11_T35  1.8
    X_P21_T35  COST      25.2
    X_P21_T35  BAL_P21_T35  1
    X_P21_T35  CAP_M0_T35  2.4
    X_P21_T35  CAP_M1_T35  1.9
    X_P21_T35  CAP_M2_T35  2.9
    X_P21_T35  CAP_M3_T35  2.7
    X_P21_T35  CAP_M4_T35  2.7
    X_P21_T35  CAP_M5_T35  1.7
    X_P21_T35  CAP_M6_T35  2.8
    X_P21_T35  CAP_M7_T35  2.5
    X_P21_T35  CAP_M8_T35  3
    X_P21_T35  CAP_M9_T35  2.7
    X_P21_T35  CAP_M10_T35  2.4
    X_P21_T35  CAP_M11_T35  2.4
    X_P22_T35  COST      37.8
    X_P22_T35  BAL_P22_T35  1
    X_P22_T35  CAP_M0_T35  0.6
    X_P22_T35  CAP_M1_T35  2.9
    X_P22_T35  CAP_M2_T35  2.1
    X_P22_T35  CAP_M3_T35  2.1
    X_P22_T35  CAP_M4_T35  2
    X_P22_T35  CAP_M5_T35  2.4
    X_P22_T35  CAP_M6_T35  2.2
    X_P22_T35  CAP_M7_T35  0.7
    X_P22_T35  CAP_M8_T35  0.5
    X_P22_T35  CAP_M9_T35  1.8
    X_P22_T35  CAP_M10_T35  1.1
    X_P22_T35  CAP_M11_T35  2.6
    X_P23_T35  COST      39.9
    X_P23_T35  BAL_P23_T35  1
    X_P23_T35  CAP_M0_T35  2.9
    X_P23_T35  CAP_M1_T35  1.2
    X_P23_T35  CAP_M2_T35  1.8
    X_P23_T35  CAP_M3_T35  1.8
    X_P23_T35  CAP_M4_T35  1.5
    X_P23_T35  CAP_M5_T35  0.5
    X_P23_T35  CAP_M6_T35  2.8
    X_P23_T35  CAP_M7_T35  1.9
    X_P23_T35  CAP_M8_T35  2.2
    X_P23_T35  CAP_M9_T35  2.9
    X_P23_T35  CAP_M10_T35  2.1
    X_P23_T35  CAP_M11_T35  2.2
    X_P24_T35  COST      32.2
    X_P24_T35  BAL_P24_T35  1
    X_P24_T35  CAP_M0_T35  1.1
    X_P24_T35  CAP_M1_T35  2.5
    X_P24_T35  CAP_M2_T35  1.3
    X_P24_T35  CAP_M3_T35  2.8
    X_P24_T35  CAP_M4_T35  1.1
    X_P24_T35  CAP_M5_T35  2
    X_P24_T35  CAP_M6_T35  1.4
    X_P24_T35  CAP_M7_T35  0.5
    X_P24_T35  CAP_M8_T35  1.2
    X_P24_T35  CAP_M9_T35  2.4
    X_P24_T35  CAP_M10_T35  0.6
    X_P24_T35  CAP_M11_T35  1.9
    S_P0_T35  COST      3.9
    S_P0_T35  BAL_P0_T35  -1
    S_P0_T35  STORAGE_T35  1
    S_P0_T35  BAL_P0_T36  1
    S_P1_T35  COST      3.1
    S_P1_T35  BAL_P1_T35  -1
    S_P1_T35  STORAGE_T35  1
    S_P1_T35  BAL_P1_T36  1
    S_P2_T35  COST      1.8
    S_P2_T35  BAL_P2_T35  -1
    S_P2_T35  STORAGE_T35  1
    S_P2_T35  BAL_P2_T36  1
    S_P3_T35  COST      1.6
    S_P3_T35  BAL_P3_T35  -1
    S_P3_T35  STORAGE_T35  1
    S_P3_T35  BAL_P3_T36  1
    S_P4_T35  COST      4.1
    S_P4_T35  BAL_P4_T35  -1
    S_P4_T35  STORAGE_T35  1
    S_P4_T35  BAL_P4_T36  1
    S_P5_T35  COST      2.1
    S_P5_T35  BAL_P5_T35  -1
    S_P5_T35  STORAGE_T35  1
    S_P5_T35  BAL_P5_T36  1
    S_P6_T35  COST      4.5
    S_P6_T35  BAL_P6_T35  -1
    S_P6_T35  STORAGE_T35  1
    S_P6_T35  BAL_P6_T36  1
    S_P7_T35  COST      2.5
    S_P7_T35  BAL_P7_T35  -1
    S_P7_T35  STORAGE_T35  1
    S_P7_T35  BAL_P7_T36  1
    S_P8_T35  COST      3.8
    S_P8_T35  BAL_P8_T35  -1
    S_P8_T35  STORAGE_T35  1
    S_P8_T35  BAL_P8_T36  1
    S_P9_T35  COST      2.2
    S_P9_T35  BAL_P9_T35  -1
    S_P9_T35  STORAGE_T35  1
    S_P9_T35  BAL_P9_T36  1
    S_P10_T35  COST      3.1
    S_P10_T35  BAL_P10_T35  -1
    S_P10_T35  STORAGE_T35  1
    S_P10_T35  BAL_P10_T36  1
    S_P11_T35  COST      3.4
    S_P11_T35  BAL_P11_T35  -1
    S_P11_T35  STORAGE_T35  1
    S_P11_T35  BAL_P11_T36  1
    S_P12_T35  COST      3.4
    S_P12_T35  BAL_P12_T35  -1
    S_P12_T35  STORAGE_T35  1
    S_P12_T35  BAL_P12_T36  1
    S_P13_T35  COST      1.4
    S_P13_T35  BAL_P13_T35  -1
    S_P13_T35  STORAGE_T35  1
    S_P13_T35  BAL_P13_T36  1
    S_P14_T35  COST      4.6
    S_P14_T35  BAL_P14_T35  -1
    S_P14_T35  STORAGE_T35  1
    S_P14_T35  BAL_P14_T36  1
    S_P15_T35  COST      1.7
    S_P15_T35  BAL_P15_T35  -1
    S_P15_T35  STORAGE_T35  1
    S_P15_T35  BAL_P15_T36  1
    S_P16_T35  COST      3.3
    S_P16_T35  BAL_P16_T35  -1
    S_P16_T35  STORAGE_T35  1
    S_P16_T35  BAL_P16_T36  1
    S_P17_T35  COST      2.4
    S_P17_T35  BAL_P17_T35  -1
    S_P17_T35  STORAGE_T35  1
    S_P17_T35  BAL_P17_T36  1
    S_P18_T35  COST      4.3
    S_P18_T35  BAL_P18_T35  -1
    S_P18_T35  STORAGE_T35  1
    S_P18_T35  BAL_P18_T36  1
    S_P19_T35  COST      4.6
    S_P19_T35  BAL_P19_T35  -1
    S_P19_T35  STORAGE_T35  1
    S_P19_T35  BAL_P19_T36  1
    S_P20_T35  COST      4.2
    S_P20_T35  BAL_P20_T35  -1
    S_P20_T35  STORAGE_T35  1
    S_P20_T35  BAL_P20_T36  1
    S_P21_T35  COST      4.9
    S_P21_T35  BAL_P21_T35  -1
    S_P21_T35  STORAGE_T35  1
    S_P21_T35  BAL_P21_T36  1
    S_P22_T35  COST      3.6
    S_P22_T35  BAL_P22_T35  -1
    S_P22_T35  STORAGE_T35  1
    S_P22_T35  BAL_P22_T36  1
    S_P23_T35  COST      4.2
    S_P23_T35  BAL_P23_T35  -1
    S_P23_T35  STORAGE_T35  1
    S_P23_T35  BAL_P23_T36  1
    S_P24_T35  COST      3.3
    S_P24_T35  BAL_P24_T35  -1
    S_P24_T35  STORAGE_T35  1
    S_P24_T35  BAL_P24_T36  1
    X_P0_T36  COST      49.4
    X_P0_T36  BAL_P0_T36  1
    X_P0_T36  CAP_M0_T36  1.4
    X_P0_T36  CAP_M1_T36  2.4
    X_P0_T36  CAP_M2_T36  0.5
    X_P0_T36  CAP_M3_T36  1
    X_P0_T36  CAP_M4_T36  1.3
    X_P0_T36  CAP_M5_T36  0.8
    X_P0_T36  CAP_M6_T36  1
    X_P0_T36  CAP_M7_T36  1.7
    X_P0_T36  CAP_M8_T36  0.7
    X_P0_T36  CAP_M9_T36  1.5
    X_P0_T36  CAP_M10_T36  2.4
    X_P0_T36  CAP_M11_T36  0.9
    X_P1_T36  COST      49.1
    X_P1_T36  BAL_P1_T36  1
    X_P1_T36  CAP_M0_T36  1
    X_P1_T36  CAP_M1_T36  2.2
    X_P1_T36  CAP_M2_T36  1
    X_P1_T36  CAP_M3_T36  2.4
    X_P1_T36  CAP_M4_T36  3
    X_P1_T36  CAP_M5_T36  2.2
    X_P1_T36  CAP_M6_T36  2.7
    X_P1_T36  CAP_M7_T36  1.4
    X_P1_T36  CAP_M8_T36  1.9
    X_P1_T36  CAP_M9_T36  0.9
    X_P1_T36  CAP_M10_T36  2.9
    X_P1_T36  CAP_M11_T36  2.2
    X_P2_T36  COST      49.4
    X_P2_T36  BAL_P2_T36  1
    X_P2_T36  CAP_M0_T36  2.6
    X_P2_T36  CAP_M1_T36  1.4
    X_P2_T36  CAP_M2_T36  0.8
    X_P2_T36  CAP_M3_T36  2.3
    X_P2_T36  CAP_M4_T36  2.5
    X_P2_T36  CAP_M5_T36  1
    X_P2_T36  CAP_M6_T36  1.2
    X_P2_T36  CAP_M7_T36  1
    X_P2_T36  CAP_M8_T36  1.1
    X_P2_T36  CAP_M9_T36  1.9
    X_P2_T36  CAP_M10_T36  3
    X_P2_T36  CAP_M11_T36  0.8
    X_P3_T36  COST      22.6
    X_P3_T36  BAL_P3_T36  1
    X_P3_T36  CAP_M0_T36  1.8
    X_P3_T36  CAP_M1_T36  2.8
    X_P3_T36  CAP_M2_T36  2.1
    X_P3_T36  CAP_M3_T36  1.6
    X_P3_T36  CAP_M4_T36  1.1
    X_P3_T36  CAP_M5_T36  0.7
    X_P3_T36  CAP_M6_T36  2
    X_P3_T36  CAP_M7_T36  2.7
    X_P3_T36  CAP_M8_T36  1.9
    X_P3_T36  CAP_M9_T36  2.6
    X_P3_T36  CAP_M10_T36  2.1
    X_P3_T36  CAP_M11_T36  2.3
    X_P4_T36  COST      44.9
    X_P4_T36  BAL_P4_T36  1
    X_P4_T36  CAP_M0_T36  1.9
    X_P4_T36  CAP_M1_T36  2
    X_P4_T36  CAP_M2_T36  2.5
    X_P4_T36  CAP_M3_T36  2.7
    X_P4_T36  CAP_M4_T36  2.1
    X_P4_T36  CAP_M5_T36  1.2
    X_P4_T36  CAP_M6_T36  1.6
    X_P4_T36  CAP_M7_T36  1.6
    X_P4_T36  CAP_M8_T36  2.1
    X_P4_T36  CAP_M9_T36  1.7
    X_P4_T36  CAP_M10_T36  0.8
    X_P4_T36  CAP_M11_T36  1.6
    X_P5_T36  COST      11.2
    X_P5_T36  BAL_P5_T36  1
    X_P5_T36  CAP_M0_T36  2.1
    X_P5_T36  CAP_M1_T36  0.7
    X_P5_T36  CAP_M2_T36  2.9
    X_P5_T36  CAP_M3_T36  1.3
    X_P5_T36  CAP_M4_T36  2.6
    X_P5_T36  CAP_M5_T36  1.9
    X_P5_T36  CAP_M6_T36  2.4
    X_P5_T36  CAP_M7_T36  1.8
    X_P5_T36  CAP_M8_T36  1.4
    X_P5_T36  CAP_M9_T36  0.7
    X_P5_T36  CAP_M10_T36  0.6
    X_P5_T36  CAP_M11_T36  2.9
    X_P6_T36  COST      43.7
    X_P6_T36  BAL_P6_T36  1
    X_P6_T36  CAP_M0_T36  1.3
    X_P6_T36  CAP_M1_T36  1.8
    X_P6_T36  CAP_M2_T36  2.5
    X_P6_T36  CAP_M3_T36  2.2
    X_P6_T36  CAP_M4_T36  0.7
    X_P6_T36  CAP_M5_T36  1.5
    X_P6_T36  CAP_M6_T36  0.6
    X_P6_T36  CAP_M7_T36  1.9
    X_P6_T36  CAP_M8_T36  1.3
    X_P6_T36  CAP_M9_T36  2.1
    X_P6_T36  CAP_M10_T36  2.4
    X_P6_T36  CAP_M11_T36  1.1
    X_P7_T36  COST      45.9
    X_P7_T36  BAL_P7_T36  1
    X_P7_T36  CAP_M0_T36  1.1
    X_P7_T36  CAP_M1_T36  2.2
    X_P7_T36  CAP_M2_T36  2.5
    X_P7_T36  CAP_M3_T36  2.9
    X_P7_T36  CAP_M4_T36  1
    X_P7_T36  CAP_M5_T36  2.9
    X_P7_T36  CAP_M6_T36  2.4
    X_P7_T36  CAP_M7_T36  1.6
    X_P7_T36  CAP_M8_T36  1.4
    X_P7_T36  CAP_M9_T36  0.6
    X_P7_T36  CAP_M10_T36  1.6
    X_P7_T36  CAP_M11_T36  1.7
    X_P8_T36  COST      16.4
    X_P8_T36  BAL_P8_T36  1
    X_P8_T36  CAP_M0_T36  1.8
    X_P8_T36  CAP_M1_T36  0.7
    X_P8_T36  CAP_M2_T36  2.7
    X_P8_T36  CAP_M3_T36  2.3
    X_P8_T36  CAP_M4_T36  1.6
    X_P8_T36  CAP_M5_T36  1.3
    X_P8_T36  CAP_M6_T36  2.9
    X_P8_T36  CAP_M7_T36  1.1
    X_P8_T36  CAP_M8_T36  1.5
    X_P8_T36  CAP_M9_T36  2.1
    X_P8_T36  CAP_M10_T36  1.6
    X_P8_T36  CAP_M11_T36  0.7
    X_P9_T36  COST      36.8
    X_P9_T36  BAL_P9_T36  1
    X_P9_T36  CAP_M0_T36  1.3
    X_P9_T36  CAP_M1_T36  2.8
    X_P9_T36  CAP_M2_T36  1.3
    X_P9_T36  CAP_M3_T36  0.6
    X_P9_T36  CAP_M4_T36  1.7
    X_P9_T36  CAP_M5_T36  2.5
    X_P9_T36  CAP_M6_T36  1
    X_P9_T36  CAP_M7_T36  2.5
    X_P9_T36  CAP_M8_T36  2.7
    X_P9_T36  CAP_M9_T36  1.1
    X_P9_T36  CAP_M10_T36  1.8
    X_P9_T36  CAP_M11_T36  2.8
    X_P10_T36  COST      17.8
    X_P10_T36  BAL_P10_T36  1
    X_P10_T36  CAP_M0_T36  0.8
    X_P10_T36  CAP_M1_T36  0.8
    X_P10_T36  CAP_M2_T36  1.3
    X_P10_T36  CAP_M3_T36  0.8
    X_P10_T36  CAP_M4_T36  0.7
    X_P10_T36  CAP_M5_T36  1.7
    X_P10_T36  CAP_M6_T36  1.4
    X_P10_T36  CAP_M7_T36  1.3
    X_P10_T36  CAP_M8_T36  2.9
    X_P10_T36  CAP_M9_T36  1.6
    X_P10_T36  CAP_M10_T36  2.9
    X_P10_T36  CAP_M11_T36  0.7
    X_P11_T36  COST      17.9
    X_P11_T36  BAL_P11_T36  1
    X_P11_T36  CAP_M0_T36  2.4
    X_P11_T36  CAP_M1_T36  1.8
    X_P11_T36  CAP_M2_T36  1.8
    X_P11_T36  CAP_M3_T36  1.5
    X_P11_T36  CAP_M4_T36  2.8
    X_P11_T36  CAP_M5_T36  1.4
    X_P11_T36  CAP_M6_T36  0.7
    X_P11_T36  CAP_M7_T36  0.7
    X_P11_T36  CAP_M8_T36  2
    X_P11_T36  CAP_M9_T36  1.5
    X_P11_T36  CAP_M10_T36  1.7
    X_P11_T36  CAP_M11_T36  2.8
    X_P12_T36  COST      28.2
    X_P12_T36  BAL_P12_T36  1
    X_P12_T36  CAP_M0_T36  2.4
    X_P12_T36  CAP_M1_T36  2.3
    X_P12_T36  CAP_M2_T36  1.7
    X_P12_T36  CAP_M3_T36  2
    X_P12_T36  CAP_M4_T36  1.9
    X_P12_T36  CAP_M5_T36  1.2
    X_P12_T36  CAP_M6_T36  1.7
    X_P12_T36  CAP_M7_T36  1.4
    X_P12_T36  CAP_M8_T36  2
    X_P12_T36  CAP_M9_T36  1.6
    X_P12_T36  CAP_M10_T36  1.3
    X_P12_T36  CAP_M11_T36  2.7
    X_P13_T36  COST      26
    X_P13_T36  BAL_P13_T36  1
    X_P13_T36  CAP_M0_T36  2.2
    X_P13_T36  CAP_M1_T36  0.8
    X_P13_T36  CAP_M2_T36  2.7
    X_P13_T36  CAP_M3_T36  2.1
    X_P13_T36  CAP_M4_T36  1.8
    X_P13_T36  CAP_M5_T36  1.2
    X_P13_T36  CAP_M6_T36  1
    X_P13_T36  CAP_M7_T36  1.2
    X_P13_T36  CAP_M8_T36  1.8
    X_P13_T36  CAP_M9_T36  1
    X_P13_T36  CAP_M10_T36  1.3
    X_P13_T36  CAP_M11_T36  1.2
    X_P14_T36  COST      22.6
    X_P14_T36  BAL_P14_T36  1
    X_P14_T36  CAP_M0_T36  1.1
    X_P14_T36  CAP_M1_T36  1.8
    X_P14_T36  CAP_M2_T36  1.9
    X_P14_T36  CAP_M3_T36  1.4
    X_P14_T36  CAP_M4_T36  1.5
    X_P14_T36  CAP_M5_T36  1.9
    X_P14_T36  CAP_M6_T36  2.7
    X_P14_T36  CAP_M7_T36  0.8
    X_P14_T36  CAP_M8_T36  1.7
    X_P14_T36  CAP_M9_T36  2.2
    X_P14_T36  CAP_M10_T36  2.7
    X_P14_T36  CAP_M11_T36  1.2
    X_P15_T36  COST      46
    X_P15_T36  BAL_P15_T36  1
    X_P15_T36  CAP_M0_T36  0.8
    X_P15_T36  CAP_M1_T36  0.8
    X_P15_T36  CAP_M2_T36  2.4
    X_P15_T36  CAP_M3_T36  2.3
    X_P15_T36  CAP_M4_T36  1.8
    X_P15_T36  CAP_M5_T36  0.8
    X_P15_T36  CAP_M6_T36  0.8
    X_P15_T36  CAP_M7_T36  1.4
    X_P15_T36  CAP_M8_T36  1.3
    X_P15_T36  CAP_M9_T36  1.8
    X_P15_T36  CAP_M10_T36  2.1
    X_P15_T36  CAP_M11_T36  1.5
    X_P16_T36  COST      15.8
    X_P16_T36  BAL_P16_T36  1
    X_P16_T36  CAP_M0_T36  1.1
    X_P16_T36  CAP_M1_T36  0.5
    X_P16_T36  CAP_M2_T36  1.2
    X_P16_T36  CAP_M3_T36  2.8
    X_P16_T36  CAP_M4_T36  1.1
    X_P16_T36  CAP_M5_T36  1
    X_P16_T36  CAP_M6_T36  1.8
    X_P16_T36  CAP_M7_T36  1.8
    X_P16_T36  CAP_M8_T36  2.5
    X_P16_T36  CAP_M9_T36  1.6
    X_P16_T36  CAP_M10_T36  2.7
    X_P16_T36  CAP_M11_T36  1.3
    X_P17_T36  COST      49.8
    X_P17_T36  BAL_P17_T36  1
    X_P17_T36  CAP_M0_T36  1.8
    X_P17_T36  CAP_M1_T36  2.2
    X_P17_T36  CAP_M2_T36  2.7
    X_P17_T36  CAP_M3_T36  2.2
    X_P17_T36  CAP_M4_T36  1.2
    X_P17_T36  CAP_M5_T36  1.3
    X_P17_T36  CAP_M6_T36  0.7
    X_P17_T36  CAP_M7_T36  1.3
    X_P17_T36  CAP_M8_T36  2.8
    X_P17_T36  CAP_M9_T36  1.4
    X_P17_T36  CAP_M10_T36  2.7
    X_P17_T36  CAP_M11_T36  2.2
    X_P18_T36  COST      18.7
    X_P18_T36  BAL_P18_T36  1
    X_P18_T36  CAP_M0_T36  1.3
    X_P18_T36  CAP_M1_T36  2.9
    X_P18_T36  CAP_M2_T36  1.7
    X_P18_T36  CAP_M3_T36  0.5
    X_P18_T36  CAP_M4_T36  2.4
    X_P18_T36  CAP_M5_T36  2.9
    X_P18_T36  CAP_M6_T36  2.1
    X_P18_T36  CAP_M7_T36  2.7
    X_P18_T36  CAP_M8_T36  1.4
    X_P18_T36  CAP_M9_T36  0.5
    X_P18_T36  CAP_M10_T36  2.1
    X_P18_T36  CAP_M11_T36  1.1
    X_P19_T36  COST      27.3
    X_P19_T36  BAL_P19_T36  1
    X_P19_T36  CAP_M0_T36  2.2
    X_P19_T36  CAP_M1_T36  2.8
    X_P19_T36  CAP_M2_T36  1.6
    X_P19_T36  CAP_M3_T36  2.6
    X_P19_T36  CAP_M4_T36  1.7
    X_P19_T36  CAP_M5_T36  1.3
    X_P19_T36  CAP_M6_T36  1
    X_P19_T36  CAP_M7_T36  1.5
    X_P19_T36  CAP_M8_T36  0.6
    X_P19_T36  CAP_M9_T36  2.8
    X_P19_T36  CAP_M10_T36  0.8
    X_P19_T36  CAP_M11_T36  0.8
    X_P20_T36  COST      25.3
    X_P20_T36  BAL_P20_T36  1
    X_P20_T36  CAP_M0_T36  1.2
    X_P20_T36  CAP_M1_T36  2
    X_P20_T36  CAP_M2_T36  1.4
    X_P20_T36  CAP_M3_T36  2.3
    X_P20_T36  CAP_M4_T36  1.5
    X_P20_T36  CAP_M5_T36  1.6
    X_P20_T36  CAP_M6_T36  2.6
    X_P20_T36  CAP_M7_T36  2.1
    X_P20_T36  CAP_M8_T36  1.2
    X_P20_T36  CAP_M9_T36  1
    X_P20_T36  CAP_M10_T36  2.3
    X_P20_T36  CAP_M11_T36  1.8
    X_P21_T36  COST      28.1
    X_P21_T36  BAL_P21_T36  1
    X_P21_T36  CAP_M0_T36  2.4
    X_P21_T36  CAP_M1_T36  1.9
    X_P21_T36  CAP_M2_T36  2.9
    X_P21_T36  CAP_M3_T36  2.7
    X_P21_T36  CAP_M4_T36  2.7
    X_P21_T36  CAP_M5_T36  1.7
    X_P21_T36  CAP_M6_T36  2.8
    X_P21_T36  CAP_M7_T36  2.5
    X_P21_T36  CAP_M8_T36  3
    X_P21_T36  CAP_M9_T36  2.7
    X_P21_T36  CAP_M10_T36  2.4
    X_P21_T36  CAP_M11_T36  2.4
    X_P22_T36  COST      36.4
    X_P22_T36  BAL_P22_T36  1
    X_P22_T36  CAP_M0_T36  0.6
    X_P22_T36  CAP_M1_T36  2.9
    X_P22_T36  CAP_M2_T36  2.1
    X_P22_T36  CAP_M3_T36  2.1
    X_P22_T36  CAP_M4_T36  2
    X_P22_T36  CAP_M5_T36  2.4
    X_P22_T36  CAP_M6_T36  2.2
    X_P22_T36  CAP_M7_T36  0.7
    X_P22_T36  CAP_M8_T36  0.5
    X_P22_T36  CAP_M9_T36  1.8
    X_P22_T36  CAP_M10_T36  1.1
    X_P22_T36  CAP_M11_T36  2.6
    X_P23_T36  COST      38.6
    X_P23_T36  BAL_P23_T36  1
    X_P23_T36  CAP_M0_T36  2.9
    X_P23_T36  CAP_M1_T36  1.2
    X_P23_T36  CAP_M2_T36  1.8
    X_P23_T36  CAP_M3_T36  1.8
    X_P23_T36  CAP_M4_T36  1.5
    X_P23_T36  CAP_M5_T36  0.5
    X_P23_T36  CAP_M6_T36  2.8
    X_P23_T36  CAP_M7_T36  1.9
    X_P23_T36  CAP_M8_T36  2.2
    X_P23_T36  CAP_M9_T36  2.9
    X_P23_T36  CAP_M10_T36  2.1
    X_P23_T36  CAP_M11_T36  2.2
    X_P24_T36  COST      30.3
    X_P24_T36  BAL_P24_T36  1
    X_P24_T36  CAP_M0_T36  1.1
    X_P24_T36  CAP_M1_T36  2.5
    X_P24_T36  CAP_M2_T36  1.3
    X_P24_T36  CAP_M3_T36  2.8
    X_P24_T36  CAP_M4_T36  1.1
    X_P24_T36  CAP_M5_T36  2
    X_P24_T36  CAP_M6_T36  1.4
    X_P24_T36  CAP_M7_T36  0.5
    X_P24_T36  CAP_M8_T36  1.2
    X_P24_T36  CAP_M9_T36  2.4
    X_P24_T36  CAP_M10_T36  0.6
    X_P24_T36  CAP_M11_T36  1.9
    S_P0_T36  COST      3.6
    S_P0_T36  BAL_P0_T36  -1
    S_P0_T36  STORAGE_T36  1
    S_P0_T36  BAL_P0_T37  1
    S_P1_T36  COST      3.6
    S_P1_T36  BAL_P1_T36  -1
    S_P1_T36  STORAGE_T36  1
    S_P1_T36  BAL_P1_T37  1
    S_P2_T36  COST      2.5
    S_P2_T36  BAL_P2_T36  -1
    S_P2_T36  STORAGE_T36  1
    S_P2_T36  BAL_P2_T37  1
    S_P3_T36  COST      1.4
    S_P3_T36  BAL_P3_T36  -1
    S_P3_T36  STORAGE_T36  1
    S_P3_T36  BAL_P3_T37  1
    S_P4_T36  COST      1.6
    S_P4_T36  BAL_P4_T36  -1
    S_P4_T36  STORAGE_T36  1
    S_P4_T36  BAL_P4_T37  1
    S_P5_T36  COST      4
    S_P5_T36  BAL_P5_T36  -1
    S_P5_T36  STORAGE_T36  1
    S_P5_T36  BAL_P5_T37  1
    S_P6_T36  COST      1.1
    S_P6_T36  BAL_P6_T36  -1
    S_P6_T36  STORAGE_T36  1
    S_P6_T36  BAL_P6_T37  1
    S_P7_T36  COST      4
    S_P7_T36  BAL_P7_T36  -1
    S_P7_T36  STORAGE_T36  1
    S_P7_T36  BAL_P7_T37  1
    S_P8_T36  COST      2.6
    S_P8_T36  BAL_P8_T36  -1
    S_P8_T36  STORAGE_T36  1
    S_P8_T36  BAL_P8_T37  1
    S_P9_T36  COST      4.9
    S_P9_T36  BAL_P9_T36  -1
    S_P9_T36  STORAGE_T36  1
    S_P9_T36  BAL_P9_T37  1
    S_P10_T36  COST      5
    S_P10_T36  BAL_P10_T36  -1
    S_P10_T36  STORAGE_T36  1
    S_P10_T36  BAL_P10_T37  1
    S_P11_T36  COST      2.5
    S_P11_T36  BAL_P11_T36  -1
    S_P11_T36  STORAGE_T36  1
    S_P11_T36  BAL_P11_T37  1
    S_P12_T36  COST      1.9
    S_P12_T36  BAL_P12_T36  -1
    S_P12_T36  STORAGE_T36  1
    S_P12_T36  BAL_P12_T37  1
    S_P13_T36  COST      1.4
    S_P13_T36  BAL_P13_T36  -1
    S_P13_T36  STORAGE_T36  1
    S_P13_T36  BAL_P13_T37  1
    S_P14_T36  COST      1.3
    S_P14_T36  BAL_P14_T36  -1
    S_P14_T36  STORAGE_T36  1
    S_P14_T36  BAL_P14_T37  1
    S_P15_T36  COST      4.3
    S_P15_T36  BAL_P15_T36  -1
    S_P15_T36  STORAGE_T36  1
    S_P15_T36  BAL_P15_T37  1
    S_P16_T36  COST      4.7
    S_P16_T36  BAL_P16_T36  -1
    S_P16_T36  STORAGE_T36  1
    S_P16_T36  BAL_P16_T37  1
    S_P17_T36  COST      2.5
    S_P17_T36  BAL_P17_T36  -1
    S_P17_T36  STORAGE_T36  1
    S_P17_T36  BAL_P17_T37  1
    S_P18_T36  COST      1.2
    S_P18_T36  BAL_P18_T36  -1
    S_P18_T36  STORAGE_T36  1
    S_P18_T36  BAL_P18_T37  1
    S_P19_T36  COST      2.7
    S_P19_T36  BAL_P19_T36  -1
    S_P19_T36  STORAGE_T36  1
    S_P19_T36  BAL_P19_T37  1
    S_P20_T36  COST      1.2
    S_P20_T36  BAL_P20_T36  -1
    S_P20_T36  STORAGE_T36  1
    S_P20_T36  BAL_P20_T37  1
    S_P21_T36  COST      4.6
    S_P21_T36  BAL_P21_T36  -1
    S_P21_T36  STORAGE_T36  1
    S_P21_T36  BAL_P21_T37  1
    S_P22_T36  COST      4.5
    S_P22_T36  BAL_P22_T36  -1
    S_P22_T36  STORAGE_T36  1
    S_P22_T36  BAL_P22_T37  1
    S_P23_T36  COST      2.7
    S_P23_T36  BAL_P23_T36  -1
    S_P23_T36  STORAGE_T36  1
    S_P23_T36  BAL_P23_T37  1
    S_P24_T36  COST      3.1
    S_P24_T36  BAL_P24_T36  -1
    S_P24_T36  STORAGE_T36  1
    S_P24_T36  BAL_P24_T37  1
    X_P0_T37  COST      25.7
    X_P0_T37  BAL_P0_T37  1
    X_P0_T37  CAP_M0_T37  1.4
    X_P0_T37  CAP_M1_T37  2.4
    X_P0_T37  CAP_M2_T37  0.5
    X_P0_T37  CAP_M3_T37  1
    X_P0_T37  CAP_M4_T37  1.3
    X_P0_T37  CAP_M5_T37  0.8
    X_P0_T37  CAP_M6_T37  1
    X_P0_T37  CAP_M7_T37  1.7
    X_P0_T37  CAP_M8_T37  0.7
    X_P0_T37  CAP_M9_T37  1.5
    X_P0_T37  CAP_M10_T37  2.4
    X_P0_T37  CAP_M11_T37  0.9
    X_P1_T37  COST      16.1
    X_P1_T37  BAL_P1_T37  1
    X_P1_T37  CAP_M0_T37  1
    X_P1_T37  CAP_M1_T37  2.2
    X_P1_T37  CAP_M2_T37  1
    X_P1_T37  CAP_M3_T37  2.4
    X_P1_T37  CAP_M4_T37  3
    X_P1_T37  CAP_M5_T37  2.2
    X_P1_T37  CAP_M6_T37  2.7
    X_P1_T37  CAP_M7_T37  1.4
    X_P1_T37  CAP_M8_T37  1.9
    X_P1_T37  CAP_M9_T37  0.9
    X_P1_T37  CAP_M10_T37  2.9
    X_P1_T37  CAP_M11_T37  2.2
    X_P2_T37  COST      22.7
    X_P2_T37  BAL_P2_T37  1
    X_P2_T37  CAP_M0_T37  2.6
    X_P2_T37  CAP_M1_T37  1.4
    X_P2_T37  CAP_M2_T37  0.8
    X_P2_T37  CAP_M3_T37  2.3
    X_P2_T37  CAP_M4_T37  2.5
    X_P2_T37  CAP_M5_T37  1
    X_P2_T37  CAP_M6_T37  1.2
    X_P2_T37  CAP_M7_T37  1
    X_P2_T37  CAP_M8_T37  1.1
    X_P2_T37  CAP_M9_T37  1.9
    X_P2_T37  CAP_M10_T37  3
    X_P2_T37  CAP_M11_T37  0.8
    X_P3_T37  COST      36.3
    X_P3_T37  BAL_P3_T37  1
    X_P3_T37  CAP_M0_T37  1.8
    X_P3_T37  CAP_M1_T37  2.8
    X_P3_T37  CAP_M2_T37  2.1
    X_P3_T37  CAP_M3_T37  1.6
    X_P3_T37  CAP_M4_T37  1.1
    X_P3_T37  CAP_M5_T37  0.7
    X_P3_T37  CAP_M6_T37  2
    X_P3_T37  CAP_M7_T37  2.7
    X_P3_T37  CAP_M8_T37  1.9
    X_P3_T37  CAP_M9_T37  2.6
    X_P3_T37  CAP_M10_T37  2.1
    X_P3_T37  CAP_M11_T37  2.3
    X_P4_T37  COST      20.7
    X_P4_T37  BAL_P4_T37  1
    X_P4_T37  CAP_M0_T37  1.9
    X_P4_T37  CAP_M1_T37  2
    X_P4_T37  CAP_M2_T37  2.5
    X_P4_T37  CAP_M3_T37  2.7
    X_P4_T37  CAP_M4_T37  2.1
    X_P4_T37  CAP_M5_T37  1.2
    X_P4_T37  CAP_M6_T37  1.6
    X_P4_T37  CAP_M7_T37  1.6
    X_P4_T37  CAP_M8_T37  2.1
    X_P4_T37  CAP_M9_T37  1.7
    X_P4_T37  CAP_M10_T37  0.8
    X_P4_T37  CAP_M11_T37  1.6
    X_P5_T37  COST      44.6
    X_P5_T37  BAL_P5_T37  1
    X_P5_T37  CAP_M0_T37  2.1
    X_P5_T37  CAP_M1_T37  0.7
    X_P5_T37  CAP_M2_T37  2.9
    X_P5_T37  CAP_M3_T37  1.3
    X_P5_T37  CAP_M4_T37  2.6
    X_P5_T37  CAP_M5_T37  1.9
    X_P5_T37  CAP_M6_T37  2.4
    X_P5_T37  CAP_M7_T37  1.8
    X_P5_T37  CAP_M8_T37  1.4
    X_P5_T37  CAP_M9_T37  0.7
    X_P5_T37  CAP_M10_T37  0.6
    X_P5_T37  CAP_M11_T37  2.9
    X_P6_T37  COST      14.3
    X_P6_T37  BAL_P6_T37  1
    X_P6_T37  CAP_M0_T37  1.3
    X_P6_T37  CAP_M1_T37  1.8
    X_P6_T37  CAP_M2_T37  2.5
    X_P6_T37  CAP_M3_T37  2.2
    X_P6_T37  CAP_M4_T37  0.7
    X_P6_T37  CAP_M5_T37  1.5
    X_P6_T37  CAP_M6_T37  0.6
    X_P6_T37  CAP_M7_T37  1.9
    X_P6_T37  CAP_M8_T37  1.3
    X_P6_T37  CAP_M9_T37  2.1
    X_P6_T37  CAP_M10_T37  2.4
    X_P6_T37  CAP_M11_T37  1.1
    X_P7_T37  COST      48.5
    X_P7_T37  BAL_P7_T37  1
    X_P7_T37  CAP_M0_T37  1.1
    X_P7_T37  CAP_M1_T37  2.2
    X_P7_T37  CAP_M2_T37  2.5
    X_P7_T37  CAP_M3_T37  2.9
    X_P7_T37  CAP_M4_T37  1
    X_P7_T37  CAP_M5_T37  2.9
    X_P7_T37  CAP_M6_T37  2.4
    X_P7_T37  CAP_M7_T37  1.6
    X_P7_T37  CAP_M8_T37  1.4
    X_P7_T37  CAP_M9_T37  0.6
    X_P7_T37  CAP_M10_T37  1.6
    X_P7_T37  CAP_M11_T37  1.7
    X_P8_T37  COST      12.3
    X_P8_T37  BAL_P8_T37  1
    X_P8_T37  CAP_M0_T37  1.8
    X_P8_T37  CAP_M1_T37  0.7
    X_P8_T37  CAP_M2_T37  2.7
    X_P8_T37  CAP_M3_T37  2.3
    X_P8_T37  CAP_M4_T37  1.6
    X_P8_T37  CAP_M5_T37  1.3
    X_P8_T37  CAP_M6_T37  2.9
    X_P8_T37  CAP_M7_T37  1.1
    X_P8_T37  CAP_M8_T37  1.5
    X_P8_T37  CAP_M9_T37  2.1
    X_P8_T37  CAP_M10_T37  1.6
    X_P8_T37  CAP_M11_T37  0.7
    X_P9_T37  COST      19.6
    X_P9_T37  BAL_P9_T37  1
    X_P9_T37  CAP_M0_T37  1.3
    X_P9_T37  CAP_M1_T37  2.8
    X_P9_T37  CAP_M2_T37  1.3
    X_P9_T37  CAP_M3_T37  0.6
    X_P9_T37  CAP_M4_T37  1.7
    X_P9_T37  CAP_M5_T37  2.5
    X_P9_T37  CAP_M6_T37  1
    X_P9_T37  CAP_M7_T37  2.5
    X_P9_T37  CAP_M8_T37  2.7
    X_P9_T37  CAP_M9_T37  1.1
    X_P9_T37  CAP_M10_T37  1.8
    X_P9_T37  CAP_M11_T37  2.8
    X_P10_T37  COST      48.5
    X_P10_T37  BAL_P10_T37  1
    X_P10_T37  CAP_M0_T37  0.8
    X_P10_T37  CAP_M1_T37  0.8
    X_P10_T37  CAP_M2_T37  1.3
    X_P10_T37  CAP_M3_T37  0.8
    X_P10_T37  CAP_M4_T37  0.7
    X_P10_T37  CAP_M5_T37  1.7
    X_P10_T37  CAP_M6_T37  1.4
    X_P10_T37  CAP_M7_T37  1.3
    X_P10_T37  CAP_M8_T37  2.9
    X_P10_T37  CAP_M9_T37  1.6
    X_P10_T37  CAP_M10_T37  2.9
    X_P10_T37  CAP_M11_T37  0.7
    X_P11_T37  COST      36
    X_P11_T37  BAL_P11_T37  1
    X_P11_T37  CAP_M0_T37  2.4
    X_P11_T37  CAP_M1_T37  1.8
    X_P11_T37  CAP_M2_T37  1.8
    X_P11_T37  CAP_M3_T37  1.5
    X_P11_T37  CAP_M4_T37  2.8
    X_P11_T37  CAP_M5_T37  1.4
    X_P11_T37  CAP_M6_T37  0.7
    X_P11_T37  CAP_M7_T37  0.7
    X_P11_T37  CAP_M8_T37  2
    X_P11_T37  CAP_M9_T37  1.5
    X_P11_T37  CAP_M10_T37  1.7
    X_P11_T37  CAP_M11_T37  2.8
    X_P12_T37  COST      25.5
    X_P12_T37  BAL_P12_T37  1
    X_P12_T37  CAP_M0_T37  2.4
    X_P12_T37  CAP_M1_T37  2.3
    X_P12_T37  CAP_M2_T37  1.7
    X_P12_T37  CAP_M3_T37  2
    X_P12_T37  CAP_M4_T37  1.9
    X_P12_T37  CAP_M5_T37  1.2
    X_P12_T37  CAP_M6_T37  1.7
    X_P12_T37  CAP_M7_T37  1.4
    X_P12_T37  CAP_M8_T37  2
    X_P12_T37  CAP_M9_T37  1.6
    X_P12_T37  CAP_M10_T37  1.3
    X_P12_T37  CAP_M11_T37  2.7
    X_P13_T37  COST      38.3
    X_P13_T37  BAL_P13_T37  1
    X_P13_T37  CAP_M0_T37  2.2
    X_P13_T37  CAP_M1_T37  0.8
    X_P13_T37  CAP_M2_T37  2.7
    X_P13_T37  CAP_M3_T37  2.1
    X_P13_T37  CAP_M4_T37  1.8
    X_P13_T37  CAP_M5_T37  1.2
    X_P13_T37  CAP_M6_T37  1
    X_P13_T37  CAP_M7_T37  1.2
    X_P13_T37  CAP_M8_T37  1.8
    X_P13_T37  CAP_M9_T37  1
    X_P13_T37  CAP_M10_T37  1.3
    X_P13_T37  CAP_M11_T37  1.2
    X_P14_T37  COST      12.3
    X_P14_T37  BAL_P14_T37  1
    X_P14_T37  CAP_M0_T37  1.1
    X_P14_T37  CAP_M1_T37  1.8
    X_P14_T37  CAP_M2_T37  1.9
    X_P14_T37  CAP_M3_T37  1.4
    X_P14_T37  CAP_M4_T37  1.5
    X_P14_T37  CAP_M5_T37  1.9
    X_P14_T37  CAP_M6_T37  2.7
    X_P14_T37  CAP_M7_T37  0.8
    X_P14_T37  CAP_M8_T37  1.7
    X_P14_T37  CAP_M9_T37  2.2
    X_P14_T37  CAP_M10_T37  2.7
    X_P14_T37  CAP_M11_T37  1.2
    X_P15_T37  COST      20.4
    X_P15_T37  BAL_P15_T37  1
    X_P15_T37  CAP_M0_T37  0.8
    X_P15_T37  CAP_M1_T37  0.8
    X_P15_T37  CAP_M2_T37  2.4
    X_P15_T37  CAP_M3_T37  2.3
    X_P15_T37  CAP_M4_T37  1.8
    X_P15_T37  CAP_M5_T37  0.8
    X_P15_T37  CAP_M6_T37  0.8
    X_P15_T37  CAP_M7_T37  1.4
    X_P15_T37  CAP_M8_T37  1.3
    X_P15_T37  CAP_M9_T37  1.8
    X_P15_T37  CAP_M10_T37  2.1
    X_P15_T37  CAP_M11_T37  1.5
    X_P16_T37  COST      44.9
    X_P16_T37  BAL_P16_T37  1
    X_P16_T37  CAP_M0_T37  1.1
    X_P16_T37  CAP_M1_T37  0.5
    X_P16_T37  CAP_M2_T37  1.2
    X_P16_T37  CAP_M3_T37  2.8
    X_P16_T37  CAP_M4_T37  1.1
    X_P16_T37  CAP_M5_T37  1
    X_P16_T37  CAP_M6_T37  1.8
    X_P16_T37  CAP_M7_T37  1.8
    X_P16_T37  CAP_M8_T37  2.5
    X_P16_T37  CAP_M9_T37  1.6
    X_P16_T37  CAP_M10_T37  2.7
    X_P16_T37  CAP_M11_T37  1.3
    X_P17_T37  COST      38.5
    X_P17_T37  BAL_P17_T37  1
    X_P17_T37  CAP_M0_T37  1.8
    X_P17_T37  CAP_M1_T37  2.2
    X_P17_T37  CAP_M2_T37  2.7
    X_P17_T37  CAP_M3_T37  2.2
    X_P17_T37  CAP_M4_T37  1.2
    X_P17_T37  CAP_M5_T37  1.3
    X_P17_T37  CAP_M6_T37  0.7
    X_P17_T37  CAP_M7_T37  1.3
    X_P17_T37  CAP_M8_T37  2.8
    X_P17_T37  CAP_M9_T37  1.4
    X_P17_T37  CAP_M10_T37  2.7
    X_P17_T37  CAP_M11_T37  2.2
    X_P18_T37  COST      35.4
    X_P18_T37  BAL_P18_T37  1
    X_P18_T37  CAP_M0_T37  1.3
    X_P18_T37  CAP_M1_T37  2.9
    X_P18_T37  CAP_M2_T37  1.7
    X_P18_T37  CAP_M3_T37  0.5
    X_P18_T37  CAP_M4_T37  2.4
    X_P18_T37  CAP_M5_T37  2.9
    X_P18_T37  CAP_M6_T37  2.1
    X_P18_T37  CAP_M7_T37  2.7
    X_P18_T37  CAP_M8_T37  1.4
    X_P18_T37  CAP_M9_T37  0.5
    X_P18_T37  CAP_M10_T37  2.1
    X_P18_T37  CAP_M11_T37  1.1
    X_P19_T37  COST      30.1
    X_P19_T37  BAL_P19_T37  1
    X_P19_T37  CAP_M0_T37  2.2
    X_P19_T37  CAP_M1_T37  2.8
    X_P19_T37  CAP_M2_T37  1.6
    X_P19_T37  CAP_M3_T37  2.6
    X_P19_T37  CAP_M4_T37  1.7
    X_P19_T37  CAP_M5_T37  1.3
    X_P19_T37  CAP_M6_T37  1
    X_P19_T37  CAP_M7_T37  1.5
    X_P19_T37  CAP_M8_T37  0.6
    X_P19_T37  CAP_M9_T37  2.8
    X_P19_T37  CAP_M10_T37  0.8
    X_P19_T37  CAP_M11_T37  0.8
    X_P20_T37  COST      13.8
    X_P20_T37  BAL_P20_T37  1
    X_P20_T37  CAP_M0_T37  1.2
    X_P20_T37  CAP_M1_T37  2
    X_P20_T37  CAP_M2_T37  1.4
    X_P20_T37  CAP_M3_T37  2.3
    X_P20_T37  CAP_M4_T37  1.5
    X_P20_T37  CAP_M5_T37  1.6
    X_P20_T37  CAP_M6_T37  2.6
    X_P20_T37  CAP_M7_T37  2.1
    X_P20_T37  CAP_M8_T37  1.2
    X_P20_T37  CAP_M9_T37  1
    X_P20_T37  CAP_M10_T37  2.3
    X_P20_T37  CAP_M11_T37  1.8
    X_P21_T37  COST      34.2
    X_P21_T37  BAL_P21_T37  1
    X_P21_T37  CAP_M0_T37  2.4
    X_P21_T37  CAP_M1_T37  1.9
    X_P21_T37  CAP_M2_T37  2.9
    X_P21_T37  CAP_M3_T37  2.7
    X_P21_T37  CAP_M4_T37  2.7
    X_P21_T37  CAP_M5_T37  1.7
    X_P21_T37  CAP_M6_T37  2.8
    X_P21_T37  CAP_M7_T37  2.5
    X_P21_T37  CAP_M8_T37  3
    X_P21_T37  CAP_M9_T37  2.7
    X_P21_T37  CAP_M10_T37  2.4
    X_P21_T37  CAP_M11_T37  2.4
    X_P22_T37  COST      23.5
    X_P22_T37  BAL_P22_T37  1
    X_P22_T37  CAP_M0_T37  0.6
    X_P22_T37  CAP_M1_T37  2.9
    X_P22_T37  CAP_M2_T37  2.1
    X_P22_T37  CAP_M3_T37  2.1
    X_P22_T37  CAP_M4_T37  2
    X_P22_T37  CAP_M5_T37  2.4
    X_P22_T37  CAP_M6_T37  2.2
    X_P22_T37  CAP_M7_T37  0.7
    X_P22_T37  CAP_M8_T37  0.5
    X_P22_T37  CAP_M9_T37  1.8
    X_P22_T37  CAP_M10_T37  1.1
    X_P22_T37  CAP_M11_T37  2.6
    X_P23_T37  COST      33.9
    X_P23_T37  BAL_P23_T37  1
    X_P23_T37  CAP_M0_T37  2.9
    X_P23_T37  CAP_M1_T37  1.2
    X_P23_T37  CAP_M2_T37  1.8
    X_P23_T37  CAP_M3_T37  1.8
    X_P23_T37  CAP_M4_T37  1.5
    X_P23_T37  CAP_M5_T37  0.5
    X_P23_T37  CAP_M6_T37  2.8
    X_P23_T37  CAP_M7_T37  1.9
    X_P23_T37  CAP_M8_T37  2.2
    X_P23_T37  CAP_M9_T37  2.9
    X_P23_T37  CAP_M10_T37  2.1
    X_P23_T37  CAP_M11_T37  2.2
    X_P24_T37  COST      45.5
    X_P24_T37  BAL_P24_T37  1
    X_P24_T37  CAP_M0_T37  1.1
    X_P24_T37  CAP_M1_T37  2.5
    X_P24_T37  CAP_M2_T37  1.3
    X_P24_T37  CAP_M3_T37  2.8
    X_P24_T37  CAP_M4_T37  1.1
    X_P24_T37  CAP_M5_T37  2
    X_P24_T37  CAP_M6_T37  1.4
    X_P24_T37  CAP_M7_T37  0.5
    X_P24_T37  CAP_M8_T37  1.2
    X_P24_T37  CAP_M9_T37  2.4
    X_P24_T37  CAP_M10_T37  0.6
    X_P24_T37  CAP_M11_T37  1.9
    S_P0_T37  COST      4.7
    S_P0_T37  BAL_P0_T37  -1
    S_P0_T37  STORAGE_T37  1
    S_P0_T37  BAL_P0_T38  1
    S_P1_T37  COST      3.8
    S_P1_T37  BAL_P1_T37  -1
    S_P1_T37  STORAGE_T37  1
    S_P1_T37  BAL_P1_T38  1
    S_P2_T37  COST      1.5
    S_P2_T37  BAL_P2_T37  -1
    S_P2_T37  STORAGE_T37  1
    S_P2_T37  BAL_P2_T38  1
    S_P3_T37  COST      2.9
    S_P3_T37  BAL_P3_T37  -1
    S_P3_T37  STORAGE_T37  1
    S_P3_T37  BAL_P3_T38  1
    S_P4_T37  COST      4.5
    S_P4_T37  BAL_P4_T37  -1
    S_P4_T37  STORAGE_T37  1
    S_P4_T37  BAL_P4_T38  1
    S_P5_T37  COST      3.7
    S_P5_T37  BAL_P5_T37  -1
    S_P5_T37  STORAGE_T37  1
    S_P5_T37  BAL_P5_T38  1
    S_P6_T37  COST      4.3
    S_P6_T37  BAL_P6_T37  -1
    S_P6_T37  STORAGE_T37  1
    S_P6_T37  BAL_P6_T38  1
    S_P7_T37  COST      3.6
    S_P7_T37  BAL_P7_T37  -1
    S_P7_T37  STORAGE_T37  1
    S_P7_T37  BAL_P7_T38  1
    S_P8_T37  COST      1.8
    S_P8_T37  BAL_P8_T37  -1
    S_P8_T37  STORAGE_T37  1
    S_P8_T37  BAL_P8_T38  1
    S_P9_T37  COST      1.5
    S_P9_T37  BAL_P9_T37  -1
    S_P9_T37  STORAGE_T37  1
    S_P9_T37  BAL_P9_T38  1
    S_P10_T37  COST      2.7
    S_P10_T37  BAL_P10_T37  -1
    S_P10_T37  STORAGE_T37  1
    S_P10_T37  BAL_P10_T38  1
    S_P11_T37  COST      2.6
    S_P11_T37  BAL_P11_T37  -1
    S_P11_T37  STORAGE_T37  1
    S_P11_T37  BAL_P11_T38  1
    S_P12_T37  COST      3.5
    S_P12_T37  BAL_P12_T37  -1
    S_P12_T37  STORAGE_T37  1
    S_P12_T37  BAL_P12_T38  1
    S_P13_T37  COST      2.2
    S_P13_T37  BAL_P13_T37  -1
    S_P13_T37  STORAGE_T37  1
    S_P13_T37  BAL_P13_T38  1
    S_P14_T37  COST      1.4
    S_P14_T37  BAL_P14_T37  -1
    S_P14_T37  STORAGE_T37  1
    S_P14_T37  BAL_P14_T38  1
    S_P15_T37  COST      4.4
    S_P15_T37  BAL_P15_T37  -1
    S_P15_T37  STORAGE_T37  1
    S_P15_T37  BAL_P15_T38  1
    S_P16_T37  COST      2.7
    S_P16_T37  BAL_P16_T37  -1
    S_P16_T37  STORAGE_T37  1
    S_P16_T37  BAL_P16_T38  1
    S_P17_T37  COST      2.1
    S_P17_T37  BAL_P17_T37  -1
    S_P17_T37  STORAGE_T37  1
    S_P17_T37  BAL_P17_T38  1
    S_P18_T37  COST      3.2
    S_P18_T37  BAL_P18_T37  -1
    S_P18_T37  STORAGE_T37  1
    S_P18_T37  BAL_P18_T38  1
    S_P19_T37  COST      1.4
    S_P19_T37  BAL_P19_T37  -1
    S_P19_T37  STORAGE_T37  1
    S_P19_T37  BAL_P19_T38  1
    S_P20_T37  COST      1
    S_P20_T37  BAL_P20_T37  -1
    S_P20_T37  STORAGE_T37  1
    S_P20_T37  BAL_P20_T38  1
    S_P21_T37  COST      2.8
    S_P21_T37  BAL_P21_T37  -1
    S_P21_T37  STORAGE_T37  1
    S_P21_T37  BAL_P21_T38  1
    S_P22_T37  COST      3.6
    S_P22_T37  BAL_P22_T37  -1
    S_P22_T37  STORAGE_T37  1
    S_P22_T37  BAL_P22_T38  1
    S_P23_T37  COST      1
    S_P23_T37  BAL_P23_T37  -1
    S_P23_T37  STORAGE_T37  1
    S_P23_T37  BAL_P23_T38  1
    S_P24_T37  COST      2
    S_P24_T37  BAL_P24_T37  -1
    S_P24_T37  STORAGE_T37  1
    S_P24_T37  BAL_P24_T38  1
    X_P0_T38  COST      16.7
    X_P0_T38  BAL_P0_T38  1
    X_P0_T38  CAP_M0_T38  1.4
    X_P0_T38  CAP_M1_T38  2.4
    X_P0_T38  CAP_M2_T38  0.5
    X_P0_T38  CAP_M3_T38  1
    X_P0_T38  CAP_M4_T38  1.3
    X_P0_T38  CAP_M5_T38  0.8
    X_P0_T38  CAP_M6_T38  1
    X_P0_T38  CAP_M7_T38  1.7
    X_P0_T38  CAP_M8_T38  0.7
    X_P0_T38  CAP_M9_T38  1.5
    X_P0_T38  CAP_M10_T38  2.4
    X_P0_T38  CAP_M11_T38  0.9
    X_P1_T38  COST      19
    X_P1_T38  BAL_P1_T38  1
    X_P1_T38  CAP_M0_T38  1
    X_P1_T38  CAP_M1_T38  2.2
    X_P1_T38  CAP_M2_T38  1
    X_P1_T38  CAP_M3_T38  2.4
    X_P1_T38  CAP_M4_T38  3
    X_P1_T38  CAP_M5_T38  2.2
    X_P1_T38  CAP_M6_T38  2.7
    X_P1_T38  CAP_M7_T38  1.4
    X_P1_T38  CAP_M8_T38  1.9
    X_P1_T38  CAP_M9_T38  0.9
    X_P1_T38  CAP_M10_T38  2.9
    X_P1_T38  CAP_M11_T38  2.2
    X_P2_T38  COST      11.3
    X_P2_T38  BAL_P2_T38  1
    X_P2_T38  CAP_M0_T38  2.6
    X_P2_T38  CAP_M1_T38  1.4
    X_P2_T38  CAP_M2_T38  0.8
    X_P2_T38  CAP_M3_T38  2.3
    X_P2_T38  CAP_M4_T38  2.5
    X_P2_T38  CAP_M5_T38  1
    X_P2_T38  CAP_M6_T38  1.2
    X_P2_T38  CAP_M7_T38  1
    X_P2_T38  CAP_M8_T38  1.1
    X_P2_T38  CAP_M9_T38  1.9
    X_P2_T38  CAP_M10_T38  3
    X_P2_T38  CAP_M11_T38  0.8
    X_P3_T38  COST      28.1
    X_P3_T38  BAL_P3_T38  1
    X_P3_T38  CAP_M0_T38  1.8
    X_P3_T38  CAP_M1_T38  2.8
    X_P3_T38  CAP_M2_T38  2.1
    X_P3_T38  CAP_M3_T38  1.6
    X_P3_T38  CAP_M4_T38  1.1
    X_P3_T38  CAP_M5_T38  0.7
    X_P3_T38  CAP_M6_T38  2
    X_P3_T38  CAP_M7_T38  2.7
    X_P3_T38  CAP_M8_T38  1.9
    X_P3_T38  CAP_M9_T38  2.6
    X_P3_T38  CAP_M10_T38  2.1
    X_P3_T38  CAP_M11_T38  2.3
    X_P4_T38  COST      12.1
    X_P4_T38  BAL_P4_T38  1
    X_P4_T38  CAP_M0_T38  1.9
    X_P4_T38  CAP_M1_T38  2
    X_P4_T38  CAP_M2_T38  2.5
    X_P4_T38  CAP_M3_T38  2.7
    X_P4_T38  CAP_M4_T38  2.1
    X_P4_T38  CAP_M5_T38  1.2
    X_P4_T38  CAP_M6_T38  1.6
    X_P4_T38  CAP_M7_T38  1.6
    X_P4_T38  CAP_M8_T38  2.1
    X_P4_T38  CAP_M9_T38  1.7
    X_P4_T38  CAP_M10_T38  0.8
    X_P4_T38  CAP_M11_T38  1.6
    X_P5_T38  COST      46.6
    X_P5_T38  BAL_P5_T38  1
    X_P5_T38  CAP_M0_T38  2.1
    X_P5_T38  CAP_M1_T38  0.7
    X_P5_T38  CAP_M2_T38  2.9
    X_P5_T38  CAP_M3_T38  1.3
    X_P5_T38  CAP_M4_T38  2.6
    X_P5_T38  CAP_M5_T38  1.9
    X_P5_T38  CAP_M6_T38  2.4
    X_P5_T38  CAP_M7_T38  1.8
    X_P5_T38  CAP_M8_T38  1.4
    X_P5_T38  CAP_M9_T38  0.7
    X_P5_T38  CAP_M10_T38  0.6
    X_P5_T38  CAP_M11_T38  2.9
    X_P6_T38  COST      36.8
    X_P6_T38  BAL_P6_T38  1
    X_P6_T38  CAP_M0_T38  1.3
    X_P6_T38  CAP_M1_T38  1.8
    X_P6_T38  CAP_M2_T38  2.5
    X_P6_T38  CAP_M3_T38  2.2
    X_P6_T38  CAP_M4_T38  0.7
    X_P6_T38  CAP_M5_T38  1.5
    X_P6_T38  CAP_M6_T38  0.6
    X_P6_T38  CAP_M7_T38  1.9
    X_P6_T38  CAP_M8_T38  1.3
    X_P6_T38  CAP_M9_T38  2.1
    X_P6_T38  CAP_M10_T38  2.4
    X_P6_T38  CAP_M11_T38  1.1
    X_P7_T38  COST      15.9
    X_P7_T38  BAL_P7_T38  1
    X_P7_T38  CAP_M0_T38  1.1
    X_P7_T38  CAP_M1_T38  2.2
    X_P7_T38  CAP_M2_T38  2.5
    X_P7_T38  CAP_M3_T38  2.9
    X_P7_T38  CAP_M4_T38  1
    X_P7_T38  CAP_M5_T38  2.9
    X_P7_T38  CAP_M6_T38  2.4
    X_P7_T38  CAP_M7_T38  1.6
    X_P7_T38  CAP_M8_T38  1.4
    X_P7_T38  CAP_M9_T38  0.6
    X_P7_T38  CAP_M10_T38  1.6
    X_P7_T38  CAP_M11_T38  1.7
    X_P8_T38  COST      27.1
    X_P8_T38  BAL_P8_T38  1
    X_P8_T38  CAP_M0_T38  1.8
    X_P8_T38  CAP_M1_T38  0.7
    X_P8_T38  CAP_M2_T38  2.7
    X_P8_T38  CAP_M3_T38  2.3
    X_P8_T38  CAP_M4_T38  1.6
    X_P8_T38  CAP_M5_T38  1.3
    X_P8_T38  CAP_M6_T38  2.9
    X_P8_T38  CAP_M7_T38  1.1
    X_P8_T38  CAP_M8_T38  1.5
    X_P8_T38  CAP_M9_T38  2.1
    X_P8_T38  CAP_M10_T38  1.6
    X_P8_T38  CAP_M11_T38  0.7
    X_P9_T38  COST      41.7
    X_P9_T38  BAL_P9_T38  1
    X_P9_T38  CAP_M0_T38  1.3
    X_P9_T38  CAP_M1_T38  2.8
    X_P9_T38  CAP_M2_T38  1.3
    X_P9_T38  CAP_M3_T38  0.6
    X_P9_T38  CAP_M4_T38  1.7
    X_P9_T38  CAP_M5_T38  2.5
    X_P9_T38  CAP_M6_T38  1
    X_P9_T38  CAP_M7_T38  2.5
    X_P9_T38  CAP_M8_T38  2.7
    X_P9_T38  CAP_M9_T38  1.1
    X_P9_T38  CAP_M10_T38  1.8
    X_P9_T38  CAP_M11_T38  2.8
    X_P10_T38  COST      26.8
    X_P10_T38  BAL_P10_T38  1
    X_P10_T38  CAP_M0_T38  0.8
    X_P10_T38  CAP_M1_T38  0.8
    X_P10_T38  CAP_M2_T38  1.3
    X_P10_T38  CAP_M3_T38  0.8
    X_P10_T38  CAP_M4_T38  0.7
    X_P10_T38  CAP_M5_T38  1.7
    X_P10_T38  CAP_M6_T38  1.4
    X_P10_T38  CAP_M7_T38  1.3
    X_P10_T38  CAP_M8_T38  2.9
    X_P10_T38  CAP_M9_T38  1.6
    X_P10_T38  CAP_M10_T38  2.9
    X_P10_T38  CAP_M11_T38  0.7
    X_P11_T38  COST      41.7
    X_P11_T38  BAL_P11_T38  1
    X_P11_T38  CAP_M0_T38  2.4
    X_P11_T38  CAP_M1_T38  1.8
    X_P11_T38  CAP_M2_T38  1.8
    X_P11_T38  CAP_M3_T38  1.5
    X_P11_T38  CAP_M4_T38  2.8
    X_P11_T38  CAP_M5_T38  1.4
    X_P11_T38  CAP_M6_T38  0.7
    X_P11_T38  CAP_M7_T38  0.7
    X_P11_T38  CAP_M8_T38  2
    X_P11_T38  CAP_M9_T38  1.5
    X_P11_T38  CAP_M10_T38  1.7
    X_P11_T38  CAP_M11_T38  2.8
    X_P12_T38  COST      24.9
    X_P12_T38  BAL_P12_T38  1
    X_P12_T38  CAP_M0_T38  2.4
    X_P12_T38  CAP_M1_T38  2.3
    X_P12_T38  CAP_M2_T38  1.7
    X_P12_T38  CAP_M3_T38  2
    X_P12_T38  CAP_M4_T38  1.9
    X_P12_T38  CAP_M5_T38  1.2
    X_P12_T38  CAP_M6_T38  1.7
    X_P12_T38  CAP_M7_T38  1.4
    X_P12_T38  CAP_M8_T38  2
    X_P12_T38  CAP_M9_T38  1.6
    X_P12_T38  CAP_M10_T38  1.3
    X_P12_T38  CAP_M11_T38  2.7
    X_P13_T38  COST      28.3
    X_P13_T38  BAL_P13_T38  1
    X_P13_T38  CAP_M0_T38  2.2
    X_P13_T38  CAP_M1_T38  0.8
    X_P13_T38  CAP_M2_T38  2.7
    X_P13_T38  CAP_M3_T38  2.1
    X_P13_T38  CAP_M4_T38  1.8
    X_P13_T38  CAP_M5_T38  1.2
    X_P13_T38  CAP_M6_T38  1
    X_P13_T38  CAP_M7_T38  1.2
    X_P13_T38  CAP_M8_T38  1.8
    X_P13_T38  CAP_M9_T38  1
    X_P13_T38  CAP_M10_T38  1.3
    X_P13_T38  CAP_M11_T38  1.2
    X_P14_T38  COST      35.8
    X_P14_T38  BAL_P14_T38  1
    X_P14_T38  CAP_M0_T38  1.1
    X_P14_T38  CAP_M1_T38  1.8
    X_P14_T38  CAP_M2_T38  1.9
    X_P14_T38  CAP_M3_T38  1.4
    X_P14_T38  CAP_M4_T38  1.5
    X_P14_T38  CAP_M5_T38  1.9
    X_P14_T38  CAP_M6_T38  2.7
    X_P14_T38  CAP_M7_T38  0.8
    X_P14_T38  CAP_M8_T38  1.7
    X_P14_T38  CAP_M9_T38  2.2
    X_P14_T38  CAP_M10_T38  2.7
    X_P14_T38  CAP_M11_T38  1.2
    X_P15_T38  COST      31.6
    X_P15_T38  BAL_P15_T38  1
    X_P15_T38  CAP_M0_T38  0.8
    X_P15_T38  CAP_M1_T38  0.8
    X_P15_T38  CAP_M2_T38  2.4
    X_P15_T38  CAP_M3_T38  2.3
    X_P15_T38  CAP_M4_T38  1.8
    X_P15_T38  CAP_M5_T38  0.8
    X_P15_T38  CAP_M6_T38  0.8
    X_P15_T38  CAP_M7_T38  1.4
    X_P15_T38  CAP_M8_T38  1.3
    X_P15_T38  CAP_M9_T38  1.8
    X_P15_T38  CAP_M10_T38  2.1
    X_P15_T38  CAP_M11_T38  1.5
    X_P16_T38  COST      46.8
    X_P16_T38  BAL_P16_T38  1
    X_P16_T38  CAP_M0_T38  1.1
    X_P16_T38  CAP_M1_T38  0.5
    X_P16_T38  CAP_M2_T38  1.2
    X_P16_T38  CAP_M3_T38  2.8
    X_P16_T38  CAP_M4_T38  1.1
    X_P16_T38  CAP_M5_T38  1
    X_P16_T38  CAP_M6_T38  1.8
    X_P16_T38  CAP_M7_T38  1.8
    X_P16_T38  CAP_M8_T38  2.5
    X_P16_T38  CAP_M9_T38  1.6
    X_P16_T38  CAP_M10_T38  2.7
    X_P16_T38  CAP_M11_T38  1.3
    X_P17_T38  COST      30.2
    X_P17_T38  BAL_P17_T38  1
    X_P17_T38  CAP_M0_T38  1.8
    X_P17_T38  CAP_M1_T38  2.2
    X_P17_T38  CAP_M2_T38  2.7
    X_P17_T38  CAP_M3_T38  2.2
    X_P17_T38  CAP_M4_T38  1.2
    X_P17_T38  CAP_M5_T38  1.3
    X_P17_T38  CAP_M6_T38  0.7
    X_P17_T38  CAP_M7_T38  1.3
    X_P17_T38  CAP_M8_T38  2.8
    X_P17_T38  CAP_M9_T38  1.4
    X_P17_T38  CAP_M10_T38  2.7
    X_P17_T38  CAP_M11_T38  2.2
    X_P18_T38  COST      42.7
    X_P18_T38  BAL_P18_T38  1
    X_P18_T38  CAP_M0_T38  1.3
    X_P18_T38  CAP_M1_T38  2.9
    X_P18_T38  CAP_M2_T38  1.7
    X_P18_T38  CAP_M3_T38  0.5
    X_P18_T38  CAP_M4_T38  2.4
    X_P18_T38  CAP_M5_T38  2.9
    X_P18_T38  CAP_M6_T38  2.1
    X_P18_T38  CAP_M7_T38  2.7
    X_P18_T38  CAP_M8_T38  1.4
    X_P18_T38  CAP_M9_T38  0.5
    X_P18_T38  CAP_M10_T38  2.1
    X_P18_T38  CAP_M11_T38  1.1
    X_P19_T38  COST      23
    X_P19_T38  BAL_P19_T38  1
    X_P19_T38  CAP_M0_T38  2.2
    X_P19_T38  CAP_M1_T38  2.8
    X_P19_T38  CAP_M2_T38  1.6
    X_P19_T38  CAP_M3_T38  2.6
    X_P19_T38  CAP_M4_T38  1.7
    X_P19_T38  CAP_M5_T38  1.3
    X_P19_T38  CAP_M6_T38  1
    X_P19_T38  CAP_M7_T38  1.5
    X_P19_T38  CAP_M8_T38  0.6
    X_P19_T38  CAP_M9_T38  2.8
    X_P19_T38  CAP_M10_T38  0.8
    X_P19_T38  CAP_M11_T38  0.8
    X_P20_T38  COST      49.7
    X_P20_T38  BAL_P20_T38  1
    X_P20_T38  CAP_M0_T38  1.2
    X_P20_T38  CAP_M1_T38  2
    X_P20_T38  CAP_M2_T38  1.4
    X_P20_T38  CAP_M3_T38  2.3
    X_P20_T38  CAP_M4_T38  1.5
    X_P20_T38  CAP_M5_T38  1.6
    X_P20_T38  CAP_M6_T38  2.6
    X_P20_T38  CAP_M7_T38  2.1
    X_P20_T38  CAP_M8_T38  1.2
    X_P20_T38  CAP_M9_T38  1
    X_P20_T38  CAP_M10_T38  2.3
    X_P20_T38  CAP_M11_T38  1.8
    X_P21_T38  COST      11.7
    X_P21_T38  BAL_P21_T38  1
    X_P21_T38  CAP_M0_T38  2.4
    X_P21_T38  CAP_M1_T38  1.9
    X_P21_T38  CAP_M2_T38  2.9
    X_P21_T38  CAP_M3_T38  2.7
    X_P21_T38  CAP_M4_T38  2.7
    X_P21_T38  CAP_M5_T38  1.7
    X_P21_T38  CAP_M6_T38  2.8
    X_P21_T38  CAP_M7_T38  2.5
    X_P21_T38  CAP_M8_T38  3
    X_P21_T38  CAP_M9_T38  2.7
    X_P21_T38  CAP_M10_T38  2.4
    X_P21_T38  CAP_M11_T38  2.4
    X_P22_T38  COST      35.5
    X_P22_T38  BAL_P22_T38  1
    X_P22_T38  CAP_M0_T38  0.6
    X_P22_T38  CAP_M1_T38  2.9
    X_P22_T38  CAP_M2_T38  2.1
    X_P22_T38  CAP_M3_T38  2.1
    X_P22_T38  CAP_M4_T38  2
    X_P22_T38  CAP_M5_T38  2.4
    X_P22_T38  CAP_M6_T38  2.2
    X_P22_T38  CAP_M7_T38  0.7
    X_P22_T38  CAP_M8_T38  0.5
    X_P22_T38  CAP_M9_T38  1.8
    X_P22_T38  CAP_M10_T38  1.1
    X_P22_T38  CAP_M11_T38  2.6
    X_P23_T38  COST      39.2
    X_P23_T38  BAL_P23_T38  1
    X_P23_T38  CAP_M0_T38  2.9
    X_P23_T38  CAP_M1_T38  1.2
    X_P23_T38  CAP_M2_T38  1.8
    X_P23_T38  CAP_M3_T38  1.8
    X_P23_T38  CAP_M4_T38  1.5
    X_P23_T38  CAP_M5_T38  0.5
    X_P23_T38  CAP_M6_T38  2.8
    X_P23_T38  CAP_M7_T38  1.9
    X_P23_T38  CAP_M8_T38  2.2
    X_P23_T38  CAP_M9_T38  2.9
    X_P23_T38  CAP_M10_T38  2.1
    X_P23_T38  CAP_M11_T38  2.2
    X_P24_T38  COST      29.7
    X_P24_T38  BAL_P24_T38  1
    X_P24_T38  CAP_M0_T38  1.1
    X_P24_T38  CAP_M1_T38  2.5
    X_P24_T38  CAP_M2_T38  1.3
    X_P24_T38  CAP_M3_T38  2.8
    X_P24_T38  CAP_M4_T38  1.1
    X_P24_T38  CAP_M5_T38  2
    X_P24_T38  CAP_M6_T38  1.4
    X_P24_T38  CAP_M7_T38  0.5
    X_P24_T38  CAP_M8_T38  1.2
    X_P24_T38  CAP_M9_T38  2.4
    X_P24_T38  CAP_M10_T38  0.6
    X_P24_T38  CAP_M11_T38  1.9
    S_P0_T38  COST      4.9
    S_P0_T38  BAL_P0_T38  -1
    S_P0_T38  STORAGE_T38  1
    S_P0_T38  BAL_P0_T39  1
    S_P1_T38  COST      4
    S_P1_T38  BAL_P1_T38  -1
    S_P1_T38  STORAGE_T38  1
    S_P1_T38  BAL_P1_T39  1
    S_P2_T38  COST      3
    S_P2_T38  BAL_P2_T38  -1
    S_P2_T38  STORAGE_T38  1
    S_P2_T38  BAL_P2_T39  1
    S_P3_T38  COST      4
    S_P3_T38  BAL_P3_T38  -1
    S_P3_T38  STORAGE_T38  1
    S_P3_T38  BAL_P3_T39  1
    S_P4_T38  COST      4.1
    S_P4_T38  BAL_P4_T38  -1
    S_P4_T38  STORAGE_T38  1
    S_P4_T38  BAL_P4_T39  1
    S_P5_T38  COST      1.2
    S_P5_T38  BAL_P5_T38  -1
    S_P5_T38  STORAGE_T38  1
    S_P5_T38  BAL_P5_T39  1
    S_P6_T38  COST      1.8
    S_P6_T38  BAL_P6_T38  -1
    S_P6_T38  STORAGE_T38  1
    S_P6_T38  BAL_P6_T39  1
    S_P7_T38  COST      1.3
    S_P7_T38  BAL_P7_T38  -1
    S_P7_T38  STORAGE_T38  1
    S_P7_T38  BAL_P7_T39  1
    S_P8_T38  COST      3.7
    S_P8_T38  BAL_P8_T38  -1
    S_P8_T38  STORAGE_T38  1
    S_P8_T38  BAL_P8_T39  1
    S_P9_T38  COST      4
    S_P9_T38  BAL_P9_T38  -1
    S_P9_T38  STORAGE_T38  1
    S_P9_T38  BAL_P9_T39  1
    S_P10_T38  COST      4.5
    S_P10_T38  BAL_P10_T38  -1
    S_P10_T38  STORAGE_T38  1
    S_P10_T38  BAL_P10_T39  1
    S_P11_T38  COST      3.4
    S_P11_T38  BAL_P11_T38  -1
    S_P11_T38  STORAGE_T38  1
    S_P11_T38  BAL_P11_T39  1
    S_P12_T38  COST      3.7
    S_P12_T38  BAL_P12_T38  -1
    S_P12_T38  STORAGE_T38  1
    S_P12_T38  BAL_P12_T39  1
    S_P13_T38  COST      3.3
    S_P13_T38  BAL_P13_T38  -1
    S_P13_T38  STORAGE_T38  1
    S_P13_T38  BAL_P13_T39  1
    S_P14_T38  COST      4
    S_P14_T38  BAL_P14_T38  -1
    S_P14_T38  STORAGE_T38  1
    S_P14_T38  BAL_P14_T39  1
    S_P15_T38  COST      1.6
    S_P15_T38  BAL_P15_T38  -1
    S_P15_T38  STORAGE_T38  1
    S_P15_T38  BAL_P15_T39  1
    S_P16_T38  COST      3.6
    S_P16_T38  BAL_P16_T38  -1
    S_P16_T38  STORAGE_T38  1
    S_P16_T38  BAL_P16_T39  1
    S_P17_T38  COST      3.5
    S_P17_T38  BAL_P17_T38  -1
    S_P17_T38  STORAGE_T38  1
    S_P17_T38  BAL_P17_T39  1
    S_P18_T38  COST      1.8
    S_P18_T38  BAL_P18_T38  -1
    S_P18_T38  STORAGE_T38  1
    S_P18_T38  BAL_P18_T39  1
    S_P19_T38  COST      1.8
    S_P19_T38  BAL_P19_T38  -1
    S_P19_T38  STORAGE_T38  1
    S_P19_T38  BAL_P19_T39  1
    S_P20_T38  COST      2.5
    S_P20_T38  BAL_P20_T38  -1
    S_P20_T38  STORAGE_T38  1
    S_P20_T38  BAL_P20_T39  1
    S_P21_T38  COST      2.1
    S_P21_T38  BAL_P21_T38  -1
    S_P21_T38  STORAGE_T38  1
    S_P21_T38  BAL_P21_T39  1
    S_P22_T38  COST      3.9
    S_P22_T38  BAL_P22_T38  -1
    S_P22_T38  STORAGE_T38  1
    S_P22_T38  BAL_P22_T39  1
    S_P23_T38  COST      4.1
    S_P23_T38  BAL_P23_T38  -1
    S_P23_T38  STORAGE_T38  1
    S_P23_T38  BAL_P23_T39  1
    S_P24_T38  COST      1.6
    S_P24_T38  BAL_P24_T38  -1
    S_P24_T38  STORAGE_T38  1
    S_P24_T38  BAL_P24_T39  1
    X_P0_T39  COST      14.2
    X_P0_T39  BAL_P0_T39  1
    X_P0_T39  CAP_M0_T39  1.4
    X_P0_T39  CAP_M1_T39  2.4
    X_P0_T39  CAP_M2_T39  0.5
    X_P0_T39  CAP_M3_T39  1
    X_P0_T39  CAP_M4_T39  1.3
    X_P0_T39  CAP_M5_T39  0.8
    X_P0_T39  CAP_M6_T39  1
    X_P0_T39  CAP_M7_T39  1.7
    X_P0_T39  CAP_M8_T39  0.7
    X_P0_T39  CAP_M9_T39  1.5
    X_P0_T39  CAP_M10_T39  2.4
    X_P0_T39  CAP_M11_T39  0.9
    X_P1_T39  COST      26.1
    X_P1_T39  BAL_P1_T39  1
    X_P1_T39  CAP_M0_T39  1
    X_P1_T39  CAP_M1_T39  2.2
    X_P1_T39  CAP_M2_T39  1
    X_P1_T39  CAP_M3_T39  2.4
    X_P1_T39  CAP_M4_T39  3
    X_P1_T39  CAP_M5_T39  2.2
    X_P1_T39  CAP_M6_T39  2.7
    X_P1_T39  CAP_M7_T39  1.4
    X_P1_T39  CAP_M8_T39  1.9
    X_P1_T39  CAP_M9_T39  0.9
    X_P1_T39  CAP_M10_T39  2.9
    X_P1_T39  CAP_M11_T39  2.2
    X_P2_T39  COST      14.4
    X_P2_T39  BAL_P2_T39  1
    X_P2_T39  CAP_M0_T39  2.6
    X_P2_T39  CAP_M1_T39  1.4
    X_P2_T39  CAP_M2_T39  0.8
    X_P2_T39  CAP_M3_T39  2.3
    X_P2_T39  CAP_M4_T39  2.5
    X_P2_T39  CAP_M5_T39  1
    X_P2_T39  CAP_M6_T39  1.2
    X_P2_T39  CAP_M7_T39  1
    X_P2_T39  CAP_M8_T39  1.1
    X_P2_T39  CAP_M9_T39  1.9
    X_P2_T39  CAP_M10_T39  3
    X_P2_T39  CAP_M11_T39  0.8
    X_P3_T39  COST      44.6
    X_P3_T39  BAL_P3_T39  1
    X_P3_T39  CAP_M0_T39  1.8
    X_P3_T39  CAP_M1_T39  2.8
    X_P3_T39  CAP_M2_T39  2.1
    X_P3_T39  CAP_M3_T39  1.6
    X_P3_T39  CAP_M4_T39  1.1
    X_P3_T39  CAP_M5_T39  0.7
    X_P3_T39  CAP_M6_T39  2
    X_P3_T39  CAP_M7_T39  2.7
    X_P3_T39  CAP_M8_T39  1.9
    X_P3_T39  CAP_M9_T39  2.6
    X_P3_T39  CAP_M10_T39  2.1
    X_P3_T39  CAP_M11_T39  2.3
    X_P4_T39  COST      45.9
    X_P4_T39  BAL_P4_T39  1
    X_P4_T39  CAP_M0_T39  1.9
    X_P4_T39  CAP_M1_T39  2
    X_P4_T39  CAP_M2_T39  2.5
    X_P4_T39  CAP_M3_T39  2.7
    X_P4_T39  CAP_M4_T39  2.1
    X_P4_T39  CAP_M5_T39  1.2
    X_P4_T39  CAP_M6_T39  1.6
    X_P4_T39  CAP_M7_T39  1.6
    X_P4_T39  CAP_M8_T39  2.1
    X_P4_T39  CAP_M9_T39  1.7
    X_P4_T39  CAP_M10_T39  0.8
    X_P4_T39  CAP_M11_T39  1.6
    X_P5_T39  COST      26.4
    X_P5_T39  BAL_P5_T39  1
    X_P5_T39  CAP_M0_T39  2.1
    X_P5_T39  CAP_M1_T39  0.7
    X_P5_T39  CAP_M2_T39  2.9
    X_P5_T39  CAP_M3_T39  1.3
    X_P5_T39  CAP_M4_T39  2.6
    X_P5_T39  CAP_M5_T39  1.9
    X_P5_T39  CAP_M6_T39  2.4
    X_P5_T39  CAP_M7_T39  1.8
    X_P5_T39  CAP_M8_T39  1.4
    X_P5_T39  CAP_M9_T39  0.7
    X_P5_T39  CAP_M10_T39  0.6
    X_P5_T39  CAP_M11_T39  2.9
    X_P6_T39  COST      19.8
    X_P6_T39  BAL_P6_T39  1
    X_P6_T39  CAP_M0_T39  1.3
    X_P6_T39  CAP_M1_T39  1.8
    X_P6_T39  CAP_M2_T39  2.5
    X_P6_T39  CAP_M3_T39  2.2
    X_P6_T39  CAP_M4_T39  0.7
    X_P6_T39  CAP_M5_T39  1.5
    X_P6_T39  CAP_M6_T39  0.6
    X_P6_T39  CAP_M7_T39  1.9
    X_P6_T39  CAP_M8_T39  1.3
    X_P6_T39  CAP_M9_T39  2.1
    X_P6_T39  CAP_M10_T39  2.4
    X_P6_T39  CAP_M11_T39  1.1
    X_P7_T39  COST      20.1
    X_P7_T39  BAL_P7_T39  1
    X_P7_T39  CAP_M0_T39  1.1
    X_P7_T39  CAP_M1_T39  2.2
    X_P7_T39  CAP_M2_T39  2.5
    X_P7_T39  CAP_M3_T39  2.9
    X_P7_T39  CAP_M4_T39  1
    X_P7_T39  CAP_M5_T39  2.9
    X_P7_T39  CAP_M6_T39  2.4
    X_P7_T39  CAP_M7_T39  1.6
    X_P7_T39  CAP_M8_T39  1.4
    X_P7_T39  CAP_M9_T39  0.6
    X_P7_T39  CAP_M10_T39  1.6
    X_P7_T39  CAP_M11_T39  1.7
    X_P8_T39  COST      12.7
    X_P8_T39  BAL_P8_T39  1
    X_P8_T39  CAP_M0_T39  1.8
    X_P8_T39  CAP_M1_T39  0.7
    X_P8_T39  CAP_M2_T39  2.7
    X_P8_T39  CAP_M3_T39  2.3
    X_P8_T39  CAP_M4_T39  1.6
    X_P8_T39  CAP_M5_T39  1.3
    X_P8_T39  CAP_M6_T39  2.9
    X_P8_T39  CAP_M7_T39  1.1
    X_P8_T39  CAP_M8_T39  1.5
    X_P8_T39  CAP_M9_T39  2.1
    X_P8_T39  CAP_M10_T39  1.6
    X_P8_T39  CAP_M11_T39  0.7
    X_P9_T39  COST      19
    X_P9_T39  BAL_P9_T39  1
    X_P9_T39  CAP_M0_T39  1.3
    X_P9_T39  CAP_M1_T39  2.8
    X_P9_T39  CAP_M2_T39  1.3
    X_P9_T39  CAP_M3_T39  0.6
    X_P9_T39  CAP_M4_T39  1.7
    X_P9_T39  CAP_M5_T39  2.5
    X_P9_T39  CAP_M6_T39  1
    X_P9_T39  CAP_M7_T39  2.5
    X_P9_T39  CAP_M8_T39  2.7
    X_P9_T39  CAP_M9_T39  1.1
    X_P9_T39  CAP_M10_T39  1.8
    X_P9_T39  CAP_M11_T39  2.8
    X_P10_T39  COST      19.5
    X_P10_T39  BAL_P10_T39  1
    X_P10_T39  CAP_M0_T39  0.8
    X_P10_T39  CAP_M1_T39  0.8
    X_P10_T39  CAP_M2_T39  1.3
    X_P10_T39  CAP_M3_T39  0.8
    X_P10_T39  CAP_M4_T39  0.7
    X_P10_T39  CAP_M5_T39  1.7
    X_P10_T39  CAP_M6_T39  1.4
    X_P10_T39  CAP_M7_T39  1.3
    X_P10_T39  CAP_M8_T39  2.9
    X_P10_T39  CAP_M9_T39  1.6
    X_P10_T39  CAP_M10_T39  2.9
    X_P10_T39  CAP_M11_T39  0.7
    X_P11_T39  COST      43.7
    X_P11_T39  BAL_P11_T39  1
    X_P11_T39  CAP_M0_T39  2.4
    X_P11_T39  CAP_M1_T39  1.8
    X_P11_T39  CAP_M2_T39  1.8
    X_P11_T39  CAP_M3_T39  1.5
    X_P11_T39  CAP_M4_T39  2.8
    X_P11_T39  CAP_M5_T39  1.4
    X_P11_T39  CAP_M6_T39  0.7
    X_P11_T39  CAP_M7_T39  0.7
    X_P11_T39  CAP_M8_T39  2
    X_P11_T39  CAP_M9_T39  1.5
    X_P11_T39  CAP_M10_T39  1.7
    X_P11_T39  CAP_M11_T39  2.8
    X_P12_T39  COST      15.4
    X_P12_T39  BAL_P12_T39  1
    X_P12_T39  CAP_M0_T39  2.4
    X_P12_T39  CAP_M1_T39  2.3
    X_P12_T39  CAP_M2_T39  1.7
    X_P12_T39  CAP_M3_T39  2
    X_P12_T39  CAP_M4_T39  1.9
    X_P12_T39  CAP_M5_T39  1.2
    X_P12_T39  CAP_M6_T39  1.7
    X_P12_T39  CAP_M7_T39  1.4
    X_P12_T39  CAP_M8_T39  2
    X_P12_T39  CAP_M9_T39  1.6
    X_P12_T39  CAP_M10_T39  1.3
    X_P12_T39  CAP_M11_T39  2.7
    X_P13_T39  COST      21.8
    X_P13_T39  BAL_P13_T39  1
    X_P13_T39  CAP_M0_T39  2.2
    X_P13_T39  CAP_M1_T39  0.8
    X_P13_T39  CAP_M2_T39  2.7
    X_P13_T39  CAP_M3_T39  2.1
    X_P13_T39  CAP_M4_T39  1.8
    X_P13_T39  CAP_M5_T39  1.2
    X_P13_T39  CAP_M6_T39  1
    X_P13_T39  CAP_M7_T39  1.2
    X_P13_T39  CAP_M8_T39  1.8
    X_P13_T39  CAP_M9_T39  1
    X_P13_T39  CAP_M10_T39  1.3
    X_P13_T39  CAP_M11_T39  1.2
    X_P14_T39  COST      38
    X_P14_T39  BAL_P14_T39  1
    X_P14_T39  CAP_M0_T39  1.1
    X_P14_T39  CAP_M1_T39  1.8
    X_P14_T39  CAP_M2_T39  1.9
    X_P14_T39  CAP_M3_T39  1.4
    X_P14_T39  CAP_M4_T39  1.5
    X_P14_T39  CAP_M5_T39  1.9
    X_P14_T39  CAP_M6_T39  2.7
    X_P14_T39  CAP_M7_T39  0.8
    X_P14_T39  CAP_M8_T39  1.7
    X_P14_T39  CAP_M9_T39  2.2
    X_P14_T39  CAP_M10_T39  2.7
    X_P14_T39  CAP_M11_T39  1.2
    X_P15_T39  COST      14.1
    X_P15_T39  BAL_P15_T39  1
    X_P15_T39  CAP_M0_T39  0.8
    X_P15_T39  CAP_M1_T39  0.8
    X_P15_T39  CAP_M2_T39  2.4
    X_P15_T39  CAP_M3_T39  2.3
    X_P15_T39  CAP_M4_T39  1.8
    X_P15_T39  CAP_M5_T39  0.8
    X_P15_T39  CAP_M6_T39  0.8
    X_P15_T39  CAP_M7_T39  1.4
    X_P15_T39  CAP_M8_T39  1.3
    X_P15_T39  CAP_M9_T39  1.8
    X_P15_T39  CAP_M10_T39  2.1
    X_P15_T39  CAP_M11_T39  1.5
    X_P16_T39  COST      10.7
    X_P16_T39  BAL_P16_T39  1
    X_P16_T39  CAP_M0_T39  1.1
    X_P16_T39  CAP_M1_T39  0.5
    X_P16_T39  CAP_M2_T39  1.2
    X_P16_T39  CAP_M3_T39  2.8
    X_P16_T39  CAP_M4_T39  1.1
    X_P16_T39  CAP_M5_T39  1
    X_P16_T39  CAP_M6_T39  1.8
    X_P16_T39  CAP_M7_T39  1.8
    X_P16_T39  CAP_M8_T39  2.5
    X_P16_T39  CAP_M9_T39  1.6
    X_P16_T39  CAP_M10_T39  2.7
    X_P16_T39  CAP_M11_T39  1.3
    X_P17_T39  COST      10.4
    X_P17_T39  BAL_P17_T39  1
    X_P17_T39  CAP_M0_T39  1.8
    X_P17_T39  CAP_M1_T39  2.2
    X_P17_T39  CAP_M2_T39  2.7
    X_P17_T39  CAP_M3_T39  2.2
    X_P17_T39  CAP_M4_T39  1.2
    X_P17_T39  CAP_M5_T39  1.3
    X_P17_T39  CAP_M6_T39  0.7
    X_P17_T39  CAP_M7_T39  1.3
    X_P17_T39  CAP_M8_T39  2.8
    X_P17_T39  CAP_M9_T39  1.4
    X_P17_T39  CAP_M10_T39  2.7
    X_P17_T39  CAP_M11_T39  2.2
    X_P18_T39  COST      45
    X_P18_T39  BAL_P18_T39  1
    X_P18_T39  CAP_M0_T39  1.3
    X_P18_T39  CAP_M1_T39  2.9
    X_P18_T39  CAP_M2_T39  1.7
    X_P18_T39  CAP_M3_T39  0.5
    X_P18_T39  CAP_M4_T39  2.4
    X_P18_T39  CAP_M5_T39  2.9
    X_P18_T39  CAP_M6_T39  2.1
    X_P18_T39  CAP_M7_T39  2.7
    X_P18_T39  CAP_M8_T39  1.4
    X_P18_T39  CAP_M9_T39  0.5
    X_P18_T39  CAP_M10_T39  2.1
    X_P18_T39  CAP_M11_T39  1.1
    X_P19_T39  COST      11
    X_P19_T39  BAL_P19_T39  1
    X_P19_T39  CAP_M0_T39  2.2
    X_P19_T39  CAP_M1_T39  2.8
    X_P19_T39  CAP_M2_T39  1.6
    X_P19_T39  CAP_M3_T39  2.6
    X_P19_T39  CAP_M4_T39  1.7
    X_P19_T39  CAP_M5_T39  1.3
    X_P19_T39  CAP_M6_T39  1
    X_P19_T39  CAP_M7_T39  1.5
    X_P19_T39  CAP_M8_T39  0.6
    X_P19_T39  CAP_M9_T39  2.8
    X_P19_T39  CAP_M10_T39  0.8
    X_P19_T39  CAP_M11_T39  0.8
    X_P20_T39  COST      34.6
    X_P20_T39  BAL_P20_T39  1
    X_P20_T39  CAP_M0_T39  1.2
    X_P20_T39  CAP_M1_T39  2
    X_P20_T39  CAP_M2_T39  1.4
    X_P20_T39  CAP_M3_T39  2.3
    X_P20_T39  CAP_M4_T39  1.5
    X_P20_T39  CAP_M5_T39  1.6
    X_P20_T39  CAP_M6_T39  2.6
    X_P20_T39  CAP_M7_T39  2.1
    X_P20_T39  CAP_M8_T39  1.2
    X_P20_T39  CAP_M9_T39  1
    X_P20_T39  CAP_M10_T39  2.3
    X_P20_T39  CAP_M11_T39  1.8
    X_P21_T39  COST      44.2
    X_P21_T39  BAL_P21_T39  1
    X_P21_T39  CAP_M0_T39  2.4
    X_P21_T39  CAP_M1_T39  1.9
    X_P21_T39  CAP_M2_T39  2.9
    X_P21_T39  CAP_M3_T39  2.7
    X_P21_T39  CAP_M4_T39  2.7
    X_P21_T39  CAP_M5_T39  1.7
    X_P21_T39  CAP_M6_T39  2.8
    X_P21_T39  CAP_M7_T39  2.5
    X_P21_T39  CAP_M8_T39  3
    X_P21_T39  CAP_M9_T39  2.7
    X_P21_T39  CAP_M10_T39  2.4
    X_P21_T39  CAP_M11_T39  2.4
    X_P22_T39  COST      45.8
    X_P22_T39  BAL_P22_T39  1
    X_P22_T39  CAP_M0_T39  0.6
    X_P22_T39  CAP_M1_T39  2.9
    X_P22_T39  CAP_M2_T39  2.1
    X_P22_T39  CAP_M3_T39  2.1
    X_P22_T39  CAP_M4_T39  2
    X_P22_T39  CAP_M5_T39  2.4
    X_P22_T39  CAP_M6_T39  2.2
    X_P22_T39  CAP_M7_T39  0.7
    X_P22_T39  CAP_M8_T39  0.5
    X_P22_T39  CAP_M9_T39  1.8
    X_P22_T39  CAP_M10_T39  1.1
    X_P22_T39  CAP_M11_T39  2.6
    X_P23_T39  COST      22.6
    X_P23_T39  BAL_P23_T39  1
    X_P23_T39  CAP_M0_T39  2.9
    X_P23_T39  CAP_M1_T39  1.2
    X_P23_T39  CAP_M2_T39  1.8
    X_P23_T39  CAP_M3_T39  1.8
    X_P23_T39  CAP_M4_T39  1.5
    X_P23_T39  CAP_M5_T39  0.5
    X_P23_T39  CAP_M6_T39  2.8
    X_P23_T39  CAP_M7_T39  1.9
    X_P23_T39  CAP_M8_T39  2.2
    X_P23_T39  CAP_M9_T39  2.9
    X_P23_T39  CAP_M10_T39  2.1
    X_P23_T39  CAP_M11_T39  2.2
    X_P24_T39  COST      21.6
    X_P24_T39  BAL_P24_T39  1
    X_P24_T39  CAP_M0_T39  1.1
    X_P24_T39  CAP_M1_T39  2.5
    X_P24_T39  CAP_M2_T39  1.3
    X_P24_T39  CAP_M3_T39  2.8
    X_P24_T39  CAP_M4_T39  1.1
    X_P24_T39  CAP_M5_T39  2
    X_P24_T39  CAP_M6_T39  1.4
    X_P24_T39  CAP_M7_T39  0.5
    X_P24_T39  CAP_M8_T39  1.2
    X_P24_T39  CAP_M9_T39  2.4
    X_P24_T39  CAP_M10_T39  0.6
    X_P24_T39  CAP_M11_T39  1.9
    S_P0_T39  COST      1.9
    S_P0_T39  BAL_P0_T39  -1
    S_P0_T39  STORAGE_T39  1
    S_P0_T39  BAL_P0_T40  1
    S_P1_T39  COST      1.8
    S_P1_T39  BAL_P1_T39  -1
    S_P1_T39  STORAGE_T39  1
    S_P1_T39  BAL_P1_T40  1
    S_P2_T39  COST      3.8
    S_P2_T39  BAL_P2_T39  -1
    S_P2_T39  STORAGE_T39  1
    S_P2_T39  BAL_P2_T40  1
    S_P3_T39  COST      2
    S_P3_T39  BAL_P3_T39  -1
    S_P3_T39  STORAGE_T39  1
    S_P3_T39  BAL_P3_T40  1
    S_P4_T39  COST      4.3
    S_P4_T39  BAL_P4_T39  -1
    S_P4_T39  STORAGE_T39  1
    S_P4_T39  BAL_P4_T40  1
    S_P5_T39  COST      2.4
    S_P5_T39  BAL_P5_T39  -1
    S_P5_T39  STORAGE_T39  1
    S_P5_T39  BAL_P5_T40  1
    S_P6_T39  COST      4.5
    S_P6_T39  BAL_P6_T39  -1
    S_P6_T39  STORAGE_T39  1
    S_P6_T39  BAL_P6_T40  1
    S_P7_T39  COST      2.7
    S_P7_T39  BAL_P7_T39  -1
    S_P7_T39  STORAGE_T39  1
    S_P7_T39  BAL_P7_T40  1
    S_P8_T39  COST      2.9
    S_P8_T39  BAL_P8_T39  -1
    S_P8_T39  STORAGE_T39  1
    S_P8_T39  BAL_P8_T40  1
    S_P9_T39  COST      2.6
    S_P9_T39  BAL_P9_T39  -1
    S_P9_T39  STORAGE_T39  1
    S_P9_T39  BAL_P9_T40  1
    S_P10_T39  COST      3.2
    S_P10_T39  BAL_P10_T39  -1
    S_P10_T39  STORAGE_T39  1
    S_P10_T39  BAL_P10_T40  1
    S_P11_T39  COST      4.7
    S_P11_T39  BAL_P11_T39  -1
    S_P11_T39  STORAGE_T39  1
    S_P11_T39  BAL_P11_T40  1
    S_P12_T39  COST      3.4
    S_P12_T39  BAL_P12_T39  -1
    S_P12_T39  STORAGE_T39  1
    S_P12_T39  BAL_P12_T40  1
    S_P13_T39  COST      4.2
    S_P13_T39  BAL_P13_T39  -1
    S_P13_T39  STORAGE_T39  1
    S_P13_T39  BAL_P13_T40  1
    S_P14_T39  COST      4.3
    S_P14_T39  BAL_P14_T39  -1
    S_P14_T39  STORAGE_T39  1
    S_P14_T39  BAL_P14_T40  1
    S_P15_T39  COST      1.6
    S_P15_T39  BAL_P15_T39  -1
    S_P15_T39  STORAGE_T39  1
    S_P15_T39  BAL_P15_T40  1
    S_P16_T39  COST      3.1
    S_P16_T39  BAL_P16_T39  -1
    S_P16_T39  STORAGE_T39  1
    S_P16_T39  BAL_P16_T40  1
    S_P17_T39  COST      3.5
    S_P17_T39  BAL_P17_T39  -1
    S_P17_T39  STORAGE_T39  1
    S_P17_T39  BAL_P17_T40  1
    S_P18_T39  COST      5
    S_P18_T39  BAL_P18_T39  -1
    S_P18_T39  STORAGE_T39  1
    S_P18_T39  BAL_P18_T40  1
    S_P19_T39  COST      2.1
    S_P19_T39  BAL_P19_T39  -1
    S_P19_T39  STORAGE_T39  1
    S_P19_T39  BAL_P19_T40  1
    S_P20_T39  COST      1.2
    S_P20_T39  BAL_P20_T39  -1
    S_P20_T39  STORAGE_T39  1
    S_P20_T39  BAL_P20_T40  1
    S_P21_T39  COST      3
    S_P21_T39  BAL_P21_T39  -1
    S_P21_T39  STORAGE_T39  1
    S_P21_T39  BAL_P21_T40  1
    S_P22_T39  COST      4.7
    S_P22_T39  BAL_P22_T39  -1
    S_P22_T39  STORAGE_T39  1
    S_P22_T39  BAL_P22_T40  1
    S_P23_T39  COST      3.2
    S_P23_T39  BAL_P23_T39  -1
    S_P23_T39  STORAGE_T39  1
    S_P23_T39  BAL_P23_T40  1
    S_P24_T39  COST      2.6
    S_P24_T39  BAL_P24_T39  -1
    S_P24_T39  STORAGE_T39  1
    S_P24_T39  BAL_P24_T40  1
    X_P0_T40  COST      16.2
    X_P0_T40  BAL_P0_T40  1
    X_P0_T40  CAP_M0_T40  1.4
    X_P0_T40  CAP_M1_T40  2.4
    X_P0_T40  CAP_M2_T40  0.5
    X_P0_T40  CAP_M3_T40  1
    X_P0_T40  CAP_M4_T40  1.3
    X_P0_T40  CAP_M5_T40  0.8
    X_P0_T40  CAP_M6_T40  1
    X_P0_T40  CAP_M7_T40  1.7
    X_P0_T40  CAP_M8_T40  0.7
    X_P0_T40  CAP_M9_T40  1.5
    X_P0_T40  CAP_M10_T40  2.4
    X_P0_T40  CAP_M11_T40  0.9
    X_P1_T40  COST      13.4
    X_P1_T40  BAL_P1_T40  1
    X_P1_T40  CAP_M0_T40  1
    X_P1_T40  CAP_M1_T40  2.2
    X_P1_T40  CAP_M2_T40  1
    X_P1_T40  CAP_M3_T40  2.4
    X_P1_T40  CAP_M4_T40  3
    X_P1_T40  CAP_M5_T40  2.2
    X_P1_T40  CAP_M6_T40  2.7
    X_P1_T40  CAP_M7_T40  1.4
    X_P1_T40  CAP_M8_T40  1.9
    X_P1_T40  CAP_M9_T40  0.9
    X_P1_T40  CAP_M10_T40  2.9
    X_P1_T40  CAP_M11_T40  2.2
    X_P2_T40  COST      30.4
    X_P2_T40  BAL_P2_T40  1
    X_P2_T40  CAP_M0_T40  2.6
    X_P2_T40  CAP_M1_T40  1.4
    X_P2_T40  CAP_M2_T40  0.8
    X_P2_T40  CAP_M3_T40  2.3
    X_P2_T40  CAP_M4_T40  2.5
    X_P2_T40  CAP_M5_T40  1
    X_P2_T40  CAP_M6_T40  1.2
    X_P2_T40  CAP_M7_T40  1
    X_P2_T40  CAP_M8_T40  1.1
    X_P2_T40  CAP_M9_T40  1.9
    X_P2_T40  CAP_M10_T40  3
    X_P2_T40  CAP_M11_T40  0.8
    X_P3_T40  COST      42.8
    X_P3_T40  BAL_P3_T40  1
    X_P3_T40  CAP_M0_T40  1.8
    X_P3_T40  CAP_M1_T40  2.8
    X_P3_T40  CAP_M2_T40  2.1
    X_P3_T40  CAP_M3_T40  1.6
    X_P3_T40  CAP_M4_T40  1.1
    X_P3_T40  CAP_M5_T40  0.7
    X_P3_T40  CAP_M6_T40  2
    X_P3_T40  CAP_M7_T40  2.7
    X_P3_T40  CAP_M8_T40  1.9
    X_P3_T40  CAP_M9_T40  2.6
    X_P3_T40  CAP_M10_T40  2.1
    X_P3_T40  CAP_M11_T40  2.3
    X_P4_T40  COST      41.9
    X_P4_T40  BAL_P4_T40  1
    X_P4_T40  CAP_M0_T40  1.9
    X_P4_T40  CAP_M1_T40  2
    X_P4_T40  CAP_M2_T40  2.5
    X_P4_T40  CAP_M3_T40  2.7
    X_P4_T40  CAP_M4_T40  2.1
    X_P4_T40  CAP_M5_T40  1.2
    X_P4_T40  CAP_M6_T40  1.6
    X_P4_T40  CAP_M7_T40  1.6
    X_P4_T40  CAP_M8_T40  2.1
    X_P4_T40  CAP_M9_T40  1.7
    X_P4_T40  CAP_M10_T40  0.8
    X_P4_T40  CAP_M11_T40  1.6
    X_P5_T40  COST      41.1
    X_P5_T40  BAL_P5_T40  1
    X_P5_T40  CAP_M0_T40  2.1
    X_P5_T40  CAP_M1_T40  0.7
    X_P5_T40  CAP_M2_T40  2.9
    X_P5_T40  CAP_M3_T40  1.3
    X_P5_T40  CAP_M4_T40  2.6
    X_P5_T40  CAP_M5_T40  1.9
    X_P5_T40  CAP_M6_T40  2.4
    X_P5_T40  CAP_M7_T40  1.8
    X_P5_T40  CAP_M8_T40  1.4
    X_P5_T40  CAP_M9_T40  0.7
    X_P5_T40  CAP_M10_T40  0.6
    X_P5_T40  CAP_M11_T40  2.9
    X_P6_T40  COST      31.7
    X_P6_T40  BAL_P6_T40  1
    X_P6_T40  CAP_M0_T40  1.3
    X_P6_T40  CAP_M1_T40  1.8
    X_P6_T40  CAP_M2_T40  2.5
    X_P6_T40  CAP_M3_T40  2.2
    X_P6_T40  CAP_M4_T40  0.7
    X_P6_T40  CAP_M5_T40  1.5
    X_P6_T40  CAP_M6_T40  0.6
    X_P6_T40  CAP_M7_T40  1.9
    X_P6_T40  CAP_M8_T40  1.3
    X_P6_T40  CAP_M9_T40  2.1
    X_P6_T40  CAP_M10_T40  2.4
    X_P6_T40  CAP_M11_T40  1.1
    X_P7_T40  COST      39.1
    X_P7_T40  BAL_P7_T40  1
    X_P7_T40  CAP_M0_T40  1.1
    X_P7_T40  CAP_M1_T40  2.2
    X_P7_T40  CAP_M2_T40  2.5
    X_P7_T40  CAP_M3_T40  2.9
    X_P7_T40  CAP_M4_T40  1
    X_P7_T40  CAP_M5_T40  2.9
    X_P7_T40  CAP_M6_T40  2.4
    X_P7_T40  CAP_M7_T40  1.6
    X_P7_T40  CAP_M8_T40  1.4
    X_P7_T40  CAP_M9_T40  0.6
    X_P7_T40  CAP_M10_T40  1.6
    X_P7_T40  CAP_M11_T40  1.7
    X_P8_T40  COST      38.8
    X_P8_T40  BAL_P8_T40  1
    X_P8_T40  CAP_M0_T40  1.8
    X_P8_T40  CAP_M1_T40  0.7
    X_P8_T40  CAP_M2_T40  2.7
    X_P8_T40  CAP_M3_T40  2.3
    X_P8_T40  CAP_M4_T40  1.6
    X_P8_T40  CAP_M5_T40  1.3
    X_P8_T40  CAP_M6_T40  2.9
    X_P8_T40  CAP_M7_T40  1.1
    X_P8_T40  CAP_M8_T40  1.5
    X_P8_T40  CAP_M9_T40  2.1
    X_P8_T40  CAP_M10_T40  1.6
    X_P8_T40  CAP_M11_T40  0.7
    X_P9_T40  COST      38.8
    X_P9_T40  BAL_P9_T40  1
    X_P9_T40  CAP_M0_T40  1.3
    X_P9_T40  CAP_M1_T40  2.8
    X_P9_T40  CAP_M2_T40  1.3
    X_P9_T40  CAP_M3_T40  0.6
    X_P9_T40  CAP_M4_T40  1.7
    X_P9_T40  CAP_M5_T40  2.5
    X_P9_T40  CAP_M6_T40  1
    X_P9_T40  CAP_M7_T40  2.5
    X_P9_T40  CAP_M8_T40  2.7
    X_P9_T40  CAP_M9_T40  1.1
    X_P9_T40  CAP_M10_T40  1.8
    X_P9_T40  CAP_M11_T40  2.8
    X_P10_T40  COST      28.4
    X_P10_T40  BAL_P10_T40  1
    X_P10_T40  CAP_M0_T40  0.8
    X_P10_T40  CAP_M1_T40  0.8
    X_P10_T40  CAP_M2_T40  1.3
    X_P10_T40  CAP_M3_T40  0.8
    X_P10_T40  CAP_M4_T40  0.7
    X_P10_T40  CAP_M5_T40  1.7
    X_P10_T40  CAP_M6_T40  1.4
    X_P10_T40  CAP_M7_T40  1.3
    X_P10_T40  CAP_M8_T40  2.9
    X_P10_T40  CAP_M9_T40  1.6
    X_P10_T40  CAP_M10_T40  2.9
    X_P10_T40  CAP_M11_T40  0.7
    X_P11_T40  COST      33.9
    X_P11_T40  BAL_P11_T40  1
    X_P11_T40  CAP_M0_T40  2.4
    X_P11_T40  CAP_M1_T40  1.8
    X_P11_T40  CAP_M2_T40  1.8
    X_P11_T40  CAP_M3_T40  1.5
    X_P11_T40  CAP_M4_T40  2.8
    X_P11_T40  CAP_M5_T40  1.4
    X_P11_T40  CAP_M6_T40  0.7
    X_P11_T40  CAP_M7_T40  0.7
    X_P11_T40  CAP_M8_T40  2
    X_P11_T40  CAP_M9_T40  1.5
    X_P11_T40  CAP_M10_T40  1.7
    X_P11_T40  CAP_M11_T40  2.8
    X_P12_T40  COST      31.9
    X_P12_T40  BAL_P12_T40  1
    X_P12_T40  CAP_M0_T40  2.4
    X_P12_T40  CAP_M1_T40  2.3
    X_P12_T40  CAP_M2_T40  1.7
    X_P12_T40  CAP_M3_T40  2
    X_P12_T40  CAP_M4_T40  1.9
    X_P12_T40  CAP_M5_T40  1.2
    X_P12_T40  CAP_M6_T40  1.7
    X_P12_T40  CAP_M7_T40  1.4
    X_P12_T40  CAP_M8_T40  2
    X_P12_T40  CAP_M9_T40  1.6
    X_P12_T40  CAP_M10_T40  1.3
    X_P12_T40  CAP_M11_T40  2.7
    X_P13_T40  COST      28.2
    X_P13_T40  BAL_P13_T40  1
    X_P13_T40  CAP_M0_T40  2.2
    X_P13_T40  CAP_M1_T40  0.8
    X_P13_T40  CAP_M2_T40  2.7
    X_P13_T40  CAP_M3_T40  2.1
    X_P13_T40  CAP_M4_T40  1.8
    X_P13_T40  CAP_M5_T40  1.2
    X_P13_T40  CAP_M6_T40  1
    X_P13_T40  CAP_M7_T40  1.2
    X_P13_T40  CAP_M8_T40  1.8
    X_P13_T40  CAP_M9_T40  1
    X_P13_T40  CAP_M10_T40  1.3
    X_P13_T40  CAP_M11_T40  1.2
    X_P14_T40  COST      30.2
    X_P14_T40  BAL_P14_T40  1
    X_P14_T40  CAP_M0_T40  1.1
    X_P14_T40  CAP_M1_T40  1.8
    X_P14_T40  CAP_M2_T40  1.9
    X_P14_T40  CAP_M3_T40  1.4
    X_P14_T40  CAP_M4_T40  1.5
    X_P14_T40  CAP_M5_T40  1.9
    X_P14_T40  CAP_M6_T40  2.7
    X_P14_T40  CAP_M7_T40  0.8
    X_P14_T40  CAP_M8_T40  1.7
    X_P14_T40  CAP_M9_T40  2.2
    X_P14_T40  CAP_M10_T40  2.7
    X_P14_T40  CAP_M11_T40  1.2
    X_P15_T40  COST      44.3
    X_P15_T40  BAL_P15_T40  1
    X_P15_T40  CAP_M0_T40  0.8
    X_P15_T40  CAP_M1_T40  0.8
    X_P15_T40  CAP_M2_T40  2.4
    X_P15_T40  CAP_M3_T40  2.3
    X_P15_T40  CAP_M4_T40  1.8
    X_P15_T40  CAP_M5_T40  0.8
    X_P15_T40  CAP_M6_T40  0.8
    X_P15_T40  CAP_M7_T40  1.4
    X_P15_T40  CAP_M8_T40  1.3
    X_P15_T40  CAP_M9_T40  1.8
    X_P15_T40  CAP_M10_T40  2.1
    X_P15_T40  CAP_M11_T40  1.5
    X_P16_T40  COST      24.5
    X_P16_T40  BAL_P16_T40  1
    X_P16_T40  CAP_M0_T40  1.1
    X_P16_T40  CAP_M1_T40  0.5
    X_P16_T40  CAP_M2_T40  1.2
    X_P16_T40  CAP_M3_T40  2.8
    X_P16_T40  CAP_M4_T40  1.1
    X_P16_T40  CAP_M5_T40  1
    X_P16_T40  CAP_M6_T40  1.8
    X_P16_T40  CAP_M7_T40  1.8
    X_P16_T40  CAP_M8_T40  2.5
    X_P16_T40  CAP_M9_T40  1.6
    X_P16_T40  CAP_M10_T40  2.7
    X_P16_T40  CAP_M11_T40  1.3
    X_P17_T40  COST      19.9
    X_P17_T40  BAL_P17_T40  1
    X_P17_T40  CAP_M0_T40  1.8
    X_P17_T40  CAP_M1_T40  2.2
    X_P17_T40  CAP_M2_T40  2.7
    X_P17_T40  CAP_M3_T40  2.2
    X_P17_T40  CAP_M4_T40  1.2
    X_P17_T40  CAP_M5_T40  1.3
    X_P17_T40  CAP_M6_T40  0.7
    X_P17_T40  CAP_M7_T40  1.3
    X_P17_T40  CAP_M8_T40  2.8
    X_P17_T40  CAP_M9_T40  1.4
    X_P17_T40  CAP_M10_T40  2.7
    X_P17_T40  CAP_M11_T40  2.2
    X_P18_T40  COST      43.8
    X_P18_T40  BAL_P18_T40  1
    X_P18_T40  CAP_M0_T40  1.3
    X_P18_T40  CAP_M1_T40  2.9
    X_P18_T40  CAP_M2_T40  1.7
    X_P18_T40  CAP_M3_T40  0.5
    X_P18_T40  CAP_M4_T40  2.4
    X_P18_T40  CAP_M5_T40  2.9
    X_P18_T40  CAP_M6_T40  2.1
    X_P18_T40  CAP_M7_T40  2.7
    X_P18_T40  CAP_M8_T40  1.4
    X_P18_T40  CAP_M9_T40  0.5
    X_P18_T40  CAP_M10_T40  2.1
    X_P18_T40  CAP_M11_T40  1.1
    X_P19_T40  COST      35.8
    X_P19_T40  BAL_P19_T40  1
    X_P19_T40  CAP_M0_T40  2.2
    X_P19_T40  CAP_M1_T40  2.8
    X_P19_T40  CAP_M2_T40  1.6
    X_P19_T40  CAP_M3_T40  2.6
    X_P19_T40  CAP_M4_T40  1.7
    X_P19_T40  CAP_M5_T40  1.3
    X_P19_T40  CAP_M6_T40  1
    X_P19_T40  CAP_M7_T40  1.5
    X_P19_T40  CAP_M8_T40  0.6
    X_P19_T40  CAP_M9_T40  2.8
    X_P19_T40  CAP_M10_T40  0.8
    X_P19_T40  CAP_M11_T40  0.8
    X_P20_T40  COST      23.5
    X_P20_T40  BAL_P20_T40  1
    X_P20_T40  CAP_M0_T40  1.2
    X_P20_T40  CAP_M1_T40  2
    X_P20_T40  CAP_M2_T40  1.4
    X_P20_T40  CAP_M3_T40  2.3
    X_P20_T40  CAP_M4_T40  1.5
    X_P20_T40  CAP_M5_T40  1.6
    X_P20_T40  CAP_M6_T40  2.6
    X_P20_T40  CAP_M7_T40  2.1
    X_P20_T40  CAP_M8_T40  1.2
    X_P20_T40  CAP_M9_T40  1
    X_P20_T40  CAP_M10_T40  2.3
    X_P20_T40  CAP_M11_T40  1.8
    X_P21_T40  COST      13.3
    X_P21_T40  BAL_P21_T40  1
    X_P21_T40  CAP_M0_T40  2.4
    X_P21_T40  CAP_M1_T40  1.9
    X_P21_T40  CAP_M2_T40  2.9
    X_P21_T40  CAP_M3_T40  2.7
    X_P21_T40  CAP_M4_T40  2.7
    X_P21_T40  CAP_M5_T40  1.7
    X_P21_T40  CAP_M6_T40  2.8
    X_P21_T40  CAP_M7_T40  2.5
    X_P21_T40  CAP_M8_T40  3
    X_P21_T40  CAP_M9_T40  2.7
    X_P21_T40  CAP_M10_T40  2.4
    X_P21_T40  CAP_M11_T40  2.4
    X_P22_T40  COST      23.4
    X_P22_T40  BAL_P22_T40  1
    X_P22_T40  CAP_M0_T40  0.6
    X_P22_T40  CAP_M1_T40  2.9
    X_P22_T40  CAP_M2_T40  2.1
    X_P22_T40  CAP_M3_T40  2.1
    X_P22_T40  CAP_M4_T40  2
    X_P22_T40  CAP_M5_T40  2.4
    X_P22_T40  CAP_M6_T40  2.2
    X_P22_T40  CAP_M7_T40  0.7
    X_P22_T40  CAP_M8_T40  0.5
    X_P22_T40  CAP_M9_T40  1.8
    X_P22_T40  CAP_M10_T40  1.1
    X_P22_T40  CAP_M11_T40  2.6
    X_P23_T40  COST      46.2
    X_P23_T40  BAL_P23_T40  1
    X_P23_T40  CAP_M0_T40  2.9
    X_P23_T40  CAP_M1_T40  1.2
    X_P23_T40  CAP_M2_T40  1.8
    X_P23_T40  CAP_M3_T40  1.8
    X_P23_T40  CAP_M4_T40  1.5
    X_P23_T40  CAP_M5_T40  0.5
    X_P23_T40  CAP_M6_T40  2.8
    X_P23_T40  CAP_M7_T40  1.9
    X_P23_T40  CAP_M8_T40  2.2
    X_P23_T40  CAP_M9_T40  2.9
    X_P23_T40  CAP_M10_T40  2.1
    X_P23_T40  CAP_M11_T40  2.2
    X_P24_T40  COST      19.1
    X_P24_T40  BAL_P24_T40  1
    X_P24_T40  CAP_M0_T40  1.1
    X_P24_T40  CAP_M1_T40  2.5
    X_P24_T40  CAP_M2_T40  1.3
    X_P24_T40  CAP_M3_T40  2.8
    X_P24_T40  CAP_M4_T40  1.1
    X_P24_T40  CAP_M5_T40  2
    X_P24_T40  CAP_M6_T40  1.4
    X_P24_T40  CAP_M7_T40  0.5
    X_P24_T40  CAP_M8_T40  1.2
    X_P24_T40  CAP_M9_T40  2.4
    X_P24_T40  CAP_M10_T40  0.6
    X_P24_T40  CAP_M11_T40  1.9
    S_P0_T40  COST      1.9
    S_P0_T40  BAL_P0_T40  -1
    S_P0_T40  STORAGE_T40  1
    S_P0_T40  BAL_P0_T41  1
    S_P1_T40  COST      3.9
    S_P1_T40  BAL_P1_T40  -1
    S_P1_T40  STORAGE_T40  1
    S_P1_T40  BAL_P1_T41  1
    S_P2_T40  COST      2.7
    S_P2_T40  BAL_P2_T40  -1
    S_P2_T40  STORAGE_T40  1
    S_P2_T40  BAL_P2_T41  1
    S_P3_T40  COST      1.5
    S_P3_T40  BAL_P3_T40  -1
    S_P3_T40  STORAGE_T40  1
    S_P3_T40  BAL_P3_T41  1
    S_P4_T40  COST      2.5
    S_P4_T40  BAL_P4_T40  -1
    S_P4_T40  STORAGE_T40  1
    S_P4_T40  BAL_P4_T41  1
    S_P5_T40  COST      3.2
    S_P5_T40  BAL_P5_T40  -1
    S_P5_T40  STORAGE_T40  1
    S_P5_T40  BAL_P5_T41  1
    S_P6_T40  COST      1.6
    S_P6_T40  BAL_P6_T40  -1
    S_P6_T40  STORAGE_T40  1
    S_P6_T40  BAL_P6_T41  1
    S_P7_T40  COST      2.4
    S_P7_T40  BAL_P7_T40  -1
    S_P7_T40  STORAGE_T40  1
    S_P7_T40  BAL_P7_T41  1
    S_P8_T40  COST      4.2
    S_P8_T40  BAL_P8_T40  -1
    S_P8_T40  STORAGE_T40  1
    S_P8_T40  BAL_P8_T41  1
    S_P9_T40  COST      1.3
    S_P9_T40  BAL_P9_T40  -1
    S_P9_T40  STORAGE_T40  1
    S_P9_T40  BAL_P9_T41  1
    S_P10_T40  COST      2.4
    S_P10_T40  BAL_P10_T40  -1
    S_P10_T40  STORAGE_T40  1
    S_P10_T40  BAL_P10_T41  1
    S_P11_T40  COST      1
    S_P11_T40  BAL_P11_T40  -1
    S_P11_T40  STORAGE_T40  1
    S_P11_T40  BAL_P11_T41  1
    S_P12_T40  COST      1.8
    S_P12_T40  BAL_P12_T40  -1
    S_P12_T40  STORAGE_T40  1
    S_P12_T40  BAL_P12_T41  1
    S_P13_T40  COST      3.9
    S_P13_T40  BAL_P13_T40  -1
    S_P13_T40  STORAGE_T40  1
    S_P13_T40  BAL_P13_T41  1
    S_P14_T40  COST      3.1
    S_P14_T40  BAL_P14_T40  -1
    S_P14_T40  STORAGE_T40  1
    S_P14_T40  BAL_P14_T41  1
    S_P15_T40  COST      2.2
    S_P15_T40  BAL_P15_T40  -1
    S_P15_T40  STORAGE_T40  1
    S_P15_T40  BAL_P15_T41  1
    S_P16_T40  COST      3.7
    S_P16_T40  BAL_P16_T40  -1
    S_P16_T40  STORAGE_T40  1
    S_P16_T40  BAL_P16_T41  1
    S_P17_T40  COST      2.9
    S_P17_T40  BAL_P17_T40  -1
    S_P17_T40  STORAGE_T40  1
    S_P17_T40  BAL_P17_T41  1
    S_P18_T40  COST      3
    S_P18_T40  BAL_P18_T40  -1
    S_P18_T40  STORAGE_T40  1
    S_P18_T40  BAL_P18_T41  1
    S_P19_T40  COST      2.7
    S_P19_T40  BAL_P19_T40  -1
    S_P19_T40  STORAGE_T40  1
    S_P19_T40  BAL_P19_T41  1
    S_P20_T40  COST      4.8
    S_P20_T40  BAL_P20_T40  -1
    S_P20_T40  STORAGE_T40  1
    S_P20_T40  BAL_P20_T41  1
    S_P21_T40  COST      4.3
    S_P21_T40  BAL_P21_T40  -1
    S_P21_T40  STORAGE_T40  1
    S_P21_T40  BAL_P21_T41  1
    S_P22_T40  COST      1.2
    S_P22_T40  BAL_P22_T40  -1
    S_P22_T40  STORAGE_T40  1
    S_P22_T40  BAL_P22_T41  1
    S_P23_T40  COST      1.6
    S_P23_T40  BAL_P23_T40  -1
    S_P23_T40  STORAGE_T40  1
    S_P23_T40  BAL_P23_T41  1
    S_P24_T40  COST      1.2
    S_P24_T40  BAL_P24_T40  -1
    S_P24_T40  STORAGE_T40  1
    S_P24_T40  BAL_P24_T41  1
    X_P0_T41  COST      40.1
    X_P0_T41  BAL_P0_T41  1
    X_P0_T41  CAP_M0_T41  1.4
    X_P0_T41  CAP_M1_T41  2.4
    X_P0_T41  CAP_M2_T41  0.5
    X_P0_T41  CAP_M3_T41  1
    X_P0_T41  CAP_M4_T41  1.3
    X_P0_T41  CAP_M5_T41  0.8
    X_P0_T41  CAP_M6_T41  1
    X_P0_T41  CAP_M7_T41  1.7
    X_P0_T41  CAP_M8_T41  0.7
    X_P0_T41  CAP_M9_T41  1.5
    X_P0_T41  CAP_M10_T41  2.4
    X_P0_T41  CAP_M11_T41  0.9
    X_P1_T41  COST      39.5
    X_P1_T41  BAL_P1_T41  1
    X_P1_T41  CAP_M0_T41  1
    X_P1_T41  CAP_M1_T41  2.2
    X_P1_T41  CAP_M2_T41  1
    X_P1_T41  CAP_M3_T41  2.4
    X_P1_T41  CAP_M4_T41  3
    X_P1_T41  CAP_M5_T41  2.2
    X_P1_T41  CAP_M6_T41  2.7
    X_P1_T41  CAP_M7_T41  1.4
    X_P1_T41  CAP_M8_T41  1.9
    X_P1_T41  CAP_M9_T41  0.9
    X_P1_T41  CAP_M10_T41  2.9
    X_P1_T41  CAP_M11_T41  2.2
    X_P2_T41  COST      19.6
    X_P2_T41  BAL_P2_T41  1
    X_P2_T41  CAP_M0_T41  2.6
    X_P2_T41  CAP_M1_T41  1.4
    X_P2_T41  CAP_M2_T41  0.8
    X_P2_T41  CAP_M3_T41  2.3
    X_P2_T41  CAP_M4_T41  2.5
    X_P2_T41  CAP_M5_T41  1
    X_P2_T41  CAP_M6_T41  1.2
    X_P2_T41  CAP_M7_T41  1
    X_P2_T41  CAP_M8_T41  1.1
    X_P2_T41  CAP_M9_T41  1.9
    X_P2_T41  CAP_M10_T41  3
    X_P2_T41  CAP_M11_T41  0.8
    X_P3_T41  COST      42.7
    X_P3_T41  BAL_P3_T41  1
    X_P3_T41  CAP_M0_T41  1.8
    X_P3_T41  CAP_M1_T41  2.8
    X_P3_T41  CAP_M2_T41  2.1
    X_P3_T41  CAP_M3_T41  1.6
    X_P3_T41  CAP_M4_T41  1.1
    X_P3_T41  CAP_M5_T41  0.7
    X_P3_T41  CAP_M6_T41  2
    X_P3_T41  CAP_M7_T41  2.7
    X_P3_T41  CAP_M8_T41  1.9
    X_P3_T41  CAP_M9_T41  2.6
    X_P3_T41  CAP_M10_T41  2.1
    X_P3_T41  CAP_M11_T41  2.3
    X_P4_T41  COST      27.3
    X_P4_T41  BAL_P4_T41  1
    X_P4_T41  CAP_M0_T41  1.9
    X_P4_T41  CAP_M1_T41  2
    X_P4_T41  CAP_M2_T41  2.5
    X_P4_T41  CAP_M3_T41  2.7
    X_P4_T41  CAP_M4_T41  2.1
    X_P4_T41  CAP_M5_T41  1.2
    X_P4_T41  CAP_M6_T41  1.6
    X_P4_T41  CAP_M7_T41  1.6
    X_P4_T41  CAP_M8_T41  2.1
    X_P4_T41  CAP_M9_T41  1.7
    X_P4_T41  CAP_M10_T41  0.8
    X_P4_T41  CAP_M11_T41  1.6
    X_P5_T41  COST      22.8
    X_P5_T41  BAL_P5_T41  1
    X_P5_T41  CAP_M0_T41  2.1
    X_P5_T41  CAP_M1_T41  0.7
    X_P5_T41  CAP_M2_T41  2.9
    X_P5_T41  CAP_M3_T41  1.3
    X_P5_T41  CAP_M4_T41  2.6
    X_P5_T41  CAP_M5_T41  1.9
    X_P5_T41  CAP_M6_T41  2.4
    X_P5_T41  CAP_M7_T41  1.8
    X_P5_T41  CAP_M8_T41  1.4
    X_P5_T41  CAP_M9_T41  0.7
    X_P5_T41  CAP_M10_T41  0.6
    X_P5_T41  CAP_M11_T41  2.9
    X_P6_T41  COST      24.5
    X_P6_T41  BAL_P6_T41  1
    X_P6_T41  CAP_M0_T41  1.3
    X_P6_T41  CAP_M1_T41  1.8
    X_P6_T41  CAP_M2_T41  2.5
    X_P6_T41  CAP_M3_T41  2.2
    X_P6_T41  CAP_M4_T41  0.7
    X_P6_T41  CAP_M5_T41  1.5
    X_P6_T41  CAP_M6_T41  0.6
    X_P6_T41  CAP_M7_T41  1.9
    X_P6_T41  CAP_M8_T41  1.3
    X_P6_T41  CAP_M9_T41  2.1
    X_P6_T41  CAP_M10_T41  2.4
    X_P6_T41  CAP_M11_T41  1.1
    X_P7_T41  COST      32.4
    X_P7_T41  BAL_P7_T41  1
    X_P7_T41  CAP_M0_T41  1.1
    X_P7_T41  CAP_M1_T41  2.2
    X_P7_T41  CAP_M2_T41  2.5
    X_P7_T41  CAP_M3_T41  2.9
    X_P7_T41  CAP_M4_T41  1
    X_P7_T41  CAP_M5_T41  2.9
    X_P7_T41  CAP_M6_T41  2.4
    X_P7_T41  CAP_M7_T41  1.6
    X_P7_T41  CAP_M8_T41  1.4
    X_P7_T41  CAP_M9_T41  0.6
    X_P7_T41  CAP_M10_T41  1.6
    X_P7_T41  CAP_M11_T41  1.7
    X_P8_T41  COST      37.9
    X_P8_T41  BAL_P8_T41  1
    X_P8_T41  CAP_M0_T41  1.8
    X_P8_T41  CAP_M1_T41  0.7
    X_P8_T41  CAP_M2_T41  2.7
    X_P8_T41  CAP_M3_T41  2.3
    X_P8_T41  CAP_M4_T41  1.6
    X_P8_T41  CAP_M5_T41  1.3
    X_P8_T41  CAP_M6_T41  2.9
    X_P8_T41  CAP_M7_T41  1.1
    X_P8_T41  CAP_M8_T41  1.5
    X_P8_T41  CAP_M9_T41  2.1
    X_P8_T41  CAP_M10_T41  1.6
    X_P8_T41  CAP_M11_T41  0.7
    X_P9_T41  COST      17.8
    X_P9_T41  BAL_P9_T41  1
    X_P9_T41  CAP_M0_T41  1.3
    X_P9_T41  CAP_M1_T41  2.8
    X_P9_T41  CAP_M2_T41  1.3
    X_P9_T41  CAP_M3_T41  0.6
    X_P9_T41  CAP_M4_T41  1.7
    X_P9_T41  CAP_M5_T41  2.5
    X_P9_T41  CAP_M6_T41  1
    X_P9_T41  CAP_M7_T41  2.5
    X_P9_T41  CAP_M8_T41  2.7
    X_P9_T41  CAP_M9_T41  1.1
    X_P9_T41  CAP_M10_T41  1.8
    X_P9_T41  CAP_M11_T41  2.8
    X_P10_T41  COST      17.4
    X_P10_T41  BAL_P10_T41  1
    X_P10_T41  CAP_M0_T41  0.8
    X_P10_T41  CAP_M1_T41  0.8
    X_P10_T41  CAP_M2_T41  1.3
    X_P10_T41  CAP_M3_T41  0.8
    X_P10_T41  CAP_M4_T41  0.7
    X_P10_T41  CAP_M5_T41  1.7
    X_P10_T41  CAP_M6_T41  1.4
    X_P10_T41  CAP_M7_T41  1.3
    X_P10_T41  CAP_M8_T41  2.9
    X_P10_T41  CAP_M9_T41  1.6
    X_P10_T41  CAP_M10_T41  2.9
    X_P10_T41  CAP_M11_T41  0.7
    X_P11_T41  COST      38.3
    X_P11_T41  BAL_P11_T41  1
    X_P11_T41  CAP_M0_T41  2.4
    X_P11_T41  CAP_M1_T41  1.8
    X_P11_T41  CAP_M2_T41  1.8
    X_P11_T41  CAP_M3_T41  1.5
    X_P11_T41  CAP_M4_T41  2.8
    X_P11_T41  CAP_M5_T41  1.4
    X_P11_T41  CAP_M6_T41  0.7
    X_P11_T41  CAP_M7_T41  0.7
    X_P11_T41  CAP_M8_T41  2
    X_P11_T41  CAP_M9_T41  1.5
    X_P11_T41  CAP_M10_T41  1.7
    X_P11_T41  CAP_M11_T41  2.8
    X_P12_T41  COST      18.5
    X_P12_T41  BAL_P12_T41  1
    X_P12_T41  CAP_M0_T41  2.4
    X_P12_T41  CAP_M1_T41  2.3
    X_P12_T41  CAP_M2_T41  1.7
    X_P12_T41  CAP_M3_T41  2
    X_P12_T41  CAP_M4_T41  1.9
    X_P12_T41  CAP_M5_T41  1.2
    X_P12_T41  CAP_M6_T41  1.7
    X_P12_T41  CAP_M7_T41  1.4
    X_P12_T41  CAP_M8_T41  2
    X_P12_T41  CAP_M9_T41  1.6
    X_P12_T41  CAP_M10_T41  1.3
    X_P12_T41  CAP_M11_T41  2.7
    X_P13_T41  COST      37
    X_P13_T41  BAL_P13_T41  1
    X_P13_T41  CAP_M0_T41  2.2
    X_P13_T41  CAP_M1_T41  0.8
    X_P13_T41  CAP_M2_T41  2.7
    X_P13_T41  CAP_M3_T41  2.1
    X_P13_T41  CAP_M4_T41  1.8
    X_P13_T41  CAP_M5_T41  1.2
    X_P13_T41  CAP_M6_T41  1
    X_P13_T41  CAP_M7_T41  1.2
    X_P13_T41  CAP_M8_T41  1.8
    X_P13_T41  CAP_M9_T41  1
    X_P13_T41  CAP_M10_T41  1.3
    X_P13_T41  CAP_M11_T41  1.2
    X_P14_T41  COST      10.9
    X_P14_T41  BAL_P14_T41  1
    X_P14_T41  CAP_M0_T41  1.1
    X_P14_T41  CAP_M1_T41  1.8
    X_P14_T41  CAP_M2_T41  1.9
    X_P14_T41  CAP_M3_T41  1.4
    X_P14_T41  CAP_M4_T41  1.5
    X_P14_T41  CAP_M5_T41  1.9
    X_P14_T41  CAP_M6_T41  2.7
    X_P14_T41  CAP_M7_T41  0.8
    X_P14_T41  CAP_M8_T41  1.7
    X_P14_T41  CAP_M9_T41  2.2
    X_P14_T41  CAP_M10_T41  2.7
    X_P14_T41  CAP_M11_T41  1.2
    X_P15_T41  COST      14.4
    X_P15_T41  BAL_P15_T41  1
    X_P15_T41  CAP_M0_T41  0.8
    X_P15_T41  CAP_M1_T41  0.8
    X_P15_T41  CAP_M2_T41  2.4
    X_P15_T41  CAP_M3_T41  2.3
    X_P15_T41  CAP_M4_T41  1.8
    X_P15_T41  CAP_M5_T41  0.8
    X_P15_T41  CAP_M6_T41  0.8
    X_P15_T41  CAP_M7_T41  1.4
    X_P15_T41  CAP_M8_T41  1.3
    X_P15_T41  CAP_M9_T41  1.8
    X_P15_T41  CAP_M10_T41  2.1
    X_P15_T41  CAP_M11_T41  1.5
    X_P16_T41  COST      20.8
    X_P16_T41  BAL_P16_T41  1
    X_P16_T41  CAP_M0_T41  1.1
    X_P16_T41  CAP_M1_T41  0.5
    X_P16_T41  CAP_M2_T41  1.2
    X_P16_T41  CAP_M3_T41  2.8
    X_P16_T41  CAP_M4_T41  1.1
    X_P16_T41  CAP_M5_T41  1
    X_P16_T41  CAP_M6_T41  1.8
    X_P16_T41  CAP_M7_T41  1.8
    X_P16_T41  CAP_M8_T41  2.5
    X_P16_T41  CAP_M9_T41  1.6
    X_P16_T41  CAP_M10_T41  2.7
    X_P16_T41  CAP_M11_T41  1.3
    X_P17_T41  COST      30.3
    X_P17_T41  BAL_P17_T41  1
    X_P17_T41  CAP_M0_T41  1.8
    X_P17_T41  CAP_M1_T41  2.2
    X_P17_T41  CAP_M2_T41  2.7
    X_P17_T41  CAP_M3_T41  2.2
    X_P17_T41  CAP_M4_T41  1.2
    X_P17_T41  CAP_M5_T41  1.3
    X_P17_T41  CAP_M6_T41  0.7
    X_P17_T41  CAP_M7_T41  1.3
    X_P17_T41  CAP_M8_T41  2.8
    X_P17_T41  CAP_M9_T41  1.4
    X_P17_T41  CAP_M10_T41  2.7
    X_P17_T41  CAP_M11_T41  2.2
    X_P18_T41  COST      35.7
    X_P18_T41  BAL_P18_T41  1
    X_P18_T41  CAP_M0_T41  1.3
    X_P18_T41  CAP_M1_T41  2.9
    X_P18_T41  CAP_M2_T41  1.7
    X_P18_T41  CAP_M3_T41  0.5
    X_P18_T41  CAP_M4_T41  2.4
    X_P18_T41  CAP_M5_T41  2.9
    X_P18_T41  CAP_M6_T41  2.1
    X_P18_T41  CAP_M7_T41  2.7
    X_P18_T41  CAP_M8_T41  1.4
    X_P18_T41  CAP_M9_T41  0.5
    X_P18_T41  CAP_M10_T41  2.1
    X_P18_T41  CAP_M11_T41  1.1
    X_P19_T41  COST      26.6
    X_P19_T41  BAL_P19_T41  1
    X_P19_T41  CAP_M0_T41  2.2
    X_P19_T41  CAP_M1_T41  2.8
    X_P19_T41  CAP_M2_T41  1.6
    X_P19_T41  CAP_M3_T41  2.6
    X_P19_T41  CAP_M4_T41  1.7
    X_P19_T41  CAP_M5_T41  1.3
    X_P19_T41  CAP_M6_T41  1
    X_P19_T41  CAP_M7_T41  1.5
    X_P19_T41  CAP_M8_T41  0.6
    X_P19_T41  CAP_M9_T41  2.8
    X_P19_T41  CAP_M10_T41  0.8
    X_P19_T41  CAP_M11_T41  0.8
    X_P20_T41  COST      33.9
    X_P20_T41  BAL_P20_T41  1
    X_P20_T41  CAP_M0_T41  1.2
    X_P20_T41  CAP_M1_T41  2
    X_P20_T41  CAP_M2_T41  1.4
    X_P20_T41  CAP_M3_T41  2.3
    X_P20_T41  CAP_M4_T41  1.5
    X_P20_T41  CAP_M5_T41  1.6
    X_P20_T41  CAP_M6_T41  2.6
    X_P20_T41  CAP_M7_T41  2.1
    X_P20_T41  CAP_M8_T41  1.2
    X_P20_T41  CAP_M9_T41  1
    X_P20_T41  CAP_M10_T41  2.3
    X_P20_T41  CAP_M11_T41  1.8
    X_P21_T41  COST      14.5
    X_P21_T41  BAL_P21_T41  1
    X_P21_T41  CAP_M0_T41  2.4
    X_P21_T41  CAP_M1_T41  1.9
    X_P21_T41  CAP_M2_T41  2.9
    X_P21_T41  CAP_M3_T41  2.7
    X_P21_T41  CAP_M4_T41  2.7
    X_P21_T41  CAP_M5_T41  1.7
    X_P21_T41  CAP_M6_T41  2.8
    X_P21_T41  CAP_M7_T41  2.5
    X_P21_T41  CAP_M8_T41  3
    X_P21_T41  CAP_M9_T41  2.7
    X_P21_T41  CAP_M10_T41  2.4
    X_P21_T41  CAP_M11_T41  2.4
    X_P22_T41  COST      17.5
    X_P22_T41  BAL_P22_T41  1
    X_P22_T41  CAP_M0_T41  0.6
    X_P22_T41  CAP_M1_T41  2.9
    X_P22_T41  CAP_M2_T41  2.1
    X_P22_T41  CAP_M3_T41  2.1
    X_P22_T41  CAP_M4_T41  2
    X_P22_T41  CAP_M5_T41  2.4
    X_P22_T41  CAP_M6_T41  2.2
    X_P22_T41  CAP_M7_T41  0.7
    X_P22_T41  CAP_M8_T41  0.5
    X_P22_T41  CAP_M9_T41  1.8
    X_P22_T41  CAP_M10_T41  1.1
    X_P22_T41  CAP_M11_T41  2.6
    X_P23_T41  COST      15.4
    X_P23_T41  BAL_P23_T41  1
    X_P23_T41  CAP_M0_T41  2.9
    X_P23_T41  CAP_M1_T41  1.2
    X_P23_T41  CAP_M2_T41  1.8
    X_P23_T41  CAP_M3_T41  1.8
    X_P23_T41  CAP_M4_T41  1.5
    X_P23_T41  CAP_M5_T41  0.5
    X_P23_T41  CAP_M6_T41  2.8
    X_P23_T41  CAP_M7_T41  1.9
    X_P23_T41  CAP_M8_T41  2.2
    X_P23_T41  CAP_M9_T41  2.9
    X_P23_T41  CAP_M10_T41  2.1
    X_P23_T41  CAP_M11_T41  2.2
    X_P24_T41  COST      20.4
    X_P24_T41  BAL_P24_T41  1
    X_P24_T41  CAP_M0_T41  1.1
    X_P24_T41  CAP_M1_T41  2.5
    X_P24_T41  CAP_M2_T41  1.3
    X_P24_T41  CAP_M3_T41  2.8
    X_P24_T41  CAP_M4_T41  1.1
    X_P24_T41  CAP_M5_T41  2
    X_P24_T41  CAP_M6_T41  1.4
    X_P24_T41  CAP_M7_T41  0.5
    X_P24_T41  CAP_M8_T41  1.2
    X_P24_T41  CAP_M9_T41  2.4
    X_P24_T41  CAP_M10_T41  0.6
    X_P24_T41  CAP_M11_T41  1.9
    S_P0_T41  COST      1.1
    S_P0_T41  BAL_P0_T41  -1
    S_P0_T41  STORAGE_T41  1
    S_P0_T41  BAL_P0_T42  1
    S_P1_T41  COST      1.6
    S_P1_T41  BAL_P1_T41  -1
    S_P1_T41  STORAGE_T41  1
    S_P1_T41  BAL_P1_T42  1
    S_P2_T41  COST      4.8
    S_P2_T41  BAL_P2_T41  -1
    S_P2_T41  STORAGE_T41  1
    S_P2_T41  BAL_P2_T42  1
    S_P3_T41  COST      4.9
    S_P3_T41  BAL_P3_T41  -1
    S_P3_T41  STORAGE_T41  1
    S_P3_T41  BAL_P3_T42  1
    S_P4_T41  COST      5
    S_P4_T41  BAL_P4_T41  -1
    S_P4_T41  STORAGE_T41  1
    S_P4_T41  BAL_P4_T42  1
    S_P5_T41  COST      4.3
    S_P5_T41  BAL_P5_T41  -1
    S_P5_T41  STORAGE_T41  1
    S_P5_T41  BAL_P5_T42  1
    S_P6_T41  COST      3.7
    S_P6_T41  BAL_P6_T41  -1
    S_P6_T41  STORAGE_T41  1
    S_P6_T41  BAL_P6_T42  1
    S_P7_T41  COST      2.3
    S_P7_T41  BAL_P7_T41  -1
    S_P7_T41  STORAGE_T41  1
    S_P7_T41  BAL_P7_T42  1
    S_P8_T41  COST      3.2
    S_P8_T41  BAL_P8_T41  -1
    S_P8_T41  STORAGE_T41  1
    S_P8_T41  BAL_P8_T42  1
    S_P9_T41  COST      5
    S_P9_T41  BAL_P9_T41  -1
    S_P9_T41  STORAGE_T41  1
    S_P9_T41  BAL_P9_T42  1
    S_P10_T41  COST      1.9
    S_P10_T41  BAL_P10_T41  -1
    S_P10_T41  STORAGE_T41  1
    S_P10_T41  BAL_P10_T42  1
    S_P11_T41  COST      1.8
    S_P11_T41  BAL_P11_T41  -1
    S_P11_T41  STORAGE_T41  1
    S_P11_T41  BAL_P11_T42  1
    S_P12_T41  COST      1.6
    S_P12_T41  BAL_P12_T41  -1
    S_P12_T41  STORAGE_T41  1
    S_P12_T41  BAL_P12_T42  1
    S_P13_T41  COST      2.3
    S_P13_T41  BAL_P13_T41  -1
    S_P13_T41  STORAGE_T41  1
    S_P13_T41  BAL_P13_T42  1
    S_P14_T41  COST      3.3
    S_P14_T41  BAL_P14_T41  -1
    S_P14_T41  STORAGE_T41  1
    S_P14_T41  BAL_P14_T42  1
    S_P15_T41  COST      2.5
    S_P15_T41  BAL_P15_T41  -1
    S_P15_T41  STORAGE_T41  1
    S_P15_T41  BAL_P15_T42  1
    S_P16_T41  COST      4.8
    S_P16_T41  BAL_P16_T41  -1
    S_P16_T41  STORAGE_T41  1
    S_P16_T41  BAL_P16_T42  1
    S_P17_T41  COST      1.8
    S_P17_T41  BAL_P17_T41  -1
    S_P17_T41  STORAGE_T41  1
    S_P17_T41  BAL_P17_T42  1
    S_P18_T41  COST      1
    S_P18_T41  BAL_P18_T41  -1
    S_P18_T41  STORAGE_T41  1
    S_P18_T41  BAL_P18_T42  1
    S_P19_T41  COST      3.3
    S_P19_T41  BAL_P19_T41  -1
    S_P19_T41  STORAGE_T41  1
    S_P19_T41  BAL_P19_T42  1
    S_P20_T41  COST      2.2
    S_P20_T41  BAL_P20_T41  -1
    S_P20_T41  STORAGE_T41  1
    S_P20_T41  BAL_P20_T42  1
    S_P21_T41  COST      2.6
    S_P21_T41  BAL_P21_T41  -1
    S_P21_T41  STORAGE_T41  1
    S_P21_T41  BAL_P21_T42  1
    S_P22_T41  COST      4.7
    S_P22_T41  BAL_P22_T41  -1
    S_P22_T41  STORAGE_T41  1
    S_P22_T41  BAL_P22_T42  1
    S_P23_T41  COST      1.9
    S_P23_T41  BAL_P23_T41  -1
    S_P23_T41  STORAGE_T41  1
    S_P23_T41  BAL_P23_T42  1
    S_P24_T41  COST      2.9
    S_P24_T41  BAL_P24_T41  -1
    S_P24_T41  STORAGE_T41  1
    S_P24_T41  BAL_P24_T42  1
    X_P0_T42  COST      21.4
    X_P0_T42  BAL_P0_T42  1
    X_P0_T42  CAP_M0_T42  1.4
    X_P0_T42  CAP_M1_T42  2.4
    X_P0_T42  CAP_M2_T42  0.5
    X_P0_T42  CAP_M3_T42  1
    X_P0_T42  CAP_M4_T42  1.3
    X_P0_T42  CAP_M5_T42  0.8
    X_P0_T42  CAP_M6_T42  1
    X_P0_T42  CAP_M7_T42  1.7
    X_P0_T42  CAP_M8_T42  0.7
    X_P0_T42  CAP_M9_T42  1.5
    X_P0_T42  CAP_M10_T42  2.4
    X_P0_T42  CAP_M11_T42  0.9
    X_P1_T42  COST      18.2
    X_P1_T42  BAL_P1_T42  1
    X_P1_T42  CAP_M0_T42  1
    X_P1_T42  CAP_M1_T42  2.2
    X_P1_T42  CAP_M2_T42  1
    X_P1_T42  CAP_M3_T42  2.4
    X_P1_T42  CAP_M4_T42  3
    X_P1_T42  CAP_M5_T42  2.2
    X_P1_T42  CAP_M6_T42  2.7
    X_P1_T42  CAP_M7_T42  1.4
    X_P1_T42  CAP_M8_T42  1.9
    X_P1_T42  CAP_M9_T42  0.9
    X_P1_T42  CAP_M10_T42  2.9
    X_P1_T42  CAP_M11_T42  2.2
    X_P2_T42  COST      35.4
    X_P2_T42  BAL_P2_T42  1
    X_P2_T42  CAP_M0_T42  2.6
    X_P2_T42  CAP_M1_T42  1.4
    X_P2_T42  CAP_M2_T42  0.8
    X_P2_T42  CAP_M3_T42  2.3
    X_P2_T42  CAP_M4_T42  2.5
    X_P2_T42  CAP_M5_T42  1
    X_P2_T42  CAP_M6_T42  1.2
    X_P2_T42  CAP_M7_T42  1
    X_P2_T42  CAP_M8_T42  1.1
    X_P2_T42  CAP_M9_T42  1.9
    X_P2_T42  CAP_M10_T42  3
    X_P2_T42  CAP_M11_T42  0.8
    X_P3_T42  COST      44.6
    X_P3_T42  BAL_P3_T42  1
    X_P3_T42  CAP_M0_T42  1.8
    X_P3_T42  CAP_M1_T42  2.8
    X_P3_T42  CAP_M2_T42  2.1
    X_P3_T42  CAP_M3_T42  1.6
    X_P3_T42  CAP_M4_T42  1.1
    X_P3_T42  CAP_M5_T42  0.7
    X_P3_T42  CAP_M6_T42  2
    X_P3_T42  CAP_M7_T42  2.7
    X_P3_T42  CAP_M8_T42  1.9
    X_P3_T42  CAP_M9_T42  2.6
    X_P3_T42  CAP_M10_T42  2.1
    X_P3_T42  CAP_M11_T42  2.3
    X_P4_T42  COST      23.4
    X_P4_T42  BAL_P4_T42  1
    X_P4_T42  CAP_M0_T42  1.9
    X_P4_T42  CAP_M1_T42  2
    X_P4_T42  CAP_M2_T42  2.5
    X_P4_T42  CAP_M3_T42  2.7
    X_P4_T42  CAP_M4_T42  2.1
    X_P4_T42  CAP_M5_T42  1.2
    X_P4_T42  CAP_M6_T42  1.6
    X_P4_T42  CAP_M7_T42  1.6
    X_P4_T42  CAP_M8_T42  2.1
    X_P4_T42  CAP_M9_T42  1.7
    X_P4_T42  CAP_M10_T42  0.8
    X_P4_T42  CAP_M11_T42  1.6
    X_P5_T42  COST      27.5
    X_P5_T42  BAL_P5_T42  1
    X_P5_T42  CAP_M0_T42  2.1
    X_P5_T42  CAP_M1_T42  0.7
    X_P5_T42  CAP_M2_T42  2.9
    X_P5_T42  CAP_M3_T42  1.3
    X_P5_T42  CAP_M4_T42  2.6
    X_P5_T42  CAP_M5_T42  1.9
    X_P5_T42  CAP_M6_T42  2.4
    X_P5_T42  CAP_M7_T42  1.8
    X_P5_T42  CAP_M8_T42  1.4
    X_P5_T42  CAP_M9_T42  0.7
    X_P5_T42  CAP_M10_T42  0.6
    X_P5_T42  CAP_M11_T42  2.9
    X_P6_T42  COST      34.4
    X_P6_T42  BAL_P6_T42  1
    X_P6_T42  CAP_M0_T42  1.3
    X_P6_T42  CAP_M1_T42  1.8
    X_P6_T42  CAP_M2_T42  2.5
    X_P6_T42  CAP_M3_T42  2.2
    X_P6_T42  CAP_M4_T42  0.7
    X_P6_T42  CAP_M5_T42  1.5
    X_P6_T42  CAP_M6_T42  0.6
    X_P6_T42  CAP_M7_T42  1.9
    X_P6_T42  CAP_M8_T42  1.3
    X_P6_T42  CAP_M9_T42  2.1
    X_P6_T42  CAP_M10_T42  2.4
    X_P6_T42  CAP_M11_T42  1.1
    X_P7_T42  COST      27.5
    X_P7_T42  BAL_P7_T42  1
    X_P7_T42  CAP_M0_T42  1.1
    X_P7_T42  CAP_M1_T42  2.2
    X_P7_T42  CAP_M2_T42  2.5
    X_P7_T42  CAP_M3_T42  2.9
    X_P7_T42  CAP_M4_T42  1
    X_P7_T42  CAP_M5_T42  2.9
    X_P7_T42  CAP_M6_T42  2.4
    X_P7_T42  CAP_M7_T42  1.6
    X_P7_T42  CAP_M8_T42  1.4
    X_P7_T42  CAP_M9_T42  0.6
    X_P7_T42  CAP_M10_T42  1.6
    X_P7_T42  CAP_M11_T42  1.7
    X_P8_T42  COST      39.1
    X_P8_T42  BAL_P8_T42  1
    X_P8_T42  CAP_M0_T42  1.8
    X_P8_T42  CAP_M1_T42  0.7
    X_P8_T42  CAP_M2_T42  2.7
    X_P8_T42  CAP_M3_T42  2.3
    X_P8_T42  CAP_M4_T42  1.6
    X_P8_T42  CAP_M5_T42  1.3
    X_P8_T42  CAP_M6_T42  2.9
    X_P8_T42  CAP_M7_T42  1.1
    X_P8_T42  CAP_M8_T42  1.5
    X_P8_T42  CAP_M9_T42  2.1
    X_P8_T42  CAP_M10_T42  1.6
    X_P8_T42  CAP_M11_T42  0.7
    X_P9_T42  COST      27.7
    X_P9_T42  BAL_P9_T42  1
    X_P9_T42  CAP_M0_T42  1.3
    X_P9_T42  CAP_M1_T42  2.8
    X_P9_T42  CAP_M2_T42  1.3
    X_P9_T42  CAP_M3_T42  0.6
    X_P9_T42  CAP_M4_T42  1.7
    X_P9_T42  CAP_M5_T42  2.5
    X_P9_T42  CAP_M6_T42  1
    X_P9_T42  CAP_M7_T42  2.5
    X_P9_T42  CAP_M8_T42  2.7
    X_P9_T42  CAP_M9_T42  1.1
    X_P9_T42  CAP_M10_T42  1.8
    X_P9_T42  CAP_M11_T42  2.8
    X_P10_T42  COST      27.9
    X_P10_T42  BAL_P10_T42  1
    X_P10_T42  CAP_M0_T42  0.8
    X_P10_T42  CAP_M1_T42  0.8
    X_P10_T42  CAP_M2_T42  1.3
    X_P10_T42  CAP_M3_T42  0.8
    X_P10_T42  CAP_M4_T42  0.7
    X_P10_T42  CAP_M5_T42  1.7
    X_P10_T42  CAP_M6_T42  1.4
    X_P10_T42  CAP_M7_T42  1.3
    X_P10_T42  CAP_M8_T42  2.9
    X_P10_T42  CAP_M9_T42  1.6
    X_P10_T42  CAP_M10_T42  2.9
    X_P10_T42  CAP_M11_T42  0.7
    X_P11_T42  COST      13.5
    X_P11_T42  BAL_P11_T42  1
    X_P11_T42  CAP_M0_T42  2.4
    X_P11_T42  CAP_M1_T42  1.8
    X_P11_T42  CAP_M2_T42  1.8
    X_P11_T42  CAP_M3_T42  1.5
    X_P11_T42  CAP_M4_T42  2.8
    X_P11_T42  CAP_M5_T42  1.4
    X_P11_T42  CAP_M6_T42  0.7
    X_P11_T42  CAP_M7_T42  0.7
    X_P11_T42  CAP_M8_T42  2
    X_P11_T42  CAP_M9_T42  1.5
    X_P11_T42  CAP_M10_T42  1.7
    X_P11_T42  CAP_M11_T42  2.8
    X_P12_T42  COST      40.7
    X_P12_T42  BAL_P12_T42  1
    X_P12_T42  CAP_M0_T42  2.4
    X_P12_T42  CAP_M1_T42  2.3
    X_P12_T42  CAP_M2_T42  1.7
    X_P12_T42  CAP_M3_T42  2
    X_P12_T42  CAP_M4_T42  1.9
    X_P12_T42  CAP_M5_T42  1.2
    X_P12_T42  CAP_M6_T42  1.7
    X_P12_T42  CAP_M7_T42  1.4
    X_P12_T42  CAP_M8_T42  2
    X_P12_T42  CAP_M9_T42  1.6
    X_P12_T42  CAP_M10_T42  1.3
    X_P12_T42  CAP_M11_T42  2.7
    X_P13_T42  COST      20.3
    X_P13_T42  BAL_P13_T42  1
    X_P13_T42  CAP_M0_T42  2.2
    X_P13_T42  CAP_M1_T42  0.8
    X_P13_T42  CAP_M2_T42  2.7
    X_P13_T42  CAP_M3_T42  2.1
    X_P13_T42  CAP_M4_T42  1.8
    X_P13_T42  CAP_M5_T42  1.2
    X_P13_T42  CAP_M6_T42  1
    X_P13_T42  CAP_M7_T42  1.2
    X_P13_T42  CAP_M8_T42  1.8
    X_P13_T42  CAP_M9_T42  1
    X_P13_T42  CAP_M10_T42  1.3
    X_P13_T42  CAP_M11_T42  1.2
    X_P14_T42  COST      37.5
    X_P14_T42  BAL_P14_T42  1
    X_P14_T42  CAP_M0_T42  1.1
    X_P14_T42  CAP_M1_T42  1.8
    X_P14_T42  CAP_M2_T42  1.9
    X_P14_T42  CAP_M3_T42  1.4
    X_P14_T42  CAP_M4_T42  1.5
    X_P14_T42  CAP_M5_T42  1.9
    X_P14_T42  CAP_M6_T42  2.7
    X_P14_T42  CAP_M7_T42  0.8
    X_P14_T42  CAP_M8_T42  1.7
    X_P14_T42  CAP_M9_T42  2.2
    X_P14_T42  CAP_M10_T42  2.7
    X_P14_T42  CAP_M11_T42  1.2
    X_P15_T42  COST      49.2
    X_P15_T42  BAL_P15_T42  1
    X_P15_T42  CAP_M0_T42  0.8
    X_P15_T42  CAP_M1_T42  0.8
    X_P15_T42  CAP_M2_T42  2.4
    X_P15_T42  CAP_M3_T42  2.3
    X_P15_T42  CAP_M4_T42  1.8
    X_P15_T42  CAP_M5_T42  0.8
    X_P15_T42  CAP_M6_T42  0.8
    X_P15_T42  CAP_M7_T42  1.4
    X_P15_T42  CAP_M8_T42  1.3
    X_P15_T42  CAP_M9_T42  1.8
    X_P15_T42  CAP_M10_T42  2.1
    X_P15_T42  CAP_M11_T42  1.5
    X_P16_T42  COST      23.1
    X_P16_T42  BAL_P16_T42  1
    X_P16_T42  CAP_M0_T42  1.1
    X_P16_T42  CAP_M1_T42  0.5
    X_P16_T42  CAP_M2_T42  1.2
    X_P16_T42  CAP_M3_T42  2.8
    X_P16_T42  CAP_M4_T42  1.1
    X_P16_T42  CAP_M5_T42  1
    X_P16_T42  CAP_M6_T42  1.8
    X_P16_T42  CAP_M7_T42  1.8
    X_P16_T42  CAP_M8_T42  2.5
    X_P16_T42  CAP_M9_T42  1.6
    X_P16_T42  CAP_M10_T42  2.7
    X_P16_T42  CAP_M11_T42  1.3
    X_P17_T42  COST      18.6
    X_P17_T42  BAL_P17_T42  1
    X_P17_T42  CAP_M0_T42  1.8
    X_P17_T42  CAP_M1_T42  2.2
    X_P17_T42  CAP_M2_T42  2.7
    X_P17_T42  CAP_M3_T42  2.2
    X_P17_T42  CAP_M4_T42  1.2
    X_P17_T42  CAP_M5_T42  1.3
    X_P17_T42  CAP_M6_T42  0.7
    X_P17_T42  CAP_M7_T42  1.3
    X_P17_T42  CAP_M8_T42  2.8
    X_P17_T42  CAP_M9_T42  1.4
    X_P17_T42  CAP_M10_T42  2.7
    X_P17_T42  CAP_M11_T42  2.2
    X_P18_T42  COST      33.2
    X_P18_T42  BAL_P18_T42  1
    X_P18_T42  CAP_M0_T42  1.3
    X_P18_T42  CAP_M1_T42  2.9
    X_P18_T42  CAP_M2_T42  1.7
    X_P18_T42  CAP_M3_T42  0.5
    X_P18_T42  CAP_M4_T42  2.4
    X_P18_T42  CAP_M5_T42  2.9
    X_P18_T42  CAP_M6_T42  2.1
    X_P18_T42  CAP_M7_T42  2.7
    X_P18_T42  CAP_M8_T42  1.4
    X_P18_T42  CAP_M9_T42  0.5
    X_P18_T42  CAP_M10_T42  2.1
    X_P18_T42  CAP_M11_T42  1.1
    X_P19_T42  COST      25.2
    X_P19_T42  BAL_P19_T42  1
    X_P19_T42  CAP_M0_T42  2.2
    X_P19_T42  CAP_M1_T42  2.8
    X_P19_T42  CAP_M2_T42  1.6
    X_P19_T42  CAP_M3_T42  2.6
    X_P19_T42  CAP_M4_T42  1.7
    X_P19_T42  CAP_M5_T42  1.3
    X_P19_T42  CAP_M6_T42  1
    X_P19_T42  CAP_M7_T42  1.5
    X_P19_T42  CAP_M8_T42  0.6
    X_P19_T42  CAP_M9_T42  2.8
    X_P19_T42  CAP_M10_T42  0.8
    X_P19_T42  CAP_M11_T42  0.8
    X_P20_T42  COST      13.9
    X_P20_T42  BAL_P20_T42  1
    X_P20_T42  CAP_M0_T42  1.2
    X_P20_T42  CAP_M1_T42  2
    X_P20_T42  CAP_M2_T42  1.4
    X_P20_T42  CAP_M3_T42  2.3
    X_P20_T42  CAP_M4_T42  1.5
    X_P20_T42  CAP_M5_T42  1.6
    X_P20_T42  CAP_M6_T42  2.6
    X_P20_T42  CAP_M7_T42  2.1
    X_P20_T42  CAP_M8_T42  1.2
    X_P20_T42  CAP_M9_T42  1
    X_P20_T42  CAP_M10_T42  2.3
    X_P20_T42  CAP_M11_T42  1.8
    X_P21_T42  COST      21.3
    X_P21_T42  BAL_P21_T42  1
    X_P21_T42  CAP_M0_T42  2.4
    X_P21_T42  CAP_M1_T42  1.9
    X_P21_T42  CAP_M2_T42  2.9
    X_P21_T42  CAP_M3_T42  2.7
    X_P21_T42  CAP_M4_T42  2.7
    X_P21_T42  CAP_M5_T42  1.7
    X_P21_T42  CAP_M6_T42  2.8
    X_P21_T42  CAP_M7_T42  2.5
    X_P21_T42  CAP_M8_T42  3
    X_P21_T42  CAP_M9_T42  2.7
    X_P21_T42  CAP_M10_T42  2.4
    X_P21_T42  CAP_M11_T42  2.4
    X_P22_T42  COST      34.2
    X_P22_T42  BAL_P22_T42  1
    X_P22_T42  CAP_M0_T42  0.6
    X_P22_T42  CAP_M1_T42  2.9
    X_P22_T42  CAP_M2_T42  2.1
    X_P22_T42  CAP_M3_T42  2.1
    X_P22_T42  CAP_M4_T42  2
    X_P22_T42  CAP_M5_T42  2.4
    X_P22_T42  CAP_M6_T42  2.2
    X_P22_T42  CAP_M7_T42  0.7
    X_P22_T42  CAP_M8_T42  0.5
    X_P22_T42  CAP_M9_T42  1.8
    X_P22_T42  CAP_M10_T42  1.1
    X_P22_T42  CAP_M11_T42  2.6
    X_P23_T42  COST      41.2
    X_P23_T42  BAL_P23_T42  1
    X_P23_T42  CAP_M0_T42  2.9
    X_P23_T42  CAP_M1_T42  1.2
    X_P23_T42  CAP_M2_T42  1.8
    X_P23_T42  CAP_M3_T42  1.8
    X_P23_T42  CAP_M4_T42  1.5
    X_P23_T42  CAP_M5_T42  0.5
    X_P23_T42  CAP_M6_T42  2.8
    X_P23_T42  CAP_M7_T42  1.9
    X_P23_T42  CAP_M8_T42  2.2
    X_P23_T42  CAP_M9_T42  2.9
    X_P23_T42  CAP_M10_T42  2.1
    X_P23_T42  CAP_M11_T42  2.2
    X_P24_T42  COST      48.6
    X_P24_T42  BAL_P24_T42  1
    X_P24_T42  CAP_M0_T42  1.1
    X_P24_T42  CAP_M1_T42  2.5
    X_P24_T42  CAP_M2_T42  1.3
    X_P24_T42  CAP_M3_T42  2.8
    X_P24_T42  CAP_M4_T42  1.1
    X_P24_T42  CAP_M5_T42  2
    X_P24_T42  CAP_M6_T42  1.4
    X_P24_T42  CAP_M7_T42  0.5
    X_P24_T42  CAP_M8_T42  1.2
    X_P24_T42  CAP_M9_T42  2.4
    X_P24_T42  CAP_M10_T42  0.6
    X_P24_T42  CAP_M11_T42  1.9
    S_P0_T42  COST      3.6
    S_P0_T42  BAL_P0_T42  -1
    S_P0_T42  STORAGE_T42  1
    S_P0_T42  BAL_P0_T43  1
    S_P1_T42  COST      3.9
    S_P1_T42  BAL_P1_T42  -1
    S_P1_T42  STORAGE_T42  1
    S_P1_T42  BAL_P1_T43  1
    S_P2_T42  COST      1.8
    S_P2_T42  BAL_P2_T42  -1
    S_P2_T42  STORAGE_T42  1
    S_P2_T42  BAL_P2_T43  1
    S_P3_T42  COST      4
    S_P3_T42  BAL_P3_T42  -1
    S_P3_T42  STORAGE_T42  1
    S_P3_T42  BAL_P3_T43  1
    S_P4_T42  COST      4.4
    S_P4_T42  BAL_P4_T42  -1
    S_P4_T42  STORAGE_T42  1
    S_P4_T42  BAL_P4_T43  1
    S_P5_T42  COST      2.2
    S_P5_T42  BAL_P5_T42  -1
    S_P5_T42  STORAGE_T42  1
    S_P5_T42  BAL_P5_T43  1
    S_P6_T42  COST      3.1
    S_P6_T42  BAL_P6_T42  -1
    S_P6_T42  STORAGE_T42  1
    S_P6_T42  BAL_P6_T43  1
    S_P7_T42  COST      3.4
    S_P7_T42  BAL_P7_T42  -1
    S_P7_T42  STORAGE_T42  1
    S_P7_T42  BAL_P7_T43  1
    S_P8_T42  COST      2
    S_P8_T42  BAL_P8_T42  -1
    S_P8_T42  STORAGE_T42  1
    S_P8_T42  BAL_P8_T43  1
    S_P9_T42  COST      2.6
    S_P9_T42  BAL_P9_T42  -1
    S_P9_T42  STORAGE_T42  1
    S_P9_T42  BAL_P9_T43  1
    S_P10_T42  COST      2.5
    S_P10_T42  BAL_P10_T42  -1
    S_P10_T42  STORAGE_T42  1
    S_P10_T42  BAL_P10_T43  1
    S_P11_T42  COST      3.2
    S_P11_T42  BAL_P11_T42  -1
    S_P11_T42  STORAGE_T42  1
    S_P11_T42  BAL_P11_T43  1
    S_P12_T42  COST      2.4
    S_P12_T42  BAL_P12_T42  -1
    S_P12_T42  STORAGE_T42  1
    S_P12_T42  BAL_P12_T43  1
    S_P13_T42  COST      1.6
    S_P13_T42  BAL_P13_T42  -1
    S_P13_T42  STORAGE_T42  1
    S_P13_T42  BAL_P13_T43  1
    S_P14_T42  COST      3.1
    S_P14_T42  BAL_P14_T42  -1
    S_P14_T42  STORAGE_T42  1
    S_P14_T42  BAL_P14_T43  1
    S_P15_T42  COST      2
    S_P15_T42  BAL_P15_T42  -1
    S_P15_T42  STORAGE_T42  1
    S_P15_T42  BAL_P15_T43  1
    S_P16_T42  COST      3.7
    S_P16_T42  BAL_P16_T42  -1
    S_P16_T42  STORAGE_T42  1
    S_P16_T42  BAL_P16_T43  1
    S_P17_T42  COST      4.3
    S_P17_T42  BAL_P17_T42  -1
    S_P17_T42  STORAGE_T42  1
    S_P17_T42  BAL_P17_T43  1
    S_P18_T42  COST      1.2
    S_P18_T42  BAL_P18_T42  -1
    S_P18_T42  STORAGE_T42  1
    S_P18_T42  BAL_P18_T43  1
    S_P19_T42  COST      4
    S_P19_T42  BAL_P19_T42  -1
    S_P19_T42  STORAGE_T42  1
    S_P19_T42  BAL_P19_T43  1
    S_P20_T42  COST      4.3
    S_P20_T42  BAL_P20_T42  -1
    S_P20_T42  STORAGE_T42  1
    S_P20_T42  BAL_P20_T43  1
    S_P21_T42  COST      4.4
    S_P21_T42  BAL_P21_T42  -1
    S_P21_T42  STORAGE_T42  1
    S_P21_T42  BAL_P21_T43  1
    S_P22_T42  COST      3.1
    S_P22_T42  BAL_P22_T42  -1
    S_P22_T42  STORAGE_T42  1
    S_P22_T42  BAL_P22_T43  1
    S_P23_T42  COST      3.4
    S_P23_T42  BAL_P23_T42  -1
    S_P23_T42  STORAGE_T42  1
    S_P23_T42  BAL_P23_T43  1
    S_P24_T42  COST      1.3
    S_P24_T42  BAL_P24_T42  -1
    S_P24_T42  STORAGE_T42  1
    S_P24_T42  BAL_P24_T43  1
    X_P0_T43  COST      33.3
    X_P0_T43  BAL_P0_T43  1
    X_P0_T43  CAP_M0_T43  1.4
    X_P0_T43  CAP_M1_T43  2.4
    X_P0_T43  CAP_M2_T43  0.5
    X_P0_T43  CAP_M3_T43  1
    X_P0_T43  CAP_M4_T43  1.3
    X_P0_T43  CAP_M5_T43  0.8
    X_P0_T43  CAP_M6_T43  1
    X_P0_T43  CAP_M7_T43  1.7
    X_P0_T43  CAP_M8_T43  0.7
    X_P0_T43  CAP_M9_T43  1.5
    X_P0_T43  CAP_M10_T43  2.4
    X_P0_T43  CAP_M11_T43  0.9
    X_P1_T43  COST      21.2
    X_P1_T43  BAL_P1_T43  1
    X_P1_T43  CAP_M0_T43  1
    X_P1_T43  CAP_M1_T43  2.2
    X_P1_T43  CAP_M2_T43  1
    X_P1_T43  CAP_M3_T43  2.4
    X_P1_T43  CAP_M4_T43  3
    X_P1_T43  CAP_M5_T43  2.2
    X_P1_T43  CAP_M6_T43  2.7
    X_P1_T43  CAP_M7_T43  1.4
    X_P1_T43  CAP_M8_T43  1.9
    X_P1_T43  CAP_M9_T43  0.9
    X_P1_T43  CAP_M10_T43  2.9
    X_P1_T43  CAP_M11_T43  2.2
    X_P2_T43  COST      27.3
    X_P2_T43  BAL_P2_T43  1
    X_P2_T43  CAP_M0_T43  2.6
    X_P2_T43  CAP_M1_T43  1.4
    X_P2_T43  CAP_M2_T43  0.8
    X_P2_T43  CAP_M3_T43  2.3
    X_P2_T43  CAP_M4_T43  2.5
    X_P2_T43  CAP_M5_T43  1
    X_P2_T43  CAP_M6_T43  1.2
    X_P2_T43  CAP_M7_T43  1
    X_P2_T43  CAP_M8_T43  1.1
    X_P2_T43  CAP_M9_T43  1.9
    X_P2_T43  CAP_M10_T43  3
    X_P2_T43  CAP_M11_T43  0.8
    X_P3_T43  COST      17.4
    X_P3_T43  BAL_P3_T43  1
    X_P3_T43  CAP_M0_T43  1.8
    X_P3_T43  CAP_M1_T43  2.8
    X_P3_T43  CAP_M2_T43  2.1
    X_P3_T43  CAP_M3_T43  1.6
    X_P3_T43  CAP_M4_T43  1.1
    X_P3_T43  CAP_M5_T43  0.7
    X_P3_T43  CAP_M6_T43  2
    X_P3_T43  CAP_M7_T43  2.7
    X_P3_T43  CAP_M8_T43  1.9
    X_P3_T43  CAP_M9_T43  2.6
    X_P3_T43  CAP_M10_T43  2.1
    X_P3_T43  CAP_M11_T43  2.3
    X_P4_T43  COST      40.1
    X_P4_T43  BAL_P4_T43  1
    X_P4_T43  CAP_M0_T43  1.9
    X_P4_T43  CAP_M1_T43  2
    X_P4_T43  CAP_M2_T43  2.5
    X_P4_T43  CAP_M3_T43  2.7
    X_P4_T43  CAP_M4_T43  2.1
    X_P4_T43  CAP_M5_T43  1.2
    X_P4_T43  CAP_M6_T43  1.6
    X_P4_T43  CAP_M7_T43  1.6
    X_P4_T43  CAP_M8_T43  2.1
    X_P4_T43  CAP_M9_T43  1.7
    X_P4_T43  CAP_M10_T43  0.8
    X_P4_T43  CAP_M11_T43  1.6
    X_P5_T43  COST      39.4
    X_P5_T43  BAL_P5_T43  1
    X_P5_T43  CAP_M0_T43  2.1
    X_P5_T43  CAP_M1_T43  0.7
    X_P5_T43  CAP_M2_T43  2.9
    X_P5_T43  CAP_M3_T43  1.3
    X_P5_T43  CAP_M4_T43  2.6
    X_P5_T43  CAP_M5_T43  1.9
    X_P5_T43  CAP_M6_T43  2.4
    X_P5_T43  CAP_M7_T43  1.8
    X_P5_T43  CAP_M8_T43  1.4
    X_P5_T43  CAP_M9_T43  0.7
    X_P5_T43  CAP_M10_T43  0.6
    X_P5_T43  CAP_M11_T43  2.9
    X_P6_T43  COST      33.5
    X_P6_T43  BAL_P6_T43  1
    X_P6_T43  CAP_M0_T43  1.3
    X_P6_T43  CAP_M1_T43  1.8
    X_P6_T43  CAP_M2_T43  2.5
    X_P6_T43  CAP_M3_T43  2.2
    X_P6_T43  CAP_M4_T43  0.7
    X_P6_T43  CAP_M5_T43  1.5
    X_P6_T43  CAP_M6_T43  0.6
    X_P6_T43  CAP_M7_T43  1.9
    X_P6_T43  CAP_M8_T43  1.3
    X_P6_T43  CAP_M9_T43  2.1
    X_P6_T43  CAP_M10_T43  2.4
    X_P6_T43  CAP_M11_T43  1.1
    X_P7_T43  COST      22
    X_P7_T43  BAL_P7_T43  1
    X_P7_T43  CAP_M0_T43  1.1
    X_P7_T43  CAP_M1_T43  2.2
    X_P7_T43  CAP_M2_T43  2.5
    X_P7_T43  CAP_M3_T43  2.9
    X_P7_T43  CAP_M4_T43  1
    X_P7_T43  CAP_M5_T43  2.9
    X_P7_T43  CAP_M6_T43  2.4
    X_P7_T43  CAP_M7_T43  1.6
    X_P7_T43  CAP_M8_T43  1.4
    X_P7_T43  CAP_M9_T43  0.6
    X_P7_T43  CAP_M10_T43  1.6
    X_P7_T43  CAP_M11_T43  1.7
    X_P8_T43  COST      20.9
    X_P8_T43  BAL_P8_T43  1
    X_P8_T43  CAP_M0_T43  1.8
    X_P8_T43  CAP_M1_T43  0.7
    X_P8_T43  CAP_M2_T43  2.7
    X_P8_T43  CAP_M3_T43  2.3
    X_P8_T43  CAP_M4_T43  1.6
    X_P8_T43  CAP_M5_T43  1.3
    X_P8_T43  CAP_M6_T43  2.9
    X_P8_T43  CAP_M7_T43  1.1
    X_P8_T43  CAP_M8_T43  1.5
    X_P8_T43  CAP_M9_T43  2.1
    X_P8_T43  CAP_M10_T43  1.6
    X_P8_T43  CAP_M11_T43  0.7
    X_P9_T43  COST      34.1
    X_P9_T43  BAL_P9_T43  1
    X_P9_T43  CAP_M0_T43  1.3
    X_P9_T43  CAP_M1_T43  2.8
    X_P9_T43  CAP_M2_T43  1.3
    X_P9_T43  CAP_M3_T43  0.6
    X_P9_T43  CAP_M4_T43  1.7
    X_P9_T43  CAP_M5_T43  2.5
    X_P9_T43  CAP_M6_T43  1
    X_P9_T43  CAP_M7_T43  2.5
    X_P9_T43  CAP_M8_T43  2.7
    X_P9_T43  CAP_M9_T43  1.1
    X_P9_T43  CAP_M10_T43  1.8
    X_P9_T43  CAP_M11_T43  2.8
    X_P10_T43  COST      21.7
    X_P10_T43  BAL_P10_T43  1
    X_P10_T43  CAP_M0_T43  0.8
    X_P10_T43  CAP_M1_T43  0.8
    X_P10_T43  CAP_M2_T43  1.3
    X_P10_T43  CAP_M3_T43  0.8
    X_P10_T43  CAP_M4_T43  0.7
    X_P10_T43  CAP_M5_T43  1.7
    X_P10_T43  CAP_M6_T43  1.4
    X_P10_T43  CAP_M7_T43  1.3
    X_P10_T43  CAP_M8_T43  2.9
    X_P10_T43  CAP_M9_T43  1.6
    X_P10_T43  CAP_M10_T43  2.9
    X_P10_T43  CAP_M11_T43  0.7
    X_P11_T43  COST      21
    X_P11_T43  BAL_P11_T43  1
    X_P11_T43  CAP_M0_T43  2.4
    X_P11_T43  CAP_M1_T43  1.8
    X_P11_T43  CAP_M2_T43  1.8
    X_P11_T43  CAP_M3_T43  1.5
    X_P11_T43  CAP_M4_T43  2.8
    X_P11_T43  CAP_M5_T43  1.4
    X_P11_T43  CAP_M6_T43  0.7
    X_P11_T43  CAP_M7_T43  0.7
    X_P11_T43  CAP_M8_T43  2
    X_P11_T43  CAP_M9_T43  1.5
    X_P11_T43  CAP_M10_T43  1.7
    X_P11_T43  CAP_M11_T43  2.8
    X_P12_T43  COST      44.6
    X_P12_T43  BAL_P12_T43  1
    X_P12_T43  CAP_M0_T43  2.4
    X_P12_T43  CAP_M1_T43  2.3
    X_P12_T43  CAP_M2_T43  1.7
    X_P12_T43  CAP_M3_T43  2
    X_P12_T43  CAP_M4_T43  1.9
    X_P12_T43  CAP_M5_T43  1.2
    X_P12_T43  CAP_M6_T43  1.7
    X_P12_T43  CAP_M7_T43  1.4
    X_P12_T43  CAP_M8_T43  2
    X_P12_T43  CAP_M9_T43  1.6
    X_P12_T43  CAP_M10_T43  1.3
    X_P12_T43  CAP_M11_T43  2.7
    X_P13_T43  COST      21.7
    X_P13_T43  BAL_P13_T43  1
    X_P13_T43  CAP_M0_T43  2.2
    X_P13_T43  CAP_M1_T43  0.8
    X_P13_T43  CAP_M2_T43  2.7
    X_P13_T43  CAP_M3_T43  2.1
    X_P13_T43  CAP_M4_T43  1.8
    X_P13_T43  CAP_M5_T43  1.2
    X_P13_T43  CAP_M6_T43  1
    X_P13_T43  CAP_M7_T43  1.2
    X_P13_T43  CAP_M8_T43  1.8
    X_P13_T43  CAP_M9_T43  1
    X_P13_T43  CAP_M10_T43  1.3
    X_P13_T43  CAP_M11_T43  1.2
    X_P14_T43  COST      49.8
    X_P14_T43  BAL_P14_T43  1
    X_P14_T43  CAP_M0_T43  1.1
    X_P14_T43  CAP_M1_T43  1.8
    X_P14_T43  CAP_M2_T43  1.9
    X_P14_T43  CAP_M3_T43  1.4
    X_P14_T43  CAP_M4_T43  1.5
    X_P14_T43  CAP_M5_T43  1.9
    X_P14_T43  CAP_M6_T43  2.7
    X_P14_T43  CAP_M7_T43  0.8
    X_P14_T43  CAP_M8_T43  1.7
    X_P14_T43  CAP_M9_T43  2.2
    X_P14_T43  CAP_M10_T43  2.7
    X_P14_T43  CAP_M11_T43  1.2
    X_P15_T43  COST      43.5
    X_P15_T43  BAL_P15_T43  1
    X_P15_T43  CAP_M0_T43  0.8
    X_P15_T43  CAP_M1_T43  0.8
    X_P15_T43  CAP_M2_T43  2.4
    X_P15_T43  CAP_M3_T43  2.3
    X_P15_T43  CAP_M4_T43  1.8
    X_P15_T43  CAP_M5_T43  0.8
    X_P15_T43  CAP_M6_T43  0.8
    X_P15_T43  CAP_M7_T43  1.4
    X_P15_T43  CAP_M8_T43  1.3
    X_P15_T43  CAP_M9_T43  1.8
    X_P15_T43  CAP_M10_T43  2.1
    X_P15_T43  CAP_M11_T43  1.5
    X_P16_T43  COST      33.8
    X_P16_T43  BAL_P16_T43  1
    X_P16_T43  CAP_M0_T43  1.1
    X_P16_T43  CAP_M1_T43  0.5
    X_P16_T43  CAP_M2_T43  1.2
    X_P16_T43  CAP_M3_T43  2.8
    X_P16_T43  CAP_M4_T43  1.1
    X_P16_T43  CAP_M5_T43  1
    X_P16_T43  CAP_M6_T43  1.8
    X_P16_T43  CAP_M7_T43  1.8
    X_P16_T43  CAP_M8_T43  2.5
    X_P16_T43  CAP_M9_T43  1.6
    X_P16_T43  CAP_M10_T43  2.7
    X_P16_T43  CAP_M11_T43  1.3
    X_P17_T43  COST      48.2
    X_P17_T43  BAL_P17_T43  1
    X_P17_T43  CAP_M0_T43  1.8
    X_P17_T43  CAP_M1_T43  2.2
    X_P17_T43  CAP_M2_T43  2.7
    X_P17_T43  CAP_M3_T43  2.2
    X_P17_T43  CAP_M4_T43  1.2
    X_P17_T43  CAP_M5_T43  1.3
    X_P17_T43  CAP_M6_T43  0.7
    X_P17_T43  CAP_M7_T43  1.3
    X_P17_T43  CAP_M8_T43  2.8
    X_P17_T43  CAP_M9_T43  1.4
    X_P17_T43  CAP_M10_T43  2.7
    X_P17_T43  CAP_M11_T43  2.2
    X_P18_T43  COST      35.3
    X_P18_T43  BAL_P18_T43  1
    X_P18_T43  CAP_M0_T43  1.3
    X_P18_T43  CAP_M1_T43  2.9
    X_P18_T43  CAP_M2_T43  1.7
    X_P18_T43  CAP_M3_T43  0.5
    X_P18_T43  CAP_M4_T43  2.4
    X_P18_T43  CAP_M5_T43  2.9
    X_P18_T43  CAP_M6_T43  2.1
    X_P18_T43  CAP_M7_T43  2.7
    X_P18_T43  CAP_M8_T43  1.4
    X_P18_T43  CAP_M9_T43  0.5
    X_P18_T43  CAP_M10_T43  2.1
    X_P18_T43  CAP_M11_T43  1.1
    X_P19_T43  COST      27.8
    X_P19_T43  BAL_P19_T43  1
    X_P19_T43  CAP_M0_T43  2.2
    X_P19_T43  CAP_M1_T43  2.8
    X_P19_T43  CAP_M2_T43  1.6
    X_P19_T43  CAP_M3_T43  2.6
    X_P19_T43  CAP_M4_T43  1.7
    X_P19_T43  CAP_M5_T43  1.3
    X_P19_T43  CAP_M6_T43  1
    X_P19_T43  CAP_M7_T43  1.5
    X_P19_T43  CAP_M8_T43  0.6
    X_P19_T43  CAP_M9_T43  2.8
    X_P19_T43  CAP_M10_T43  0.8
    X_P19_T43  CAP_M11_T43  0.8
    X_P20_T43  COST      40.2
    X_P20_T43  BAL_P20_T43  1
    X_P20_T43  CAP_M0_T43  1.2
    X_P20_T43  CAP_M1_T43  2
    X_P20_T43  CAP_M2_T43  1.4
    X_P20_T43  CAP_M3_T43  2.3
    X_P20_T43  CAP_M4_T43  1.5
    X_P20_T43  CAP_M5_T43  1.6
    X_P20_T43  CAP_M6_T43  2.6
    X_P20_T43  CAP_M7_T43  2.1
    X_P20_T43  CAP_M8_T43  1.2
    X_P20_T43  CAP_M9_T43  1
    X_P20_T43  CAP_M10_T43  2.3
    X_P20_T43  CAP_M11_T43  1.8
    X_P21_T43  COST      49.6
    X_P21_T43  BAL_P21_T43  1
    X_P21_T43  CAP_M0_T43  2.4
    X_P21_T43  CAP_M1_T43  1.9
    X_P21_T43  CAP_M2_T43  2.9
    X_P21_T43  CAP_M3_T43  2.7
    X_P21_T43  CAP_M4_T43  2.7
    X_P21_T43  CAP_M5_T43  1.7
    X_P21_T43  CAP_M6_T43  2.8
    X_P21_T43  CAP_M7_T43  2.5
    X_P21_T43  CAP_M8_T43  3
    X_P21_T43  CAP_M9_T43  2.7
    X_P21_T43  CAP_M10_T43  2.4
    X_P21_T43  CAP_M11_T43  2.4
    X_P22_T43  COST      38.1
    X_P22_T43  BAL_P22_T43  1
    X_P22_T43  CAP_M0_T43  0.6
    X_P22_T43  CAP_M1_T43  2.9
    X_P22_T43  CAP_M2_T43  2.1
    X_P22_T43  CAP_M3_T43  2.1
    X_P22_T43  CAP_M4_T43  2
    X_P22_T43  CAP_M5_T43  2.4
    X_P22_T43  CAP_M6_T43  2.2
    X_P22_T43  CAP_M7_T43  0.7
    X_P22_T43  CAP_M8_T43  0.5
    X_P22_T43  CAP_M9_T43  1.8
    X_P22_T43  CAP_M10_T43  1.1
    X_P22_T43  CAP_M11_T43  2.6
    X_P23_T43  COST      38.4
    X_P23_T43  BAL_P23_T43  1
    X_P23_T43  CAP_M0_T43  2.9
    X_P23_T43  CAP_M1_T43  1.2
    X_P23_T43  CAP_M2_T43  1.8
    X_P23_T43  CAP_M3_T43  1.8
    X_P23_T43  CAP_M4_T43  1.5
    X_P23_T43  CAP_M5_T43  0.5
    X_P23_T43  CAP_M6_T43  2.8
    X_P23_T43  CAP_M7_T43  1.9
    X_P23_T43  CAP_M8_T43  2.2
    X_P23_T43  CAP_M9_T43  2.9
    X_P23_T43  CAP_M10_T43  2.1
    X_P23_T43  CAP_M11_T43  2.2
    X_P24_T43  COST      29.6
    X_P24_T43  BAL_P24_T43  1
    X_P24_T43  CAP_M0_T43  1.1
    X_P24_T43  CAP_M1_T43  2.5
    X_P24_T43  CAP_M2_T43  1.3
    X_P24_T43  CAP_M3_T43  2.8
    X_P24_T43  CAP_M4_T43  1.1
    X_P24_T43  CAP_M5_T43  2
    X_P24_T43  CAP_M6_T43  1.4
    X_P24_T43  CAP_M7_T43  0.5
    X_P24_T43  CAP_M8_T43  1.2
    X_P24_T43  CAP_M9_T43  2.4
    X_P24_T43  CAP_M10_T43  0.6
    X_P24_T43  CAP_M11_T43  1.9
    S_P0_T43  COST      1.9
    S_P0_T43  BAL_P0_T43  -1
    S_P0_T43  STORAGE_T43  1
    S_P0_T43  BAL_P0_T44  1
    S_P1_T43  COST      3.6
    S_P1_T43  BAL_P1_T43  -1
    S_P1_T43  STORAGE_T43  1
    S_P1_T43  BAL_P1_T44  1
    S_P2_T43  COST      2.4
    S_P2_T43  BAL_P2_T43  -1
    S_P2_T43  STORAGE_T43  1
    S_P2_T43  BAL_P2_T44  1
    S_P3_T43  COST      1.4
    S_P3_T43  BAL_P3_T43  -1
    S_P3_T43  STORAGE_T43  1
    S_P3_T43  BAL_P3_T44  1
    S_P4_T43  COST      1.6
    S_P4_T43  BAL_P4_T43  -1
    S_P4_T43  STORAGE_T43  1
    S_P4_T43  BAL_P4_T44  1
    S_P5_T43  COST      4.6
    S_P5_T43  BAL_P5_T43  -1
    S_P5_T43  STORAGE_T43  1
    S_P5_T43  BAL_P5_T44  1
    S_P6_T43  COST      2.4
    S_P6_T43  BAL_P6_T43  -1
    S_P6_T43  STORAGE_T43  1
    S_P6_T43  BAL_P6_T44  1
    S_P7_T43  COST      4.6
    S_P7_T43  BAL_P7_T43  -1
    S_P7_T43  STORAGE_T43  1
    S_P7_T43  BAL_P7_T44  1
    S_P8_T43  COST      3
    S_P8_T43  BAL_P8_T43  -1
    S_P8_T43  STORAGE_T43  1
    S_P8_T43  BAL_P8_T44  1
    S_P9_T43  COST      2.3
    S_P9_T43  BAL_P9_T43  -1
    S_P9_T43  STORAGE_T43  1
    S_P9_T43  BAL_P9_T44  1
    S_P10_T43  COST      1.5
    S_P10_T43  BAL_P10_T43  -1
    S_P10_T43  STORAGE_T43  1
    S_P10_T43  BAL_P10_T44  1
    S_P11_T43  COST      4
    S_P11_T43  BAL_P11_T43  -1
    S_P11_T43  STORAGE_T43  1
    S_P11_T43  BAL_P11_T44  1
    S_P12_T43  COST      3.3
    S_P12_T43  BAL_P12_T43  -1
    S_P12_T43  STORAGE_T43  1
    S_P12_T43  BAL_P12_T44  1
    S_P13_T43  COST      2.1
    S_P13_T43  BAL_P13_T43  -1
    S_P13_T43  STORAGE_T43  1
    S_P13_T43  BAL_P13_T44  1
    S_P14_T43  COST      1.5
    S_P14_T43  BAL_P14_T43  -1
    S_P14_T43  STORAGE_T43  1
    S_P14_T43  BAL_P14_T44  1
    S_P15_T43  COST      2.6
    S_P15_T43  BAL_P15_T43  -1
    S_P15_T43  STORAGE_T43  1
    S_P15_T43  BAL_P15_T44  1
    S_P16_T43  COST      2.3
    S_P16_T43  BAL_P16_T43  -1
    S_P16_T43  STORAGE_T43  1
    S_P16_T43  BAL_P16_T44  1
    S_P17_T43  COST      3.9
    S_P17_T43  BAL_P17_T43  -1
    S_P17_T43  STORAGE_T43  1
    S_P17_T43  BAL_P17_T44  1
    S_P18_T43  COST      1.9
    S_P18_T43  BAL_P18_T43  -1
    S_P18_T43  STORAGE_T43  1
    S_P18_T43  BAL_P18_T44  1
    S_P19_T43  COST      1.6
    S_P19_T43  BAL_P19_T43  -1
    S_P19_T43  STORAGE_T43  1
    S_P19_T43  BAL_P19_T44  1
    S_P20_T43  COST      2.3
    S_P20_T43  BAL_P20_T43  -1
    S_P20_T43  STORAGE_T43  1
    S_P20_T43  BAL_P20_T44  1
    S_P21_T43  COST      3.2
    S_P21_T43  BAL_P21_T43  -1
    S_P21_T43  STORAGE_T43  1
    S_P21_T43  BAL_P21_T44  1
    S_P22_T43  COST      2.4
    S_P22_T43  BAL_P22_T43  -1
    S_P22_T43  STORAGE_T43  1
    S_P22_T43  BAL_P22_T44  1
    S_P23_T43  COST      2.3
    S_P23_T43  BAL_P23_T43  -1
    S_P23_T43  STORAGE_T43  1
    S_P23_T43  BAL_P23_T44  1
    S_P24_T43  COST      4.8
    S_P24_T43  BAL_P24_T43  -1
    S_P24_T43  STORAGE_T43  1
    S_P24_T43  BAL_P24_T44  1
    X_P0_T44  COST      36.5
    X_P0_T44  BAL_P0_T44  1
    X_P0_T44  CAP_M0_T44  1.4
    X_P0_T44  CAP_M1_T44  2.4
    X_P0_T44  CAP_M2_T44  0.5
    X_P0_T44  CAP_M3_T44  1
    X_P0_T44  CAP_M4_T44  1.3
    X_P0_T44  CAP_M5_T44  0.8
    X_P0_T44  CAP_M6_T44  1
    X_P0_T44  CAP_M7_T44  1.7
    X_P0_T44  CAP_M8_T44  0.7
    X_P0_T44  CAP_M9_T44  1.5
    X_P0_T44  CAP_M10_T44  2.4
    X_P0_T44  CAP_M11_T44  0.9
    X_P1_T44  COST      20.3
    X_P1_T44  BAL_P1_T44  1
    X_P1_T44  CAP_M0_T44  1
    X_P1_T44  CAP_M1_T44  2.2
    X_P1_T44  CAP_M2_T44  1
    X_P1_T44  CAP_M3_T44  2.4
    X_P1_T44  CAP_M4_T44  3
    X_P1_T44  CAP_M5_T44  2.2
    X_P1_T44  CAP_M6_T44  2.7
    X_P1_T44  CAP_M7_T44  1.4
    X_P1_T44  CAP_M8_T44  1.9
    X_P1_T44  CAP_M9_T44  0.9
    X_P1_T44  CAP_M10_T44  2.9
    X_P1_T44  CAP_M11_T44  2.2
    X_P2_T44  COST      49.1
    X_P2_T44  BAL_P2_T44  1
    X_P2_T44  CAP_M0_T44  2.6
    X_P2_T44  CAP_M1_T44  1.4
    X_P2_T44  CAP_M2_T44  0.8
    X_P2_T44  CAP_M3_T44  2.3
    X_P2_T44  CAP_M4_T44  2.5
    X_P2_T44  CAP_M5_T44  1
    X_P2_T44  CAP_M6_T44  1.2
    X_P2_T44  CAP_M7_T44  1
    X_P2_T44  CAP_M8_T44  1.1
    X_P2_T44  CAP_M9_T44  1.9
    X_P2_T44  CAP_M10_T44  3
    X_P2_T44  CAP_M11_T44  0.8
    X_P3_T44  COST      19.2
    X_P3_T44  BAL_P3_T44  1
    X_P3_T44  CAP_M0_T44  1.8
    X_P3_T44  CAP_M1_T44  2.8
    X_P3_T44  CAP_M2_T44  2.1
    X_P3_T44  CAP_M3_T44  1.6
    X_P3_T44  CAP_M4_T44  1.1
    X_P3_T44  CAP_M5_T44  0.7
    X_P3_T44  CAP_M6_T44  2
    X_P3_T44  CAP_M7_T44  2.7
    X_P3_T44  CAP_M8_T44  1.9
    X_P3_T44  CAP_M9_T44  2.6
    X_P3_T44  CAP_M10_T44  2.1
    X_P3_T44  CAP_M11_T44  2.3
    X_P4_T44  COST      35.5
    X_P4_T44  BAL_P4_T44  1
    X_P4_T44  CAP_M0_T44  1.9
    X_P4_T44  CAP_M1_T44  2
    X_P4_T44  CAP_M2_T44  2.5
    X_P4_T44  CAP_M3_T44  2.7
    X_P4_T44  CAP_M4_T44  2.1
    X_P4_T44  CAP_M5_T44  1.2
    X_P4_T44  CAP_M6_T44  1.6
    X_P4_T44  CAP_M7_T44  1.6
    X_P4_T44  CAP_M8_T44  2.1
    X_P4_T44  CAP_M9_T44  1.7
    X_P4_T44  CAP_M10_T44  0.8
    X_P4_T44  CAP_M11_T44  1.6
    X_P5_T44  COST      33.5
    X_P5_T44  BAL_P5_T44  1
    X_P5_T44  CAP_M0_T44  2.1
    X_P5_T44  CAP_M1_T44  0.7
    X_P5_T44  CAP_M2_T44  2.9
    X_P5_T44  CAP_M3_T44  1.3
    X_P5_T44  CAP_M4_T44  2.6
    X_P5_T44  CAP_M5_T44  1.9
    X_P5_T44  CAP_M6_T44  2.4
    X_P5_T44  CAP_M7_T44  1.8
    X_P5_T44  CAP_M8_T44  1.4
    X_P5_T44  CAP_M9_T44  0.7
    X_P5_T44  CAP_M10_T44  0.6
    X_P5_T44  CAP_M11_T44  2.9
    X_P6_T44  COST      47.3
    X_P6_T44  BAL_P6_T44  1
    X_P6_T44  CAP_M0_T44  1.3
    X_P6_T44  CAP_M1_T44  1.8
    X_P6_T44  CAP_M2_T44  2.5
    X_P6_T44  CAP_M3_T44  2.2
    X_P6_T44  CAP_M4_T44  0.7
    X_P6_T44  CAP_M5_T44  1.5
    X_P6_T44  CAP_M6_T44  0.6
    X_P6_T44  CAP_M7_T44  1.9
    X_P6_T44  CAP_M8_T44  1.3
    X_P6_T44  CAP_M9_T44  2.1
    X_P6_T44  CAP_M10_T44  2.4
    X_P6_T44  CAP_M11_T44  1.1
    X_P7_T44  COST      23.2
    X_P7_T44  BAL_P7_T44  1
    X_P7_T44  CAP_M0_T44  1.1
    X_P7_T44  CAP_M1_T44  2.2
    X_P7_T44  CAP_M2_T44  2.5
    X_P7_T44  CAP_M3_T44  2.9
    X_P7_T44  CAP_M4_T44  1
    X_P7_T44  CAP_M5_T44  2.9
    X_P7_T44  CAP_M6_T44  2.4
    X_P7_T44  CAP_M7_T44  1.6
    X_P7_T44  CAP_M8_T44  1.4
    X_P7_T44  CAP_M9_T44  0.6
    X_P7_T44  CAP_M10_T44  1.6
    X_P7_T44  CAP_M11_T44  1.7
    X_P8_T44  COST      45.4
    X_P8_T44  BAL_P8_T44  1
    X_P8_T44  CAP_M0_T44  1.8
    X_P8_T44  CAP_M1_T44  0.7
    X_P8_T44  CAP_M2_T44  2.7
    X_P8_T44  CAP_M3_T44  2.3
    X_P8_T44  CAP_M4_T44  1.6
    X_P8_T44  CAP_M5_T44  1.3
    X_P8_T44  CAP_M6_T44  2.9
    X_P8_T44  CAP_M7_T44  1.1
    X_P8_T44  CAP_M8_T44  1.5
    X_P8_T44  CAP_M9_T44  2.1
    X_P8_T44  CAP_M10_T44  1.6
    X_P8_T44  CAP_M11_T44  0.7
    X_P9_T44  COST      33.2
    X_P9_T44  BAL_P9_T44  1
    X_P9_T44  CAP_M0_T44  1.3
    X_P9_T44  CAP_M1_T44  2.8
    X_P9_T44  CAP_M2_T44  1.3
    X_P9_T44  CAP_M3_T44  0.6
    X_P9_T44  CAP_M4_T44  1.7
    X_P9_T44  CAP_M5_T44  2.5
    X_P9_T44  CAP_M6_T44  1
    X_P9_T44  CAP_M7_T44  2.5
    X_P9_T44  CAP_M8_T44  2.7
    X_P9_T44  CAP_M9_T44  1.1
    X_P9_T44  CAP_M10_T44  1.8
    X_P9_T44  CAP_M11_T44  2.8
    X_P10_T44  COST      34
    X_P10_T44  BAL_P10_T44  1
    X_P10_T44  CAP_M0_T44  0.8
    X_P10_T44  CAP_M1_T44  0.8
    X_P10_T44  CAP_M2_T44  1.3
    X_P10_T44  CAP_M3_T44  0.8
    X_P10_T44  CAP_M4_T44  0.7
    X_P10_T44  CAP_M5_T44  1.7
    X_P10_T44  CAP_M6_T44  1.4
    X_P10_T44  CAP_M7_T44  1.3
    X_P10_T44  CAP_M8_T44  2.9
    X_P10_T44  CAP_M9_T44  1.6
    X_P10_T44  CAP_M10_T44  2.9
    X_P10_T44  CAP_M11_T44  0.7
    X_P11_T44  COST      24
    X_P11_T44  BAL_P11_T44  1
    X_P11_T44  CAP_M0_T44  2.4
    X_P11_T44  CAP_M1_T44  1.8
    X_P11_T44  CAP_M2_T44  1.8
    X_P11_T44  CAP_M3_T44  1.5
    X_P11_T44  CAP_M4_T44  2.8
    X_P11_T44  CAP_M5_T44  1.4
    X_P11_T44  CAP_M6_T44  0.7
    X_P11_T44  CAP_M7_T44  0.7
    X_P11_T44  CAP_M8_T44  2
    X_P11_T44  CAP_M9_T44  1.5
    X_P11_T44  CAP_M10_T44  1.7
    X_P11_T44  CAP_M11_T44  2.8
    X_P12_T44  COST      43.9
    X_P12_T44  BAL_P12_T44  1
    X_P12_T44  CAP_M0_T44  2.4
    X_P12_T44  CAP_M1_T44  2.3
    X_P12_T44  CAP_M2_T44  1.7
    X_P12_T44  CAP_M3_T44  2
    X_P12_T44  CAP_M4_T44  1.9
    X_P12_T44  CAP_M5_T44  1.2
    X_P12_T44  CAP_M6_T44  1.7
    X_P12_T44  CAP_M7_T44  1.4
    X_P12_T44  CAP_M8_T44  2
    X_P12_T44  CAP_M9_T44  1.6
    X_P12_T44  CAP_M10_T44  1.3
    X_P12_T44  CAP_M11_T44  2.7
    X_P13_T44  COST      41.3
    X_P13_T44  BAL_P13_T44  1
    X_P13_T44  CAP_M0_T44  2.2
    X_P13_T44  CAP_M1_T44  0.8
    X_P13_T44  CAP_M2_T44  2.7
    X_P13_T44  CAP_M3_T44  2.1
    X_P13_T44  CAP_M4_T44  1.8
    X_P13_T44  CAP_M5_T44  1.2
    X_P13_T44  CAP_M6_T44  1
    X_P13_T44  CAP_M7_T44  1.2
    X_P13_T44  CAP_M8_T44  1.8
    X_P13_T44  CAP_M9_T44  1
    X_P13_T44  CAP_M10_T44  1.3
    X_P13_T44  CAP_M11_T44  1.2
    X_P14_T44  COST      45.6
    X_P14_T44  BAL_P14_T44  1
    X_P14_T44  CAP_M0_T44  1.1
    X_P14_T44  CAP_M1_T44  1.8
    X_P14_T44  CAP_M2_T44  1.9
    X_P14_T44  CAP_M3_T44  1.4
    X_P14_T44  CAP_M4_T44  1.5
    X_P14_T44  CAP_M5_T44  1.9
    X_P14_T44  CAP_M6_T44  2.7
    X_P14_T44  CAP_M7_T44  0.8
    X_P14_T44  CAP_M8_T44  1.7
    X_P14_T44  CAP_M9_T44  2.2
    X_P14_T44  CAP_M10_T44  2.7
    X_P14_T44  CAP_M11_T44  1.2
    X_P15_T44  COST      49.7
    X_P15_T44  BAL_P15_T44  1
    X_P15_T44  CAP_M0_T44  0.8
    X_P15_T44  CAP_M1_T44  0.8
    X_P15_T44  CAP_M2_T44  2.4
    X_P15_T44  CAP_M3_T44  2.3
    X_P15_T44  CAP_M4_T44  1.8
    X_P15_T44  CAP_M5_T44  0.8
    X_P15_T44  CAP_M6_T44  0.8
    X_P15_T44  CAP_M7_T44  1.4
    X_P15_T44  CAP_M8_T44  1.3
    X_P15_T44  CAP_M9_T44  1.8
    X_P15_T44  CAP_M10_T44  2.1
    X_P15_T44  CAP_M11_T44  1.5
    X_P16_T44  COST      36.6
    X_P16_T44  BAL_P16_T44  1
    X_P16_T44  CAP_M0_T44  1.1
    X_P16_T44  CAP_M1_T44  0.5
    X_P16_T44  CAP_M2_T44  1.2
    X_P16_T44  CAP_M3_T44  2.8
    X_P16_T44  CAP_M4_T44  1.1
    X_P16_T44  CAP_M5_T44  1
    X_P16_T44  CAP_M6_T44  1.8
    X_P16_T44  CAP_M7_T44  1.8
    X_P16_T44  CAP_M8_T44  2.5
    X_P16_T44  CAP_M9_T44  1.6
    X_P16_T44  CAP_M10_T44  2.7
    X_P16_T44  CAP_M11_T44  1.3
    X_P17_T44  COST      16.5
    X_P17_T44  BAL_P17_T44  1
    X_P17_T44  CAP_M0_T44  1.8
    X_P17_T44  CAP_M1_T44  2.2
    X_P17_T44  CAP_M2_T44  2.7
    X_P17_T44  CAP_M3_T44  2.2
    X_P17_T44  CAP_M4_T44  1.2
    X_P17_T44  CAP_M5_T44  1.3
    X_P17_T44  CAP_M6_T44  0.7
    X_P17_T44  CAP_M7_T44  1.3
    X_P17_T44  CAP_M8_T44  2.8
    X_P17_T44  CAP_M9_T44  1.4
    X_P17_T44  CAP_M10_T44  2.7
    X_P17_T44  CAP_M11_T44  2.2
    X_P18_T44  COST      17.6
    X_P18_T44  BAL_P18_T44  1
    X_P18_T44  CAP_M0_T44  1.3
    X_P18_T44  CAP_M1_T44  2.9
    X_P18_T44  CAP_M2_T44  1.7
    X_P18_T44  CAP_M3_T44  0.5
    X_P18_T44  CAP_M4_T44  2.4
    X_P18_T44  CAP_M5_T44  2.9
    X_P18_T44  CAP_M6_T44  2.1
    X_P18_T44  CAP_M7_T44  2.7
    X_P18_T44  CAP_M8_T44  1.4
    X_P18_T44  CAP_M9_T44  0.5
    X_P18_T44  CAP_M10_T44  2.1
    X_P18_T44  CAP_M11_T44  1.1
    X_P19_T44  COST      21.9
    X_P19_T44  BAL_P19_T44  1
    X_P19_T44  CAP_M0_T44  2.2
    X_P19_T44  CAP_M1_T44  2.8
    X_P19_T44  CAP_M2_T44  1.6
    X_P19_T44  CAP_M3_T44  2.6
    X_P19_T44  CAP_M4_T44  1.7
    X_P19_T44  CAP_M5_T44  1.3
    X_P19_T44  CAP_M6_T44  1
    X_P19_T44  CAP_M7_T44  1.5
    X_P19_T44  CAP_M8_T44  0.6
    X_P19_T44  CAP_M9_T44  2.8
    X_P19_T44  CAP_M10_T44  0.8
    X_P19_T44  CAP_M11_T44  0.8
    X_P20_T44  COST      44.2
    X_P20_T44  BAL_P20_T44  1
    X_P20_T44  CAP_M0_T44  1.2
    X_P20_T44  CAP_M1_T44  2
    X_P20_T44  CAP_M2_T44  1.4
    X_P20_T44  CAP_M3_T44  2.3
    X_P20_T44  CAP_M4_T44  1.5
    X_P20_T44  CAP_M5_T44  1.6
    X_P20_T44  CAP_M6_T44  2.6
    X_P20_T44  CAP_M7_T44  2.1
    X_P20_T44  CAP_M8_T44  1.2
    X_P20_T44  CAP_M9_T44  1
    X_P20_T44  CAP_M10_T44  2.3
    X_P20_T44  CAP_M11_T44  1.8
    X_P21_T44  COST      37.5
    X_P21_T44  BAL_P21_T44  1
    X_P21_T44  CAP_M0_T44  2.4
    X_P21_T44  CAP_M1_T44  1.9
    X_P21_T44  CAP_M2_T44  2.9
    X_P21_T44  CAP_M3_T44  2.7
    X_P21_T44  CAP_M4_T44  2.7
    X_P21_T44  CAP_M5_T44  1.7
    X_P21_T44  CAP_M6_T44  2.8
    X_P21_T44  CAP_M7_T44  2.5
    X_P21_T44  CAP_M8_T44  3
    X_P21_T44  CAP_M9_T44  2.7
    X_P21_T44  CAP_M10_T44  2.4
    X_P21_T44  CAP_M11_T44  2.4
    X_P22_T44  COST      15.6
    X_P22_T44  BAL_P22_T44  1
    X_P22_T44  CAP_M0_T44  0.6
    X_P22_T44  CAP_M1_T44  2.9
    X_P22_T44  CAP_M2_T44  2.1
    X_P22_T44  CAP_M3_T44  2.1
    X_P22_T44  CAP_M4_T44  2
    X_P22_T44  CAP_M5_T44  2.4
    X_P22_T44  CAP_M6_T44  2.2
    X_P22_T44  CAP_M7_T44  0.7
    X_P22_T44  CAP_M8_T44  0.5
    X_P22_T44  CAP_M9_T44  1.8
    X_P22_T44  CAP_M10_T44  1.1
    X_P22_T44  CAP_M11_T44  2.6
    X_P23_T44  COST      44.9
    X_P23_T44  BAL_P23_T44  1
    X_P23_T44  CAP_M0_T44  2.9
    X_P23_T44  CAP_M1_T44  1.2
    X_P23_T44  CAP_M2_T44  1.8
    X_P23_T44  CAP_M3_T44  1.8
    X_P23_T44  CAP_M4_T44  1.5
    X_P23_T44  CAP_M5_T44  0.5
    X_P23_T44  CAP_M6_T44  2.8
    X_P23_T44  CAP_M7_T44  1.9
    X_P23_T44  CAP_M8_T44  2.2
    X_P23_T44  CAP_M9_T44  2.9
    X_P23_T44  CAP_M10_T44  2.1
    X_P23_T44  CAP_M11_T44  2.2
    X_P24_T44  COST      40.4
    X_P24_T44  BAL_P24_T44  1
    X_P24_T44  CAP_M0_T44  1.1
    X_P24_T44  CAP_M1_T44  2.5
    X_P24_T44  CAP_M2_T44  1.3
    X_P24_T44  CAP_M3_T44  2.8
    X_P24_T44  CAP_M4_T44  1.1
    X_P24_T44  CAP_M5_T44  2
    X_P24_T44  CAP_M6_T44  1.4
    X_P24_T44  CAP_M7_T44  0.5
    X_P24_T44  CAP_M8_T44  1.2
    X_P24_T44  CAP_M9_T44  2.4
    X_P24_T44  CAP_M10_T44  0.6
    X_P24_T44  CAP_M11_T44  1.9
    S_P0_T44  COST      2.3
    S_P0_T44  BAL_P0_T44  -1
    S_P0_T44  STORAGE_T44  1
    S_P0_T44  BAL_P0_T45  1
    S_P1_T44  COST      4.4
    S_P1_T44  BAL_P1_T44  -1
    S_P1_T44  STORAGE_T44  1
    S_P1_T44  BAL_P1_T45  1
    S_P2_T44  COST      3.4
    S_P2_T44  BAL_P2_T44  -1
    S_P2_T44  STORAGE_T44  1
    S_P2_T44  BAL_P2_T45  1
    S_P3_T44  COST      3.6
    S_P3_T44  BAL_P3_T44  -1
    S_P3_T44  STORAGE_T44  1
    S_P3_T44  BAL_P3_T45  1
    S_P4_T44  COST      4
    S_P4_T44  BAL_P4_T44  -1
    S_P4_T44  STORAGE_T44  1
    S_P4_T44  BAL_P4_T45  1
    S_P5_T44  COST      2.3
    S_P5_T44  BAL_P5_T44  -1
    S_P5_T44  STORAGE_T44  1
    S_P5_T44  BAL_P5_T45  1
    S_P6_T44  COST      3.8
    S_P6_T44  BAL_P6_T44  -1
    S_P6_T44  STORAGE_T44  1
    S_P6_T44  BAL_P6_T45  1
    S_P7_T44  COST      3.2
    S_P7_T44  BAL_P7_T44  -1
    S_P7_T44  STORAGE_T44  1
    S_P7_T44  BAL_P7_T45  1
    S_P8_T44  COST      2.8
    S_P8_T44  BAL_P8_T44  -1
    S_P8_T44  STORAGE_T44  1
    S_P8_T44  BAL_P8_T45  1
    S_P9_T44  COST      4.6
    S_P9_T44  BAL_P9_T44  -1
    S_P9_T44  STORAGE_T44  1
    S_P9_T44  BAL_P9_T45  1
    S_P10_T44  COST      2.8
    S_P10_T44  BAL_P10_T44  -1
    S_P10_T44  STORAGE_T44  1
    S_P10_T44  BAL_P10_T45  1
    S_P11_T44  COST      4.2
    S_P11_T44  BAL_P11_T44  -1
    S_P11_T44  STORAGE_T44  1
    S_P11_T44  BAL_P11_T45  1
    S_P12_T44  COST      1.5
    S_P12_T44  BAL_P12_T44  -1
    S_P12_T44  STORAGE_T44  1
    S_P12_T44  BAL_P12_T45  1
    S_P13_T44  COST      2.1
    S_P13_T44  BAL_P13_T44  -1
    S_P13_T44  STORAGE_T44  1
    S_P13_T44  BAL_P13_T45  1
    S_P14_T44  COST      3.7
    S_P14_T44  BAL_P14_T44  -1
    S_P14_T44  STORAGE_T44  1
    S_P14_T44  BAL_P14_T45  1
    S_P15_T44  COST      4.3
    S_P15_T44  BAL_P15_T44  -1
    S_P15_T44  STORAGE_T44  1
    S_P15_T44  BAL_P15_T45  1
    S_P16_T44  COST      1.6
    S_P16_T44  BAL_P16_T44  -1
    S_P16_T44  STORAGE_T44  1
    S_P16_T44  BAL_P16_T45  1
    S_P17_T44  COST      1.3
    S_P17_T44  BAL_P17_T44  -1
    S_P17_T44  STORAGE_T44  1
    S_P17_T44  BAL_P17_T45  1
    S_P18_T44  COST      3.1
    S_P18_T44  BAL_P18_T44  -1
    S_P18_T44  STORAGE_T44  1
    S_P18_T44  BAL_P18_T45  1
    S_P19_T44  COST      1.2
    S_P19_T44  BAL_P19_T44  -1
    S_P19_T44  STORAGE_T44  1
    S_P19_T44  BAL_P19_T45  1
    S_P20_T44  COST      2.2
    S_P20_T44  BAL_P20_T44  -1
    S_P20_T44  STORAGE_T44  1
    S_P20_T44  BAL_P20_T45  1
    S_P21_T44  COST      4.9
    S_P21_T44  BAL_P21_T44  -1
    S_P21_T44  STORAGE_T44  1
    S_P21_T44  BAL_P21_T45  1
    S_P22_T44  COST      2.5
    S_P22_T44  BAL_P22_T44  -1
    S_P22_T44  STORAGE_T44  1
    S_P22_T44  BAL_P22_T45  1
    S_P23_T44  COST      2.9
    S_P23_T44  BAL_P23_T44  -1
    S_P23_T44  STORAGE_T44  1
    S_P23_T44  BAL_P23_T45  1
    S_P24_T44  COST      4.2
    S_P24_T44  BAL_P24_T44  -1
    S_P24_T44  STORAGE_T44  1
    S_P24_T44  BAL_P24_T45  1
    X_P0_T45  COST      38
    X_P0_T45  BAL_P0_T45  1
    X_P0_T45  CAP_M0_T45  1.4
    X_P0_T45  CAP_M1_T45  2.4
    X_P0_T45  CAP_M2_T45  0.5
    X_P0_T45  CAP_M3_T45  1
    X_P0_T45  CAP_M4_T45  1.3
    X_P0_T45  CAP_M5_T45  0.8
    X_P0_T45  CAP_M6_T45  1
    X_P0_T45  CAP_M7_T45  1.7
    X_P0_T45  CAP_M8_T45  0.7
    X_P0_T45  CAP_M9_T45  1.5
    X_P0_T45  CAP_M10_T45  2.4
    X_P0_T45  CAP_M11_T45  0.9
    X_P1_T45  COST      27
    X_P1_T45  BAL_P1_T45  1
    X_P1_T45  CAP_M0_T45  1
    X_P1_T45  CAP_M1_T45  2.2
    X_P1_T45  CAP_M2_T45  1
    X_P1_T45  CAP_M3_T45  2.4
    X_P1_T45  CAP_M4_T45  3
    X_P1_T45  CAP_M5_T45  2.2
    X_P1_T45  CAP_M6_T45  2.7
    X_P1_T45  CAP_M7_T45  1.4
    X_P1_T45  CAP_M8_T45  1.9
    X_P1_T45  CAP_M9_T45  0.9
    X_P1_T45  CAP_M10_T45  2.9
    X_P1_T45  CAP_M11_T45  2.2
    X_P2_T45  COST      24.2
    X_P2_T45  BAL_P2_T45  1
    X_P2_T45  CAP_M0_T45  2.6
    X_P2_T45  CAP_M1_T45  1.4
    X_P2_T45  CAP_M2_T45  0.8
    X_P2_T45  CAP_M3_T45  2.3
    X_P2_T45  CAP_M4_T45  2.5
    X_P2_T45  CAP_M5_T45  1
    X_P2_T45  CAP_M6_T45  1.2
    X_P2_T45  CAP_M7_T45  1
    X_P2_T45  CAP_M8_T45  1.1
    X_P2_T45  CAP_M9_T45  1.9
    X_P2_T45  CAP_M10_T45  3
    X_P2_T45  CAP_M11_T45  0.8
    X_P3_T45  COST      27.6
    X_P3_T45  BAL_P3_T45  1
    X_P3_T45  CAP_M0_T45  1.8
    X_P3_T45  CAP_M1_T45  2.8
    X_P3_T45  CAP_M2_T45  2.1
    X_P3_T45  CAP_M3_T45  1.6
    X_P3_T45  CAP_M4_T45  1.1
    X_P3_T45  CAP_M5_T45  0.7
    X_P3_T45  CAP_M6_T45  2
    X_P3_T45  CAP_M7_T45  2.7
    X_P3_T45  CAP_M8_T45  1.9
    X_P3_T45  CAP_M9_T45  2.6
    X_P3_T45  CAP_M10_T45  2.1
    X_P3_T45  CAP_M11_T45  2.3
    X_P4_T45  COST      31.7
    X_P4_T45  BAL_P4_T45  1
    X_P4_T45  CAP_M0_T45  1.9
    X_P4_T45  CAP_M1_T45  2
    X_P4_T45  CAP_M2_T45  2.5
    X_P4_T45  CAP_M3_T45  2.7
    X_P4_T45  CAP_M4_T45  2.1
    X_P4_T45  CAP_M5_T45  1.2
    X_P4_T45  CAP_M6_T45  1.6
    X_P4_T45  CAP_M7_T45  1.6
    X_P4_T45  CAP_M8_T45  2.1
    X_P4_T45  CAP_M9_T45  1.7
    X_P4_T45  CAP_M10_T45  0.8
    X_P4_T45  CAP_M11_T45  1.6
    X_P5_T45  COST      25.9
    X_P5_T45  BAL_P5_T45  1
    X_P5_T45  CAP_M0_T45  2.1
    X_P5_T45  CAP_M1_T45  0.7
    X_P5_T45  CAP_M2_T45  2.9
    X_P5_T45  CAP_M3_T45  1.3
    X_P5_T45  CAP_M4_T45  2.6
    X_P5_T45  CAP_M5_T45  1.9
    X_P5_T45  CAP_M6_T45  2.4
    X_P5_T45  CAP_M7_T45  1.8
    X_P5_T45  CAP_M8_T45  1.4
    X_P5_T45  CAP_M9_T45  0.7
    X_P5_T45  CAP_M10_T45  0.6
    X_P5_T45  CAP_M11_T45  2.9
    X_P6_T45  COST      18.2
    X_P6_T45  BAL_P6_T45  1
    X_P6_T45  CAP_M0_T45  1.3
    X_P6_T45  CAP_M1_T45  1.8
    X_P6_T45  CAP_M2_T45  2.5
    X_P6_T45  CAP_M3_T45  2.2
    X_P6_T45  CAP_M4_T45  0.7
    X_P6_T45  CAP_M5_T45  1.5
    X_P6_T45  CAP_M6_T45  0.6
    X_P6_T45  CAP_M7_T45  1.9
    X_P6_T45  CAP_M8_T45  1.3
    X_P6_T45  CAP_M9_T45  2.1
    X_P6_T45  CAP_M10_T45  2.4
    X_P6_T45  CAP_M11_T45  1.1
    X_P7_T45  COST      46.4
    X_P7_T45  BAL_P7_T45  1
    X_P7_T45  CAP_M0_T45  1.1
    X_P7_T45  CAP_M1_T45  2.2
    X_P7_T45  CAP_M2_T45  2.5
    X_P7_T45  CAP_M3_T45  2.9
    X_P7_T45  CAP_M4_T45  1
    X_P7_T45  CAP_M5_T45  2.9
    X_P7_T45  CAP_M6_T45  2.4
    X_P7_T45  CAP_M7_T45  1.6
    X_P7_T45  CAP_M8_T45  1.4
    X_P7_T45  CAP_M9_T45  0.6
    X_P7_T45  CAP_M10_T45  1.6
    X_P7_T45  CAP_M11_T45  1.7
    X_P8_T45  COST      39.4
    X_P8_T45  BAL_P8_T45  1
    X_P8_T45  CAP_M0_T45  1.8
    X_P8_T45  CAP_M1_T45  0.7
    X_P8_T45  CAP_M2_T45  2.7
    X_P8_T45  CAP_M3_T45  2.3
    X_P8_T45  CAP_M4_T45  1.6
    X_P8_T45  CAP_M5_T45  1.3
    X_P8_T45  CAP_M6_T45  2.9
    X_P8_T45  CAP_M7_T45  1.1
    X_P8_T45  CAP_M8_T45  1.5
    X_P8_T45  CAP_M9_T45  2.1
    X_P8_T45  CAP_M10_T45  1.6
    X_P8_T45  CAP_M11_T45  0.7
    X_P9_T45  COST      31
    X_P9_T45  BAL_P9_T45  1
    X_P9_T45  CAP_M0_T45  1.3
    X_P9_T45  CAP_M1_T45  2.8
    X_P9_T45  CAP_M2_T45  1.3
    X_P9_T45  CAP_M3_T45  0.6
    X_P9_T45  CAP_M4_T45  1.7
    X_P9_T45  CAP_M5_T45  2.5
    X_P9_T45  CAP_M6_T45  1
    X_P9_T45  CAP_M7_T45  2.5
    X_P9_T45  CAP_M8_T45  2.7
    X_P9_T45  CAP_M9_T45  1.1
    X_P9_T45  CAP_M10_T45  1.8
    X_P9_T45  CAP_M11_T45  2.8
    X_P10_T45  COST      37.5
    X_P10_T45  BAL_P10_T45  1
    X_P10_T45  CAP_M0_T45  0.8
    X_P10_T45  CAP_M1_T45  0.8
    X_P10_T45  CAP_M2_T45  1.3
    X_P10_T45  CAP_M3_T45  0.8
    X_P10_T45  CAP_M4_T45  0.7
    X_P10_T45  CAP_M5_T45  1.7
    X_P10_T45  CAP_M6_T45  1.4
    X_P10_T45  CAP_M7_T45  1.3
    X_P10_T45  CAP_M8_T45  2.9
    X_P10_T45  CAP_M9_T45  1.6
    X_P10_T45  CAP_M10_T45  2.9
    X_P10_T45  CAP_M11_T45  0.7
    X_P11_T45  COST      42.9
    X_P11_T45  BAL_P11_T45  1
    X_P11_T45  CAP_M0_T45  2.4
    X_P11_T45  CAP_M1_T45  1.8
    X_P11_T45  CAP_M2_T45  1.8
    X_P11_T45  CAP_M3_T45  1.5
    X_P11_T45  CAP_M4_T45  2.8
    X_P11_T45  CAP_M5_T45  1.4
    X_P11_T45  CAP_M6_T45  0.7
    X_P11_T45  CAP_M7_T45  0.7
    X_P11_T45  CAP_M8_T45  2
    X_P11_T45  CAP_M9_T45  1.5
    X_P11_T45  CAP_M10_T45  1.7
    X_P11_T45  CAP_M11_T45  2.8
    X_P12_T45  COST      44.3
    X_P12_T45  BAL_P12_T45  1
    X_P12_T45  CAP_M0_T45  2.4
    X_P12_T45  CAP_M1_T45  2.3
    X_P12_T45  CAP_M2_T45  1.7
    X_P12_T45  CAP_M3_T45  2
    X_P12_T45  CAP_M4_T45  1.9
    X_P12_T45  CAP_M5_T45  1.2
    X_P12_T45  CAP_M6_T45  1.7
    X_P12_T45  CAP_M7_T45  1.4
    X_P12_T45  CAP_M8_T45  2
    X_P12_T45  CAP_M9_T45  1.6
    X_P12_T45  CAP_M10_T45  1.3
    X_P12_T45  CAP_M11_T45  2.7
    X_P13_T45  COST      32.2
    X_P13_T45  BAL_P13_T45  1
    X_P13_T45  CAP_M0_T45  2.2
    X_P13_T45  CAP_M1_T45  0.8
    X_P13_T45  CAP_M2_T45  2.7
    X_P13_T45  CAP_M3_T45  2.1
    X_P13_T45  CAP_M4_T45  1.8
    X_P13_T45  CAP_M5_T45  1.2
    X_P13_T45  CAP_M6_T45  1
    X_P13_T45  CAP_M7_T45  1.2
    X_P13_T45  CAP_M8_T45  1.8
    X_P13_T45  CAP_M9_T45  1
    X_P13_T45  CAP_M10_T45  1.3
    X_P13_T45  CAP_M11_T45  1.2
    X_P14_T45  COST      29.1
    X_P14_T45  BAL_P14_T45  1
    X_P14_T45  CAP_M0_T45  1.1
    X_P14_T45  CAP_M1_T45  1.8
    X_P14_T45  CAP_M2_T45  1.9
    X_P14_T45  CAP_M3_T45  1.4
    X_P14_T45  CAP_M4_T45  1.5
    X_P14_T45  CAP_M5_T45  1.9
    X_P14_T45  CAP_M6_T45  2.7
    X_P14_T45  CAP_M7_T45  0.8
    X_P14_T45  CAP_M8_T45  1.7
    X_P14_T45  CAP_M9_T45  2.2
    X_P14_T45  CAP_M10_T45  2.7
    X_P14_T45  CAP_M11_T45  1.2
    X_P15_T45  COST      40.2
    X_P15_T45  BAL_P15_T45  1
    X_P15_T45  CAP_M0_T45  0.8
    X_P15_T45  CAP_M1_T45  0.8
    X_P15_T45  CAP_M2_T45  2.4
    X_P15_T45  CAP_M3_T45  2.3
    X_P15_T45  CAP_M4_T45  1.8
    X_P15_T45  CAP_M5_T45  0.8
    X_P15_T45  CAP_M6_T45  0.8
    X_P15_T45  CAP_M7_T45  1.4
    X_P15_T45  CAP_M8_T45  1.3
    X_P15_T45  CAP_M9_T45  1.8
    X_P15_T45  CAP_M10_T45  2.1
    X_P15_T45  CAP_M11_T45  1.5
    X_P16_T45  COST      30.9
    X_P16_T45  BAL_P16_T45  1
    X_P16_T45  CAP_M0_T45  1.1
    X_P16_T45  CAP_M1_T45  0.5
    X_P16_T45  CAP_M2_T45  1.2
    X_P16_T45  CAP_M3_T45  2.8
    X_P16_T45  CAP_M4_T45  1.1
    X_P16_T45  CAP_M5_T45  1
    X_P16_T45  CAP_M6_T45  1.8
    X_P16_T45  CAP_M7_T45  1.8
    X_P16_T45  CAP_M8_T45  2.5
    X_P16_T45  CAP_M9_T45  1.6
    X_P16_T45  CAP_M10_T45  2.7
    X_P16_T45  CAP_M11_T45  1.3
    X_P17_T45  COST      19.1
    X_P17_T45  BAL_P17_T45  1
    X_P17_T45  CAP_M0_T45  1.8
    X_P17_T45  CAP_M1_T45  2.2
    X_P17_T45  CAP_M2_T45  2.7
    X_P17_T45  CAP_M3_T45  2.2
    X_P17_T45  CAP_M4_T45  1.2
    X_P17_T45  CAP_M5_T45  1.3
    X_P17_T45  CAP_M6_T45  0.7
    X_P17_T45  CAP_M7_T45  1.3
    X_P17_T45  CAP_M8_T45  2.8
    X_P17_T45  CAP_M9_T45  1.4
    X_P17_T45  CAP_M10_T45  2.7
    X_P17_T45  CAP_M11_T45  2.2
    X_P18_T45  COST      21.6
    X_P18_T45  BAL_P18_T45  1
    X_P18_T45  CAP_M0_T45  1.3
    X_P18_T45  CAP_M1_T45  2.9
    X_P18_T45  CAP_M2_T45  1.7
    X_P18_T45  CAP_M3_T45  0.5
    X_P18_T45  CAP_M4_T45  2.4
    X_P18_T45  CAP_M5_T45  2.9
    X_P18_T45  CAP_M6_T45  2.1
    X_P18_T45  CAP_M7_T45  2.7
    X_P18_T45  CAP_M8_T45  1.4
    X_P18_T45  CAP_M9_T45  0.5
    X_P18_T45  CAP_M10_T45  2.1
    X_P18_T45  CAP_M11_T45  1.1
    X_P19_T45  COST      12.4
    X_P19_T45  BAL_P19_T45  1
    X_P19_T45  CAP_M0_T45  2.2
    X_P19_T45  CAP_M1_T45  2.8
    X_P19_T45  CAP_M2_T45  1.6
    X_P19_T45  CAP_M3_T45  2.6
    X_P19_T45  CAP_M4_T45  1.7
    X_P19_T45  CAP_M5_T45  1.3
    X_P19_T45  CAP_M6_T45  1
    X_P19_T45  CAP_M7_T45  1.5
    X_P19_T45  CAP_M8_T45  0.6
    X_P19_T45  CAP_M9_T45  2.8
    X_P19_T45  CAP_M10_T45  0.8
    X_P19_T45  CAP_M11_T45  0.8
    X_P20_T45  COST      29.9
    X_P20_T45  BAL_P20_T45  1
    X_P20_T45  CAP_M0_T45  1.2
    X_P20_T45  CAP_M1_T45  2
    X_P20_T45  CAP_M2_T45  1.4
    X_P20_T45  CAP_M3_T45  2.3
    X_P20_T45  CAP_M4_T45  1.5
    X_P20_T45  CAP_M5_T45  1.6
    X_P20_T45  CAP_M6_T45  2.6
    X_P20_T45  CAP_M7_T45  2.1
    X_P20_T45  CAP_M8_T45  1.2
    X_P20_T45  CAP_M9_T45  1
    X_P20_T45  CAP_M10_T45  2.3
    X_P20_T45  CAP_M11_T45  1.8
    X_P21_T45  COST      16.2
    X_P21_T45  BAL_P21_T45  1
    X_P21_T45  CAP_M0_T45  2.4
    X_P21_T45  CAP_M1_T45  1.9
    X_P21_T45  CAP_M2_T45  2.9
    X_P21_T45  CAP_M3_T45  2.7
    X_P21_T45  CAP_M4_T45  2.7
    X_P21_T45  CAP_M5_T45  1.7
    X_P21_T45  CAP_M6_T45  2.8
    X_P21_T45  CAP_M7_T45  2.5
    X_P21_T45  CAP_M8_T45  3
    X_P21_T45  CAP_M9_T45  2.7
    X_P21_T45  CAP_M10_T45  2.4
    X_P21_T45  CAP_M11_T45  2.4
    X_P22_T45  COST      10.9
    X_P22_T45  BAL_P22_T45  1
    X_P22_T45  CAP_M0_T45  0.6
    X_P22_T45  CAP_M1_T45  2.9
    X_P22_T45  CAP_M2_T45  2.1
    X_P22_T45  CAP_M3_T45  2.1
    X_P22_T45  CAP_M4_T45  2
    X_P22_T45  CAP_M5_T45  2.4
    X_P22_T45  CAP_M6_T45  2.2
    X_P22_T45  CAP_M7_T45  0.7
    X_P22_T45  CAP_M8_T45  0.5
    X_P22_T45  CAP_M9_T45  1.8
    X_P22_T45  CAP_M10_T45  1.1
    X_P22_T45  CAP_M11_T45  2.6
    X_P23_T45  COST      35.7
    X_P23_T45  BAL_P23_T45  1
    X_P23_T45  CAP_M0_T45  2.9
    X_P23_T45  CAP_M1_T45  1.2
    X_P23_T45  CAP_M2_T45  1.8
    X_P23_T45  CAP_M3_T45  1.8
    X_P23_T45  CAP_M4_T45  1.5
    X_P23_T45  CAP_M5_T45  0.5
    X_P23_T45  CAP_M6_T45  2.8
    X_P23_T45  CAP_M7_T45  1.9
    X_P23_T45  CAP_M8_T45  2.2
    X_P23_T45  CAP_M9_T45  2.9
    X_P23_T45  CAP_M10_T45  2.1
    X_P23_T45  CAP_M11_T45  2.2
    X_P24_T45  COST      10
    X_P24_T45  BAL_P24_T45  1
    X_P24_T45  CAP_M0_T45  1.1
    X_P24_T45  CAP_M1_T45  2.5
    X_P24_T45  CAP_M2_T45  1.3
    X_P24_T45  CAP_M3_T45  2.8
    X_P24_T45  CAP_M4_T45  1.1
    X_P24_T45  CAP_M5_T45  2
    X_P24_T45  CAP_M6_T45  1.4
    X_P24_T45  CAP_M7_T45  0.5
    X_P24_T45  CAP_M8_T45  1.2
    X_P24_T45  CAP_M9_T45  2.4
    X_P24_T45  CAP_M10_T45  0.6
    X_P24_T45  CAP_M11_T45  1.9
    S_P0_T45  COST      2
    S_P0_T45  BAL_P0_T45  -1
    S_P0_T45  STORAGE_T45  1
    S_P0_T45  BAL_P0_T46  1
    S_P1_T45  COST      4.3
    S_P1_T45  BAL_P1_T45  -1
    S_P1_T45  STORAGE_T45  1
    S_P1_T45  BAL_P1_T46  1
    S_P2_T45  COST      1.3
    S_P2_T45  BAL_P2_T45  -1
    S_P2_T45  STORAGE_T45  1
    S_P2_T45  BAL_P2_T46  1
    S_P3_T45  COST      2.8
    S_P3_T45  BAL_P3_T45  -1
    S_P3_T45  STORAGE_T45  1
    S_P3_T45  BAL_P3_T46  1
    S_P4_T45  COST      1.2
    S_P4_T45  BAL_P4_T45  -1
    S_P4_T45  STORAGE_T45  1
    S_P4_T45  BAL_P4_T46  1
    S_P5_T45  COST      2.2
    S_P5_T45  BAL_P5_T45  -1
    S_P5_T45  STORAGE_T45  1
    S_P5_T45  BAL_P5_T46  1
    S_P6_T45  COST      3.6
    S_P6_T45  BAL_P6_T45  -1
    S_P6_T45  STORAGE_T45  1
    S_P6_T45  BAL_P6_T46  1
    S_P7_T45  COST      3
    S_P7_T45  BAL_P7_T45  -1
    S_P7_T45  STORAGE_T45  1
    S_P7_T45  BAL_P7_T46  1
    S_P8_T45  COST      1.2
    S_P8_T45  BAL_P8_T45  -1
    S_P8_T45  STORAGE_T45  1
    S_P8_T45  BAL_P8_T46  1
    S_P9_T45  COST      2.9
    S_P9_T45  BAL_P9_T45  -1
    S_P9_T45  STORAGE_T45  1
    S_P9_T45  BAL_P9_T46  1
    S_P10_T45  COST      1.2
    S_P10_T45  BAL_P10_T45  -1
    S_P10_T45  STORAGE_T45  1
    S_P10_T45  BAL_P10_T46  1
    S_P11_T45  COST      1.4
    S_P11_T45  BAL_P11_T45  -1
    S_P11_T45  STORAGE_T45  1
    S_P11_T45  BAL_P11_T46  1
    S_P12_T45  COST      2.7
    S_P12_T45  BAL_P12_T45  -1
    S_P12_T45  STORAGE_T45  1
    S_P12_T45  BAL_P12_T46  1
    S_P13_T45  COST      1.2
    S_P13_T45  BAL_P13_T45  -1
    S_P13_T45  STORAGE_T45  1
    S_P13_T45  BAL_P13_T46  1
    S_P14_T45  COST      3.8
    S_P14_T45  BAL_P14_T45  -1
    S_P14_T45  STORAGE_T45  1
    S_P14_T45  BAL_P14_T46  1
    S_P15_T45  COST      3.4
    S_P15_T45  BAL_P15_T45  -1
    S_P15_T45  STORAGE_T45  1
    S_P15_T45  BAL_P15_T46  1
    S_P16_T45  COST      3.5
    S_P16_T45  BAL_P16_T45  -1
    S_P16_T45  STORAGE_T45  1
    S_P16_T45  BAL_P16_T46  1
    S_P17_T45  COST      1.8
    S_P17_T45  BAL_P17_T45  -1
    S_P17_T45  STORAGE_T45  1
    S_P17_T45  BAL_P17_T46  1
    S_P18_T45  COST      3.2
    S_P18_T45  BAL_P18_T45  -1
    S_P18_T45  STORAGE_T45  1
    S_P18_T45  BAL_P18_T46  1
    S_P19_T45  COST      2.5
    S_P19_T45  BAL_P19_T45  -1
    S_P19_T45  STORAGE_T45  1
    S_P19_T45  BAL_P19_T46  1
    S_P20_T45  COST      4.2
    S_P20_T45  BAL_P20_T45  -1
    S_P20_T45  STORAGE_T45  1
    S_P20_T45  BAL_P20_T46  1
    S_P21_T45  COST      4
    S_P21_T45  BAL_P21_T45  -1
    S_P21_T45  STORAGE_T45  1
    S_P21_T45  BAL_P21_T46  1
    S_P22_T45  COST      2.1
    S_P22_T45  BAL_P22_T45  -1
    S_P22_T45  STORAGE_T45  1
    S_P22_T45  BAL_P22_T46  1
    S_P23_T45  COST      4.5
    S_P23_T45  BAL_P23_T45  -1
    S_P23_T45  STORAGE_T45  1
    S_P23_T45  BAL_P23_T46  1
    S_P24_T45  COST      4.1
    S_P24_T45  BAL_P24_T45  -1
    S_P24_T45  STORAGE_T45  1
    S_P24_T45  BAL_P24_T46  1
    X_P0_T46  COST      23.1
    X_P0_T46  BAL_P0_T46  1
    X_P0_T46  CAP_M0_T46  1.4
    X_P0_T46  CAP_M1_T46  2.4
    X_P0_T46  CAP_M2_T46  0.5
    X_P0_T46  CAP_M3_T46  1
    X_P0_T46  CAP_M4_T46  1.3
    X_P0_T46  CAP_M5_T46  0.8
    X_P0_T46  CAP_M6_T46  1
    X_P0_T46  CAP_M7_T46  1.7
    X_P0_T46  CAP_M8_T46  0.7
    X_P0_T46  CAP_M9_T46  1.5
    X_P0_T46  CAP_M10_T46  2.4
    X_P0_T46  CAP_M11_T46  0.9
    X_P1_T46  COST      17.2
    X_P1_T46  BAL_P1_T46  1
    X_P1_T46  CAP_M0_T46  1
    X_P1_T46  CAP_M1_T46  2.2
    X_P1_T46  CAP_M2_T46  1
    X_P1_T46  CAP_M3_T46  2.4
    X_P1_T46  CAP_M4_T46  3
    X_P1_T46  CAP_M5_T46  2.2
    X_P1_T46  CAP_M6_T46  2.7
    X_P1_T46  CAP_M7_T46  1.4
    X_P1_T46  CAP_M8_T46  1.9
    X_P1_T46  CAP_M9_T46  0.9
    X_P1_T46  CAP_M10_T46  2.9
    X_P1_T46  CAP_M11_T46  2.2
    X_P2_T46  COST      23.2
    X_P2_T46  BAL_P2_T46  1
    X_P2_T46  CAP_M0_T46  2.6
    X_P2_T46  CAP_M1_T46  1.4
    X_P2_T46  CAP_M2_T46  0.8
    X_P2_T46  CAP_M3_T46  2.3
    X_P2_T46  CAP_M4_T46  2.5
    X_P2_T46  CAP_M5_T46  1
    X_P2_T46  CAP_M6_T46  1.2
    X_P2_T46  CAP_M7_T46  1
    X_P2_T46  CAP_M8_T46  1.1
    X_P2_T46  CAP_M9_T46  1.9
    X_P2_T46  CAP_M10_T46  3
    X_P2_T46  CAP_M11_T46  0.8
    X_P3_T46  COST      15.4
    X_P3_T46  BAL_P3_T46  1
    X_P3_T46  CAP_M0_T46  1.8
    X_P3_T46  CAP_M1_T46  2.8
    X_P3_T46  CAP_M2_T46  2.1
    X_P3_T46  CAP_M3_T46  1.6
    X_P3_T46  CAP_M4_T46  1.1
    X_P3_T46  CAP_M5_T46  0.7
    X_P3_T46  CAP_M6_T46  2
    X_P3_T46  CAP_M7_T46  2.7
    X_P3_T46  CAP_M8_T46  1.9
    X_P3_T46  CAP_M9_T46  2.6
    X_P3_T46  CAP_M10_T46  2.1
    X_P3_T46  CAP_M11_T46  2.3
    X_P4_T46  COST      33.3
    X_P4_T46  BAL_P4_T46  1
    X_P4_T46  CAP_M0_T46  1.9
    X_P4_T46  CAP_M1_T46  2
    X_P4_T46  CAP_M2_T46  2.5
    X_P4_T46  CAP_M3_T46  2.7
    X_P4_T46  CAP_M4_T46  2.1
    X_P4_T46  CAP_M5_T46  1.2
    X_P4_T46  CAP_M6_T46  1.6
    X_P4_T46  CAP_M7_T46  1.6
    X_P4_T46  CAP_M8_T46  2.1
    X_P4_T46  CAP_M9_T46  1.7
    X_P4_T46  CAP_M10_T46  0.8
    X_P4_T46  CAP_M11_T46  1.6
    X_P5_T46  COST      18.9
    X_P5_T46  BAL_P5_T46  1
    X_P5_T46  CAP_M0_T46  2.1
    X_P5_T46  CAP_M1_T46  0.7
    X_P5_T46  CAP_M2_T46  2.9
    X_P5_T46  CAP_M3_T46  1.3
    X_P5_T46  CAP_M4_T46  2.6
    X_P5_T46  CAP_M5_T46  1.9
    X_P5_T46  CAP_M6_T46  2.4
    X_P5_T46  CAP_M7_T46  1.8
    X_P5_T46  CAP_M8_T46  1.4
    X_P5_T46  CAP_M9_T46  0.7
    X_P5_T46  CAP_M10_T46  0.6
    X_P5_T46  CAP_M11_T46  2.9
    X_P6_T46  COST      45.3
    X_P6_T46  BAL_P6_T46  1
    X_P6_T46  CAP_M0_T46  1.3
    X_P6_T46  CAP_M1_T46  1.8
    X_P6_T46  CAP_M2_T46  2.5
    X_P6_T46  CAP_M3_T46  2.2
    X_P6_T46  CAP_M4_T46  0.7
    X_P6_T46  CAP_M5_T46  1.5
    X_P6_T46  CAP_M6_T46  0.6
    X_P6_T46  CAP_M7_T46  1.9
    X_P6_T46  CAP_M8_T46  1.3
    X_P6_T46  CAP_M9_T46  2.1
    X_P6_T46  CAP_M10_T46  2.4
    X_P6_T46  CAP_M11_T46  1.1
    X_P7_T46  COST      24
    X_P7_T46  BAL_P7_T46  1
    X_P7_T46  CAP_M0_T46  1.1
    X_P7_T46  CAP_M1_T46  2.2
    X_P7_T46  CAP_M2_T46  2.5
    X_P7_T46  CAP_M3_T46  2.9
    X_P7_T46  CAP_M4_T46  1
    X_P7_T46  CAP_M5_T46  2.9
    X_P7_T46  CAP_M6_T46  2.4
    X_P7_T46  CAP_M7_T46  1.6
    X_P7_T46  CAP_M8_T46  1.4
    X_P7_T46  CAP_M9_T46  0.6
    X_P7_T46  CAP_M10_T46  1.6
    X_P7_T46  CAP_M11_T46  1.7
    X_P8_T46  COST      28.1
    X_P8_T46  BAL_P8_T46  1
    X_P8_T46  CAP_M0_T46  1.8
    X_P8_T46  CAP_M1_T46  0.7
    X_P8_T46  CAP_M2_T46  2.7
    X_P8_T46  CAP_M3_T46  2.3
    X_P8_T46  CAP_M4_T46  1.6
    X_P8_T46  CAP_M5_T46  1.3
    X_P8_T46  CAP_M6_T46  2.9
    X_P8_T46  CAP_M7_T46  1.1
    X_P8_T46  CAP_M8_T46  1.5
    X_P8_T46  CAP_M9_T46  2.1
    X_P8_T46  CAP_M10_T46  1.6
    X_P8_T46  CAP_M11_T46  0.7
    X_P9_T46  COST      40.8
    X_P9_T46  BAL_P9_T46  1
    X_P9_T46  CAP_M0_T46  1.3
    X_P9_T46  CAP_M1_T46  2.8
    X_P9_T46  CAP_M2_T46  1.3
    X_P9_T46  CAP_M3_T46  0.6
    X_P9_T46  CAP_M4_T46  1.7
    X_P9_T46  CAP_M5_T46  2.5
    X_P9_T46  CAP_M6_T46  1
    X_P9_T46  CAP_M7_T46  2.5
    X_P9_T46  CAP_M8_T46  2.7
    X_P9_T46  CAP_M9_T46  1.1
    X_P9_T46  CAP_M10_T46  1.8
    X_P9_T46  CAP_M11_T46  2.8
    X_P10_T46  COST      48.9
    X_P10_T46  BAL_P10_T46  1
    X_P10_T46  CAP_M0_T46  0.8
    X_P10_T46  CAP_M1_T46  0.8
    X_P10_T46  CAP_M2_T46  1.3
    X_P10_T46  CAP_M3_T46  0.8
    X_P10_T46  CAP_M4_T46  0.7
    X_P10_T46  CAP_M5_T46  1.7
    X_P10_T46  CAP_M6_T46  1.4
    X_P10_T46  CAP_M7_T46  1.3
    X_P10_T46  CAP_M8_T46  2.9
    X_P10_T46  CAP_M9_T46  1.6
    X_P10_T46  CAP_M10_T46  2.9
    X_P10_T46  CAP_M11_T46  0.7
    X_P11_T46  COST      19.9
    X_P11_T46  BAL_P11_T46  1
    X_P11_T46  CAP_M0_T46  2.4
    X_P11_T46  CAP_M1_T46  1.8
    X_P11_T46  CAP_M2_T46  1.8
    X_P11_T46  CAP_M3_T46  1.5
    X_P11_T46  CAP_M4_T46  2.8
    X_P11_T46  CAP_M5_T46  1.4
    X_P11_T46  CAP_M6_T46  0.7
    X_P11_T46  CAP_M7_T46  0.7
    X_P11_T46  CAP_M8_T46  2
    X_P11_T46  CAP_M9_T46  1.5
    X_P11_T46  CAP_M10_T46  1.7
    X_P11_T46  CAP_M11_T46  2.8
    X_P12_T46  COST      40.5
    X_P12_T46  BAL_P12_T46  1
    X_P12_T46  CAP_M0_T46  2.4
    X_P12_T46  CAP_M1_T46  2.3
    X_P12_T46  CAP_M2_T46  1.7
    X_P12_T46  CAP_M3_T46  2
    X_P12_T46  CAP_M4_T46  1.9
    X_P12_T46  CAP_M5_T46  1.2
    X_P12_T46  CAP_M6_T46  1.7
    X_P12_T46  CAP_M7_T46  1.4
    X_P12_T46  CAP_M8_T46  2
    X_P12_T46  CAP_M9_T46  1.6
    X_P12_T46  CAP_M10_T46  1.3
    X_P12_T46  CAP_M11_T46  2.7
    X_P13_T46  COST      48.1
    X_P13_T46  BAL_P13_T46  1
    X_P13_T46  CAP_M0_T46  2.2
    X_P13_T46  CAP_M1_T46  0.8
    X_P13_T46  CAP_M2_T46  2.7
    X_P13_T46  CAP_M3_T46  2.1
    X_P13_T46  CAP_M4_T46  1.8
    X_P13_T46  CAP_M5_T46  1.2
    X_P13_T46  CAP_M6_T46  1
    X_P13_T46  CAP_M7_T46  1.2
    X_P13_T46  CAP_M8_T46  1.8
    X_P13_T46  CAP_M9_T46  1
    X_P13_T46  CAP_M10_T46  1.3
    X_P13_T46  CAP_M11_T46  1.2
    X_P14_T46  COST      23.3
    X_P14_T46  BAL_P14_T46  1
    X_P14_T46  CAP_M0_T46  1.1
    X_P14_T46  CAP_M1_T46  1.8
    X_P14_T46  CAP_M2_T46  1.9
    X_P14_T46  CAP_M3_T46  1.4
    X_P14_T46  CAP_M4_T46  1.5
    X_P14_T46  CAP_M5_T46  1.9
    X_P14_T46  CAP_M6_T46  2.7
    X_P14_T46  CAP_M7_T46  0.8
    X_P14_T46  CAP_M8_T46  1.7
    X_P14_T46  CAP_M9_T46  2.2
    X_P14_T46  CAP_M10_T46  2.7
    X_P14_T46  CAP_M11_T46  1.2
    X_P15_T46  COST      13
    X_P15_T46  BAL_P15_T46  1
    X_P15_T46  CAP_M0_T46  0.8
    X_P15_T46  CAP_M1_T46  0.8
    X_P15_T46  CAP_M2_T46  2.4
    X_P15_T46  CAP_M3_T46  2.3
    X_P15_T46  CAP_M4_T46  1.8
    X_P15_T46  CAP_M5_T46  0.8
    X_P15_T46  CAP_M6_T46  0.8
    X_P15_T46  CAP_M7_T46  1.4
    X_P15_T46  CAP_M8_T46  1.3
    X_P15_T46  CAP_M9_T46  1.8
    X_P15_T46  CAP_M10_T46  2.1
    X_P15_T46  CAP_M11_T46  1.5
    X_P16_T46  COST      42.6
    X_P16_T46  BAL_P16_T46  1
    X_P16_T46  CAP_M0_T46  1.1
    X_P16_T46  CAP_M1_T46  0.5
    X_P16_T46  CAP_M2_T46  1.2
    X_P16_T46  CAP_M3_T46  2.8
    X_P16_T46  CAP_M4_T46  1.1
    X_P16_T46  CAP_M5_T46  1
    X_P16_T46  CAP_M6_T46  1.8
    X_P16_T46  CAP_M7_T46  1.8
    X_P16_T46  CAP_M8_T46  2.5
    X_P16_T46  CAP_M9_T46  1.6
    X_P16_T46  CAP_M10_T46  2.7
    X_P16_T46  CAP_M11_T46  1.3
    X_P17_T46  COST      32.5
    X_P17_T46  BAL_P17_T46  1
    X_P17_T46  CAP_M0_T46  1.8
    X_P17_T46  CAP_M1_T46  2.2
    X_P17_T46  CAP_M2_T46  2.7
    X_P17_T46  CAP_M3_T46  2.2
    X_P17_T46  CAP_M4_T46  1.2
    X_P17_T46  CAP_M5_T46  1.3
    X_P17_T46  CAP_M6_T46  0.7
    X_P17_T46  CAP_M7_T46  1.3
    X_P17_T46  CAP_M8_T46  2.8
    X_P17_T46  CAP_M9_T46  1.4
    X_P17_T46  CAP_M10_T46  2.7
    X_P17_T46  CAP_M11_T46  2.2
    X_P18_T46  COST      38.6
    X_P18_T46  BAL_P18_T46  1
    X_P18_T46  CAP_M0_T46  1.3
    X_P18_T46  CAP_M1_T46  2.9
    X_P18_T46  CAP_M2_T46  1.7
    X_P18_T46  CAP_M3_T46  0.5
    X_P18_T46  CAP_M4_T46  2.4
    X_P18_T46  CAP_M5_T46  2.9
    X_P18_T46  CAP_M6_T46  2.1
    X_P18_T46  CAP_M7_T46  2.7
    X_P18_T46  CAP_M8_T46  1.4
    X_P18_T46  CAP_M9_T46  0.5
    X_P18_T46  CAP_M10_T46  2.1
    X_P18_T46  CAP_M11_T46  1.1
    X_P19_T46  COST      15
    X_P19_T46  BAL_P19_T46  1
    X_P19_T46  CAP_M0_T46  2.2
    X_P19_T46  CAP_M1_T46  2.8
    X_P19_T46  CAP_M2_T46  1.6
    X_P19_T46  CAP_M3_T46  2.6
    X_P19_T46  CAP_M4_T46  1.7
    X_P19_T46  CAP_M5_T46  1.3
    X_P19_T46  CAP_M6_T46  1
    X_P19_T46  CAP_M7_T46  1.5
    X_P19_T46  CAP_M8_T46  0.6
    X_P19_T46  CAP_M9_T46  2.8
    X_P19_T46  CAP_M10_T46  0.8
    X_P19_T46  CAP_M11_T46  0.8
    X_P20_T46  COST      45.6
    X_P20_T46  BAL_P20_T46  1
    X_P20_T46  CAP_M0_T46  1.2
    X_P20_T46  CAP_M1_T46  2
    X_P20_T46  CAP_M2_T46  1.4
    X_P20_T46  CAP_M3_T46  2.3
    X_P20_T46  CAP_M4_T46  1.5
    X_P20_T46  CAP_M5_T46  1.6
    X_P20_T46  CAP_M6_T46  2.6
    X_P20_T46  CAP_M7_T46  2.1
    X_P20_T46  CAP_M8_T46  1.2
    X_P20_T46  CAP_M9_T46  1
    X_P20_T46  CAP_M10_T46  2.3
    X_P20_T46  CAP_M11_T46  1.8
    X_P21_T46  COST      23
    X_P21_T46  BAL_P21_T46  1
    X_P21_T46  CAP_M0_T46  2.4
    X_P21_T46  CAP_M1_T46  1.9
    X_P21_T46  CAP_M2_T46  2.9
    X_P21_T46  CAP_M3_T46  2.7
    X_P21_T46  CAP_M4_T46  2.7
    X_P21_T46  CAP_M5_T46  1.7
    X_P21_T46  CAP_M6_T46  2.8
    X_P21_T46  CAP_M7_T46  2.5
    X_P21_T46  CAP_M8_T46  3
    X_P21_T46  CAP_M9_T46  2.7
    X_P21_T46  CAP_M10_T46  2.4
    X_P21_T46  CAP_M11_T46  2.4
    X_P22_T46  COST      17.3
    X_P22_T46  BAL_P22_T46  1
    X_P22_T46  CAP_M0_T46  0.6
    X_P22_T46  CAP_M1_T46  2.9
    X_P22_T46  CAP_M2_T46  2.1
    X_P22_T46  CAP_M3_T46  2.1
    X_P22_T46  CAP_M4_T46  2
    X_P22_T46  CAP_M5_T46  2.4
    X_P22_T46  CAP_M6_T46  2.2
    X_P22_T46  CAP_M7_T46  0.7
    X_P22_T46  CAP_M8_T46  0.5
    X_P22_T46  CAP_M9_T46  1.8
    X_P22_T46  CAP_M10_T46  1.1
    X_P22_T46  CAP_M11_T46  2.6
    X_P23_T46  COST      21.8
    X_P23_T46  BAL_P23_T46  1
    X_P23_T46  CAP_M0_T46  2.9
    X_P23_T46  CAP_M1_T46  1.2
    X_P23_T46  CAP_M2_T46  1.8
    X_P23_T46  CAP_M3_T46  1.8
    X_P23_T46  CAP_M4_T46  1.5
    X_P23_T46  CAP_M5_T46  0.5
    X_P23_T46  CAP_M6_T46  2.8
    X_P23_T46  CAP_M7_T46  1.9
    X_P23_T46  CAP_M8_T46  2.2
    X_P23_T46  CAP_M9_T46  2.9
    X_P23_T46  CAP_M10_T46  2.1
    X_P23_T46  CAP_M11_T46  2.2
    X_P24_T46  COST      44.4
    X_P24_T46  BAL_P24_T46  1
    X_P24_T46  CAP_M0_T46  1.1
    X_P24_T46  CAP_M1_T46  2.5
    X_P24_T46  CAP_M2_T46  1.3
    X_P24_T46  CAP_M3_T46  2.8
    X_P24_T46  CAP_M4_T46  1.1
    X_P24_T46  CAP_M5_T46  2
    X_P24_T46  CAP_M6_T46  1.4
    X_P24_T46  CAP_M7_T46  0.5
    X_P24_T46  CAP_M8_T46  1.2
    X_P24_T46  CAP_M9_T46  2.4
    X_P24_T46  CAP_M10_T46  0.6
    X_P24_T46  CAP_M11_T46  1.9
    S_P0_T46  COST      1.6
    S_P0_T46  BAL_P0_T46  -1
    S_P0_T46  STORAGE_T46  1
    S_P0_T46  BAL_P0_T47  1
    S_P1_T46  COST      3.6
    S_P1_T46  BAL_P1_T46  -1
    S_P1_T46  STORAGE_T46  1
    S_P1_T46  BAL_P1_T47  1
    S_P2_T46  COST      3.5
    S_P2_T46  BAL_P2_T46  -1
    S_P2_T46  STORAGE_T46  1
    S_P2_T46  BAL_P2_T47  1
    S_P3_T46  COST      2.4
    S_P3_T46  BAL_P3_T46  -1
    S_P3_T46  STORAGE_T46  1
    S_P3_T46  BAL_P3_T47  1
    S_P4_T46  COST      3.9
    S_P4_T46  BAL_P4_T46  -1
    S_P4_T46  STORAGE_T46  1
    S_P4_T46  BAL_P4_T47  1
    S_P5_T46  COST      2
    S_P5_T46  BAL_P5_T46  -1
    S_P5_T46  STORAGE_T46  1
    S_P5_T46  BAL_P5_T47  1
    S_P6_T46  COST      1
    S_P6_T46  BAL_P6_T46  -1
    S_P6_T46  STORAGE_T46  1
    S_P6_T46  BAL_P6_T47  1
    S_P7_T46  COST      3.1
    S_P7_T46  BAL_P7_T46  -1
    S_P7_T46  STORAGE_T46  1
    S_P7_T46  BAL_P7_T47  1
    S_P8_T46  COST      4.3
    S_P8_T46  BAL_P8_T46  -1
    S_P8_T46  STORAGE_T46  1
    S_P8_T46  BAL_P8_T47  1
    S_P9_T46  COST      4.7
    S_P9_T46  BAL_P9_T46  -1
    S_P9_T46  STORAGE_T46  1
    S_P9_T46  BAL_P9_T47  1
    S_P10_T46  COST      2.2
    S_P10_T46  BAL_P10_T46  -1
    S_P10_T46  STORAGE_T46  1
    S_P10_T46  BAL_P10_T47  1
    S_P11_T46  COST      3.8
    S_P11_T46  BAL_P11_T46  -1
    S_P11_T46  STORAGE_T46  1
    S_P11_T46  BAL_P11_T47  1
    S_P12_T46  COST      3
    S_P12_T46  BAL_P12_T46  -1
    S_P12_T46  STORAGE_T46  1
    S_P12_T46  BAL_P12_T47  1
    S_P13_T46  COST      2.9
    S_P13_T46  BAL_P13_T46  -1
    S_P13_T46  STORAGE_T46  1
    S_P13_T46  BAL_P13_T47  1
    S_P14_T46  COST      3.3
    S_P14_T46  BAL_P14_T46  -1
    S_P14_T46  STORAGE_T46  1
    S_P14_T46  BAL_P14_T47  1
    S_P15_T46  COST      4.6
    S_P15_T46  BAL_P15_T46  -1
    S_P15_T46  STORAGE_T46  1
    S_P15_T46  BAL_P15_T47  1
    S_P16_T46  COST      4.3
    S_P16_T46  BAL_P16_T46  -1
    S_P16_T46  STORAGE_T46  1
    S_P16_T46  BAL_P16_T47  1
    S_P17_T46  COST      1.6
    S_P17_T46  BAL_P17_T46  -1
    S_P17_T46  STORAGE_T46  1
    S_P17_T46  BAL_P17_T47  1
    S_P18_T46  COST      3.4
    S_P18_T46  BAL_P18_T46  -1
    S_P18_T46  STORAGE_T46  1
    S_P18_T46  BAL_P18_T47  1
    S_P19_T46  COST      1.9
    S_P19_T46  BAL_P19_T46  -1
    S_P19_T46  STORAGE_T46  1
    S_P19_T46  BAL_P19_T47  1
    S_P20_T46  COST      2.1
    S_P20_T46  BAL_P20_T46  -1
    S_P20_T46  STORAGE_T46  1
    S_P20_T46  BAL_P20_T47  1
    S_P21_T46  COST      1.9
    S_P21_T46  BAL_P21_T46  -1
    S_P21_T46  STORAGE_T46  1
    S_P21_T46  BAL_P21_T47  1
    S_P22_T46  COST      1.9
    S_P22_T46  BAL_P22_T46  -1
    S_P22_T46  STORAGE_T46  1
    S_P22_T46  BAL_P22_T47  1
    S_P23_T46  COST      1.1
    S_P23_T46  BAL_P23_T46  -1
    S_P23_T46  STORAGE_T46  1
    S_P23_T46  BAL_P23_T47  1
    S_P24_T46  COST      1
    S_P24_T46  BAL_P24_T46  -1
    S_P24_T46  STORAGE_T46  1
    S_P24_T46  BAL_P24_T47  1
    X_P0_T47  COST      47
    X_P0_T47  BAL_P0_T47  1
    X_P0_T47  CAP_M0_T47  1.4
    X_P0_T47  CAP_M1_T47  2.4
    X_P0_T47  CAP_M2_T47  0.5
    X_P0_T47  CAP_M3_T47  1
    X_P0_T47  CAP_M4_T47  1.3
    X_P0_T47  CAP_M5_T47  0.8
    X_P0_T47  CAP_M6_T47  1
    X_P0_T47  CAP_M7_T47  1.7
    X_P0_T47  CAP_M8_T47  0.7
    X_P0_T47  CAP_M9_T47  1.5
    X_P0_T47  CAP_M10_T47  2.4
    X_P0_T47  CAP_M11_T47  0.9
    X_P1_T47  COST      39.3
    X_P1_T47  BAL_P1_T47  1
    X_P1_T47  CAP_M0_T47  1
    X_P1_T47  CAP_M1_T47  2.2
    X_P1_T47  CAP_M2_T47  1
    X_P1_T47  CAP_M3_T47  2.4
    X_P1_T47  CAP_M4_T47  3
    X_P1_T47  CAP_M5_T47  2.2
    X_P1_T47  CAP_M6_T47  2.7
    X_P1_T47  CAP_M7_T47  1.4
    X_P1_T47  CAP_M8_T47  1.9
    X_P1_T47  CAP_M9_T47  0.9
    X_P1_T47  CAP_M10_T47  2.9
    X_P1_T47  CAP_M11_T47  2.2
    X_P2_T47  COST      37
    X_P2_T47  BAL_P2_T47  1
    X_P2_T47  CAP_M0_T47  2.6
    X_P2_T47  CAP_M1_T47  1.4
    X_P2_T47  CAP_M2_T47  0.8
    X_P2_T47  CAP_M3_T47  2.3
    X_P2_T47  CAP_M4_T47  2.5
    X_P2_T47  CAP_M5_T47  1
    X_P2_T47  CAP_M6_T47  1.2
    X_P2_T47  CAP_M7_T47  1
    X_P2_T47  CAP_M8_T47  1.1
    X_P2_T47  CAP_M9_T47  1.9
    X_P2_T47  CAP_M10_T47  3
    X_P2_T47  CAP_M11_T47  0.8
    X_P3_T47  COST      27.5
    X_P3_T47  BAL_P3_T47  1
    X_P3_T47  CAP_M0_T47  1.8
    X_P3_T47  CAP_M1_T47  2.8
    X_P3_T47  CAP_M2_T47  2.1
    X_P3_T47  CAP_M3_T47  1.6
    X_P3_T47  CAP_M4_T47  1.1
    X_P3_T47  CAP_M5_T47  0.7
    X_P3_T47  CAP_M6_T47  2
    X_P3_T47  CAP_M7_T47  2.7
    X_P3_T47  CAP_M8_T47  1.9
    X_P3_T47  CAP_M9_T47  2.6
    X_P3_T47  CAP_M10_T47  2.1
    X_P3_T47  CAP_M11_T47  2.3
    X_P4_T47  COST      35.8
    X_P4_T47  BAL_P4_T47  1
    X_P4_T47  CAP_M0_T47  1.9
    X_P4_T47  CAP_M1_T47  2
    X_P4_T47  CAP_M2_T47  2.5
    X_P4_T47  CAP_M3_T47  2.7
    X_P4_T47  CAP_M4_T47  2.1
    X_P4_T47  CAP_M5_T47  1.2
    X_P4_T47  CAP_M6_T47  1.6
    X_P4_T47  CAP_M7_T47  1.6
    X_P4_T47  CAP_M8_T47  2.1
    X_P4_T47  CAP_M9_T47  1.7
    X_P4_T47  CAP_M10_T47  0.8
    X_P4_T47  CAP_M11_T47  1.6
    X_P5_T47  COST      14.9
    X_P5_T47  BAL_P5_T47  1
    X_P5_T47  CAP_M0_T47  2.1
    X_P5_T47  CAP_M1_T47  0.7
    X_P5_T47  CAP_M2_T47  2.9
    X_P5_T47  CAP_M3_T47  1.3
    X_P5_T47  CAP_M4_T47  2.6
    X_P5_T47  CAP_M5_T47  1.9
    X_P5_T47  CAP_M6_T47  2.4
    X_P5_T47  CAP_M7_T47  1.8
    X_P5_T47  CAP_M8_T47  1.4
    X_P5_T47  CAP_M9_T47  0.7
    X_P5_T47  CAP_M10_T47  0.6
    X_P5_T47  CAP_M11_T47  2.9
    X_P6_T47  COST      40
    X_P6_T47  BAL_P6_T47  1
    X_P6_T47  CAP_M0_T47  1.3
    X_P6_T47  CAP_M1_T47  1.8
    X_P6_T47  CAP_M2_T47  2.5
    X_P6_T47  CAP_M3_T47  2.2
    X_P6_T47  CAP_M4_T47  0.7
    X_P6_T47  CAP_M5_T47  1.5
    X_P6_T47  CAP_M6_T47  0.6
    X_P6_T47  CAP_M7_T47  1.9
    X_P6_T47  CAP_M8_T47  1.3
    X_P6_T47  CAP_M9_T47  2.1
    X_P6_T47  CAP_M10_T47  2.4
    X_P6_T47  CAP_M11_T47  1.1
    X_P7_T47  COST      41.5
    X_P7_T47  BAL_P7_T47  1
    X_P7_T47  CAP_M0_T47  1.1
    X_P7_T47  CAP_M1_T47  2.2
    X_P7_T47  CAP_M2_T47  2.5
    X_P7_T47  CAP_M3_T47  2.9
    X_P7_T47  CAP_M4_T47  1
    X_P7_T47  CAP_M5_T47  2.9
    X_P7_T47  CAP_M6_T47  2.4
    X_P7_T47  CAP_M7_T47  1.6
    X_P7_T47  CAP_M8_T47  1.4
    X_P7_T47  CAP_M9_T47  0.6
    X_P7_T47  CAP_M10_T47  1.6
    X_P7_T47  CAP_M11_T47  1.7
    X_P8_T47  COST      36.2
    X_P8_T47  BAL_P8_T47  1
    X_P8_T47  CAP_M0_T47  1.8
    X_P8_T47  CAP_M1_T47  0.7
    X_P8_T47  CAP_M2_T47  2.7
    X_P8_T47  CAP_M3_T47  2.3
    X_P8_T47  CAP_M4_T47  1.6
    X_P8_T47  CAP_M5_T47  1.3
    X_P8_T47  CAP_M6_T47  2.9
    X_P8_T47  CAP_M7_T47  1.1
    X_P8_T47  CAP_M8_T47  1.5
    X_P8_T47  CAP_M9_T47  2.1
    X_P8_T47  CAP_M10_T47  1.6
    X_P8_T47  CAP_M11_T47  0.7
    X_P9_T47  COST      34.3
    X_P9_T47  BAL_P9_T47  1
    X_P9_T47  CAP_M0_T47  1.3
    X_P9_T47  CAP_M1_T47  2.8
    X_P9_T47  CAP_M2_T47  1.3
    X_P9_T47  CAP_M3_T47  0.6
    X_P9_T47  CAP_M4_T47  1.7
    X_P9_T47  CAP_M5_T47  2.5
    X_P9_T47  CAP_M6_T47  1
    X_P9_T47  CAP_M7_T47  2.5
    X_P9_T47  CAP_M8_T47  2.7
    X_P9_T47  CAP_M9_T47  1.1
    X_P9_T47  CAP_M10_T47  1.8
    X_P9_T47  CAP_M11_T47  2.8
    X_P10_T47  COST      29.6
    X_P10_T47  BAL_P10_T47  1
    X_P10_T47  CAP_M0_T47  0.8
    X_P10_T47  CAP_M1_T47  0.8
    X_P10_T47  CAP_M2_T47  1.3
    X_P10_T47  CAP_M3_T47  0.8
    X_P10_T47  CAP_M4_T47  0.7
    X_P10_T47  CAP_M5_T47  1.7
    X_P10_T47  CAP_M6_T47  1.4
    X_P10_T47  CAP_M7_T47  1.3
    X_P10_T47  CAP_M8_T47  2.9
    X_P10_T47  CAP_M9_T47  1.6
    X_P10_T47  CAP_M10_T47  2.9
    X_P10_T47  CAP_M11_T47  0.7
    X_P11_T47  COST      48.5
    X_P11_T47  BAL_P11_T47  1
    X_P11_T47  CAP_M0_T47  2.4
    X_P11_T47  CAP_M1_T47  1.8
    X_P11_T47  CAP_M2_T47  1.8
    X_P11_T47  CAP_M3_T47  1.5
    X_P11_T47  CAP_M4_T47  2.8
    X_P11_T47  CAP_M5_T47  1.4
    X_P11_T47  CAP_M6_T47  0.7
    X_P11_T47  CAP_M7_T47  0.7
    X_P11_T47  CAP_M8_T47  2
    X_P11_T47  CAP_M9_T47  1.5
    X_P11_T47  CAP_M10_T47  1.7
    X_P11_T47  CAP_M11_T47  2.8
    X_P12_T47  COST      23.3
    X_P12_T47  BAL_P12_T47  1
    X_P12_T47  CAP_M0_T47  2.4
    X_P12_T47  CAP_M1_T47  2.3
    X_P12_T47  CAP_M2_T47  1.7
    X_P12_T47  CAP_M3_T47  2
    X_P12_T47  CAP_M4_T47  1.9
    X_P12_T47  CAP_M5_T47  1.2
    X_P12_T47  CAP_M6_T47  1.7
    X_P12_T47  CAP_M7_T47  1.4
    X_P12_T47  CAP_M8_T47  2
    X_P12_T47  CAP_M9_T47  1.6
    X_P12_T47  CAP_M10_T47  1.3
    X_P12_T47  CAP_M11_T47  2.7
    X_P13_T47  COST      42.8
    X_P13_T47  BAL_P13_T47  1
    X_P13_T47  CAP_M0_T47  2.2
    X_P13_T47  CAP_M1_T47  0.8
    X_P13_T47  CAP_M2_T47  2.7
    X_P13_T47  CAP_M3_T47  2.1
    X_P13_T47  CAP_M4_T47  1.8
    X_P13_T47  CAP_M5_T47  1.2
    X_P13_T47  CAP_M6_T47  1
    X_P13_T47  CAP_M7_T47  1.2
    X_P13_T47  CAP_M8_T47  1.8
    X_P13_T47  CAP_M9_T47  1
    X_P13_T47  CAP_M10_T47  1.3
    X_P13_T47  CAP_M11_T47  1.2
    X_P14_T47  COST      18.7
    X_P14_T47  BAL_P14_T47  1
    X_P14_T47  CAP_M0_T47  1.1
    X_P14_T47  CAP_M1_T47  1.8
    X_P14_T47  CAP_M2_T47  1.9
    X_P14_T47  CAP_M3_T47  1.4
    X_P14_T47  CAP_M4_T47  1.5
    X_P14_T47  CAP_M5_T47  1.9
    X_P14_T47  CAP_M6_T47  2.7
    X_P14_T47  CAP_M7_T47  0.8
    X_P14_T47  CAP_M8_T47  1.7
    X_P14_T47  CAP_M9_T47  2.2
    X_P14_T47  CAP_M10_T47  2.7
    X_P14_T47  CAP_M11_T47  1.2
    X_P15_T47  COST      22.3
    X_P15_T47  BAL_P15_T47  1
    X_P15_T47  CAP_M0_T47  0.8
    X_P15_T47  CAP_M1_T47  0.8
    X_P15_T47  CAP_M2_T47  2.4
    X_P15_T47  CAP_M3_T47  2.3
    X_P15_T47  CAP_M4_T47  1.8
    X_P15_T47  CAP_M5_T47  0.8
    X_P15_T47  CAP_M6_T47  0.8
    X_P15_T47  CAP_M7_T47  1.4
    X_P15_T47  CAP_M8_T47  1.3
    X_P15_T47  CAP_M9_T47  1.8
    X_P15_T47  CAP_M10_T47  2.1
    X_P15_T47  CAP_M11_T47  1.5
    X_P16_T47  COST      30.2
    X_P16_T47  BAL_P16_T47  1
    X_P16_T47  CAP_M0_T47  1.1
    X_P16_T47  CAP_M1_T47  0.5
    X_P16_T47  CAP_M2_T47  1.2
    X_P16_T47  CAP_M3_T47  2.8
    X_P16_T47  CAP_M4_T47  1.1
    X_P16_T47  CAP_M5_T47  1
    X_P16_T47  CAP_M6_T47  1.8
    X_P16_T47  CAP_M7_T47  1.8
    X_P16_T47  CAP_M8_T47  2.5
    X_P16_T47  CAP_M9_T47  1.6
    X_P16_T47  CAP_M10_T47  2.7
    X_P16_T47  CAP_M11_T47  1.3
    X_P17_T47  COST      24.2
    X_P17_T47  BAL_P17_T47  1
    X_P17_T47  CAP_M0_T47  1.8
    X_P17_T47  CAP_M1_T47  2.2
    X_P17_T47  CAP_M2_T47  2.7
    X_P17_T47  CAP_M3_T47  2.2
    X_P17_T47  CAP_M4_T47  1.2
    X_P17_T47  CAP_M5_T47  1.3
    X_P17_T47  CAP_M6_T47  0.7
    X_P17_T47  CAP_M7_T47  1.3
    X_P17_T47  CAP_M8_T47  2.8
    X_P17_T47  CAP_M9_T47  1.4
    X_P17_T47  CAP_M10_T47  2.7
    X_P17_T47  CAP_M11_T47  2.2
    X_P18_T47  COST      35.5
    X_P18_T47  BAL_P18_T47  1
    X_P18_T47  CAP_M0_T47  1.3
    X_P18_T47  CAP_M1_T47  2.9
    X_P18_T47  CAP_M2_T47  1.7
    X_P18_T47  CAP_M3_T47  0.5
    X_P18_T47  CAP_M4_T47  2.4
    X_P18_T47  CAP_M5_T47  2.9
    X_P18_T47  CAP_M6_T47  2.1
    X_P18_T47  CAP_M7_T47  2.7
    X_P18_T47  CAP_M8_T47  1.4
    X_P18_T47  CAP_M9_T47  0.5
    X_P18_T47  CAP_M10_T47  2.1
    X_P18_T47  CAP_M11_T47  1.1
    X_P19_T47  COST      10.5
    X_P19_T47  BAL_P19_T47  1
    X_P19_T47  CAP_M0_T47  2.2
    X_P19_T47  CAP_M1_T47  2.8
    X_P19_T47  CAP_M2_T47  1.6
    X_P19_T47  CAP_M3_T47  2.6
    X_P19_T47  CAP_M4_T47  1.7
    X_P19_T47  CAP_M5_T47  1.3
    X_P19_T47  CAP_M6_T47  1
    X_P19_T47  CAP_M7_T47  1.5
    X_P19_T47  CAP_M8_T47  0.6
    X_P19_T47  CAP_M9_T47  2.8
    X_P19_T47  CAP_M10_T47  0.8
    X_P19_T47  CAP_M11_T47  0.8
    X_P20_T47  COST      24.6
    X_P20_T47  BAL_P20_T47  1
    X_P20_T47  CAP_M0_T47  1.2
    X_P20_T47  CAP_M1_T47  2
    X_P20_T47  CAP_M2_T47  1.4
    X_P20_T47  CAP_M3_T47  2.3
    X_P20_T47  CAP_M4_T47  1.5
    X_P20_T47  CAP_M5_T47  1.6
    X_P20_T47  CAP_M6_T47  2.6
    X_P20_T47  CAP_M7_T47  2.1
    X_P20_T47  CAP_M8_T47  1.2
    X_P20_T47  CAP_M9_T47  1
    X_P20_T47  CAP_M10_T47  2.3
    X_P20_T47  CAP_M11_T47  1.8
    X_P21_T47  COST      13.7
    X_P21_T47  BAL_P21_T47  1
    X_P21_T47  CAP_M0_T47  2.4
    X_P21_T47  CAP_M1_T47  1.9
    X_P21_T47  CAP_M2_T47  2.9
    X_P21_T47  CAP_M3_T47  2.7
    X_P21_T47  CAP_M4_T47  2.7
    X_P21_T47  CAP_M5_T47  1.7
    X_P21_T47  CAP_M6_T47  2.8
    X_P21_T47  CAP_M7_T47  2.5
    X_P21_T47  CAP_M8_T47  3
    X_P21_T47  CAP_M9_T47  2.7
    X_P21_T47  CAP_M10_T47  2.4
    X_P21_T47  CAP_M11_T47  2.4
    X_P22_T47  COST      20
    X_P22_T47  BAL_P22_T47  1
    X_P22_T47  CAP_M0_T47  0.6
    X_P22_T47  CAP_M1_T47  2.9
    X_P22_T47  CAP_M2_T47  2.1
    X_P22_T47  CAP_M3_T47  2.1
    X_P22_T47  CAP_M4_T47  2
    X_P22_T47  CAP_M5_T47  2.4
    X_P22_T47  CAP_M6_T47  2.2
    X_P22_T47  CAP_M7_T47  0.7
    X_P22_T47  CAP_M8_T47  0.5
    X_P22_T47  CAP_M9_T47  1.8
    X_P22_T47  CAP_M10_T47  1.1
    X_P22_T47  CAP_M11_T47  2.6
    X_P23_T47  COST      27.2
    X_P23_T47  BAL_P23_T47  1
    X_P23_T47  CAP_M0_T47  2.9
    X_P23_T47  CAP_M1_T47  1.2
    X_P23_T47  CAP_M2_T47  1.8
    X_P23_T47  CAP_M3_T47  1.8
    X_P23_T47  CAP_M4_T47  1.5
    X_P23_T47  CAP_M5_T47  0.5
    X_P23_T47  CAP_M6_T47  2.8
    X_P23_T47  CAP_M7_T47  1.9
    X_P23_T47  CAP_M8_T47  2.2
    X_P23_T47  CAP_M9_T47  2.9
    X_P23_T47  CAP_M10_T47  2.1
    X_P23_T47  CAP_M11_T47  2.2
    X_P24_T47  COST      41.3
    X_P24_T47  BAL_P24_T47  1
    X_P24_T47  CAP_M0_T47  1.1
    X_P24_T47  CAP_M1_T47  2.5
    X_P24_T47  CAP_M2_T47  1.3
    X_P24_T47  CAP_M3_T47  2.8
    X_P24_T47  CAP_M4_T47  1.1
    X_P24_T47  CAP_M5_T47  2
    X_P24_T47  CAP_M6_T47  1.4
    X_P24_T47  CAP_M7_T47  0.5
    X_P24_T47  CAP_M8_T47  1.2
    X_P24_T47  CAP_M9_T47  2.4
    X_P24_T47  CAP_M10_T47  0.6
    X_P24_T47  CAP_M11_T47  1.9
    S_P0_T47  COST      3.2
    S_P0_T47  BAL_P0_T47  -1
    S_P0_T47  STORAGE_T47  1
    S_P0_T47  BAL_P0_T48  1
    S_P1_T47  COST      1.1
    S_P1_T47  BAL_P1_T47  -1
    S_P1_T47  STORAGE_T47  1
    S_P1_T47  BAL_P1_T48  1
    S_P2_T47  COST      1.2
    S_P2_T47  BAL_P2_T47  -1
    S_P2_T47  STORAGE_T47  1
    S_P2_T47  BAL_P2_T48  1
    S_P3_T47  COST      4.1
    S_P3_T47  BAL_P3_T47  -1
    S_P3_T47  STORAGE_T47  1
    S_P3_T47  BAL_P3_T48  1
    S_P4_T47  COST      1.5
    S_P4_T47  BAL_P4_T47  -1
    S_P4_T47  STORAGE_T47  1
    S_P4_T47  BAL_P4_T48  1
    S_P5_T47  COST      2.4
    S_P5_T47  BAL_P5_T47  -1
    S_P5_T47  STORAGE_T47  1
    S_P5_T47  BAL_P5_T48  1
    S_P6_T47  COST      2.3
    S_P6_T47  BAL_P6_T47  -1
    S_P6_T47  STORAGE_T47  1
    S_P6_T47  BAL_P6_T48  1
    S_P7_T47  COST      4.8
    S_P7_T47  BAL_P7_T47  -1
    S_P7_T47  STORAGE_T47  1
    S_P7_T47  BAL_P7_T48  1
    S_P8_T47  COST      1.4
    S_P8_T47  BAL_P8_T47  -1
    S_P8_T47  STORAGE_T47  1
    S_P8_T47  BAL_P8_T48  1
    S_P9_T47  COST      4.9
    S_P9_T47  BAL_P9_T47  -1
    S_P9_T47  STORAGE_T47  1
    S_P9_T47  BAL_P9_T48  1
    S_P10_T47  COST      5
    S_P10_T47  BAL_P10_T47  -1
    S_P10_T47  STORAGE_T47  1
    S_P10_T47  BAL_P10_T48  1
    S_P11_T47  COST      4.6
    S_P11_T47  BAL_P11_T47  -1
    S_P11_T47  STORAGE_T47  1
    S_P11_T47  BAL_P11_T48  1
    S_P12_T47  COST      2.5
    S_P12_T47  BAL_P12_T47  -1
    S_P12_T47  STORAGE_T47  1
    S_P12_T47  BAL_P12_T48  1
    S_P13_T47  COST      4.3
    S_P13_T47  BAL_P13_T47  -1
    S_P13_T47  STORAGE_T47  1
    S_P13_T47  BAL_P13_T48  1
    S_P14_T47  COST      1.5
    S_P14_T47  BAL_P14_T47  -1
    S_P14_T47  STORAGE_T47  1
    S_P14_T47  BAL_P14_T48  1
    S_P15_T47  COST      3.5
    S_P15_T47  BAL_P15_T47  -1
    S_P15_T47  STORAGE_T47  1
    S_P15_T47  BAL_P15_T48  1
    S_P16_T47  COST      2.7
    S_P16_T47  BAL_P16_T47  -1
    S_P16_T47  STORAGE_T47  1
    S_P16_T47  BAL_P16_T48  1
    S_P17_T47  COST      1.4
    S_P17_T47  BAL_P17_T47  -1
    S_P17_T47  STORAGE_T47  1
    S_P17_T47  BAL_P17_T48  1
    S_P18_T47  COST      2.1
    S_P18_T47  BAL_P18_T47  -1
    S_P18_T47  STORAGE_T47  1
    S_P18_T47  BAL_P18_T48  1
    S_P19_T47  COST      4.6
    S_P19_T47  BAL_P19_T47  -1
    S_P19_T47  STORAGE_T47  1
    S_P19_T47  BAL_P19_T48  1
    S_P20_T47  COST      3
    S_P20_T47  BAL_P20_T47  -1
    S_P20_T47  STORAGE_T47  1
    S_P20_T47  BAL_P20_T48  1
    S_P21_T47  COST      4.4
    S_P21_T47  BAL_P21_T47  -1
    S_P21_T47  STORAGE_T47  1
    S_P21_T47  BAL_P21_T48  1
    S_P22_T47  COST      4.9
    S_P22_T47  BAL_P22_T47  -1
    S_P22_T47  STORAGE_T47  1
    S_P22_T47  BAL_P22_T48  1
    S_P23_T47  COST      2.5
    S_P23_T47  BAL_P23_T47  -1
    S_P23_T47  STORAGE_T47  1
    S_P23_T47  BAL_P23_T48  1
    S_P24_T47  COST      4.4
    S_P24_T47  BAL_P24_T47  -1
    S_P24_T47  STORAGE_T47  1
    S_P24_T47  BAL_P24_T48  1
    X_P0_T48  COST      19.3
    X_P0_T48  BAL_P0_T48  1
    X_P0_T48  CAP_M0_T48  1.4
    X_P0_T48  CAP_M1_T48  2.4
    X_P0_T48  CAP_M2_T48  0.5
    X_P0_T48  CAP_M3_T48  1
    X_P0_T48  CAP_M4_T48  1.3
    X_P0_T48  CAP_M5_T48  0.8
    X_P0_T48  CAP_M6_T48  1
    X_P0_T48  CAP_M7_T48  1.7
    X_P0_T48  CAP_M8_T48  0.7
    X_P0_T48  CAP_M9_T48  1.5
    X_P0_T48  CAP_M10_T48  2.4
    X_P0_T48  CAP_M11_T48  0.9
    X_P1_T48  COST      36.5
    X_P1_T48  BAL_P1_T48  1
    X_P1_T48  CAP_M0_T48  1
    X_P1_T48  CAP_M1_T48  2.2
    X_P1_T48  CAP_M2_T48  1
    X_P1_T48  CAP_M3_T48  2.4
    X_P1_T48  CAP_M4_T48  3
    X_P1_T48  CAP_M5_T48  2.2
    X_P1_T48  CAP_M6_T48  2.7
    X_P1_T48  CAP_M7_T48  1.4
    X_P1_T48  CAP_M8_T48  1.9
    X_P1_T48  CAP_M9_T48  0.9
    X_P1_T48  CAP_M10_T48  2.9
    X_P1_T48  CAP_M11_T48  2.2
    X_P2_T48  COST      13.7
    X_P2_T48  BAL_P2_T48  1
    X_P2_T48  CAP_M0_T48  2.6
    X_P2_T48  CAP_M1_T48  1.4
    X_P2_T48  CAP_M2_T48  0.8
    X_P2_T48  CAP_M3_T48  2.3
    X_P2_T48  CAP_M4_T48  2.5
    X_P2_T48  CAP_M5_T48  1
    X_P2_T48  CAP_M6_T48  1.2
    X_P2_T48  CAP_M7_T48  1
    X_P2_T48  CAP_M8_T48  1.1
    X_P2_T48  CAP_M9_T48  1.9
    X_P2_T48  CAP_M10_T48  3
    X_P2_T48  CAP_M11_T48  0.8
    X_P3_T48  COST      26.2
    X_P3_T48  BAL_P3_T48  1
    X_P3_T48  CAP_M0_T48  1.8
    X_P3_T48  CAP_M1_T48  2.8
    X_P3_T48  CAP_M2_T48  2.1
    X_P3_T48  CAP_M3_T48  1.6
    X_P3_T48  CAP_M4_T48  1.1
    X_P3_T48  CAP_M5_T48  0.7
    X_P3_T48  CAP_M6_T48  2
    X_P3_T48  CAP_M7_T48  2.7
    X_P3_T48  CAP_M8_T48  1.9
    X_P3_T48  CAP_M9_T48  2.6
    X_P3_T48  CAP_M10_T48  2.1
    X_P3_T48  CAP_M11_T48  2.3
    X_P4_T48  COST      34.6
    X_P4_T48  BAL_P4_T48  1
    X_P4_T48  CAP_M0_T48  1.9
    X_P4_T48  CAP_M1_T48  2
    X_P4_T48  CAP_M2_T48  2.5
    X_P4_T48  CAP_M3_T48  2.7
    X_P4_T48  CAP_M4_T48  2.1
    X_P4_T48  CAP_M5_T48  1.2
    X_P4_T48  CAP_M6_T48  1.6
    X_P4_T48  CAP_M7_T48  1.6
    X_P4_T48  CAP_M8_T48  2.1
    X_P4_T48  CAP_M9_T48  1.7
    X_P4_T48  CAP_M10_T48  0.8
    X_P4_T48  CAP_M11_T48  1.6
    X_P5_T48  COST      34
    X_P5_T48  BAL_P5_T48  1
    X_P5_T48  CAP_M0_T48  2.1
    X_P5_T48  CAP_M1_T48  0.7
    X_P5_T48  CAP_M2_T48  2.9
    X_P5_T48  CAP_M3_T48  1.3
    X_P5_T48  CAP_M4_T48  2.6
    X_P5_T48  CAP_M5_T48  1.9
    X_P5_T48  CAP_M6_T48  2.4
    X_P5_T48  CAP_M7_T48  1.8
    X_P5_T48  CAP_M8_T48  1.4
    X_P5_T48  CAP_M9_T48  0.7
    X_P5_T48  CAP_M10_T48  0.6
    X_P5_T48  CAP_M11_T48  2.9
    X_P6_T48  COST      44.6
    X_P6_T48  BAL_P6_T48  1
    X_P6_T48  CAP_M0_T48  1.3
    X_P6_T48  CAP_M1_T48  1.8
    X_P6_T48  CAP_M2_T48  2.5
    X_P6_T48  CAP_M3_T48  2.2
    X_P6_T48  CAP_M4_T48  0.7
    X_P6_T48  CAP_M5_T48  1.5
    X_P6_T48  CAP_M6_T48  0.6
    X_P6_T48  CAP_M7_T48  1.9
    X_P6_T48  CAP_M8_T48  1.3
    X_P6_T48  CAP_M9_T48  2.1
    X_P6_T48  CAP_M10_T48  2.4
    X_P6_T48  CAP_M11_T48  1.1
    X_P7_T48  COST      40.4
    X_P7_T48  BAL_P7_T48  1
    X_P7_T48  CAP_M0_T48  1.1
    X_P7_T48  CAP_M1_T48  2.2
    X_P7_T48  CAP_M2_T48  2.5
    X_P7_T48  CAP_M3_T48  2.9
    X_P7_T48  CAP_M4_T48  1
    X_P7_T48  CAP_M5_T48  2.9
    X_P7_T48  CAP_M6_T48  2.4
    X_P7_T48  CAP_M7_T48  1.6
    X_P7_T48  CAP_M8_T48  1.4
    X_P7_T48  CAP_M9_T48  0.6
    X_P7_T48  CAP_M10_T48  1.6
    X_P7_T48  CAP_M11_T48  1.7
    X_P8_T48  COST      22.9
    X_P8_T48  BAL_P8_T48  1
    X_P8_T48  CAP_M0_T48  1.8
    X_P8_T48  CAP_M1_T48  0.7
    X_P8_T48  CAP_M2_T48  2.7
    X_P8_T48  CAP_M3_T48  2.3
    X_P8_T48  CAP_M4_T48  1.6
    X_P8_T48  CAP_M5_T48  1.3
    X_P8_T48  CAP_M6_T48  2.9
    X_P8_T48  CAP_M7_T48  1.1
    X_P8_T48  CAP_M8_T48  1.5
    X_P8_T48  CAP_M9_T48  2.1
    X_P8_T48  CAP_M10_T48  1.6
    X_P8_T48  CAP_M11_T48  0.7
    X_P9_T48  COST      34.7
    X_P9_T48  BAL_P9_T48  1
    X_P9_T48  CAP_M0_T48  1.3
    X_P9_T48  CAP_M1_T48  2.8
    X_P9_T48  CAP_M2_T48  1.3
    X_P9_T48  CAP_M3_T48  0.6
    X_P9_T48  CAP_M4_T48  1.7
    X_P9_T48  CAP_M5_T48  2.5
    X_P9_T48  CAP_M6_T48  1
    X_P9_T48  CAP_M7_T48  2.5
    X_P9_T48  CAP_M8_T48  2.7
    X_P9_T48  CAP_M9_T48  1.1
    X_P9_T48  CAP_M10_T48  1.8
    X_P9_T48  CAP_M11_T48  2.8
    X_P10_T48  COST      47.8
    X_P10_T48  BAL_P10_T48  1
    X_P10_T48  CAP_M0_T48  0.8
    X_P10_T48  CAP_M1_T48  0.8
    X_P10_T48  CAP_M2_T48  1.3
    X_P10_T48  CAP_M3_T48  0.8
    X_P10_T48  CAP_M4_T48  0.7
    X_P10_T48  CAP_M5_T48  1.7
    X_P10_T48  CAP_M6_T48  1.4
    X_P10_T48  CAP_M7_T48  1.3
    X_P10_T48  CAP_M8_T48  2.9
    X_P10_T48  CAP_M9_T48  1.6
    X_P10_T48  CAP_M10_T48  2.9
    X_P10_T48  CAP_M11_T48  0.7
    X_P11_T48  COST      36.4
    X_P11_T48  BAL_P11_T48  1
    X_P11_T48  CAP_M0_T48  2.4
    X_P11_T48  CAP_M1_T48  1.8
    X_P11_T48  CAP_M2_T48  1.8
    X_P11_T48  CAP_M3_T48  1.5
    X_P11_T48  CAP_M4_T48  2.8
    X_P11_T48  CAP_M5_T48  1.4
    X_P11_T48  CAP_M6_T48  0.7
    X_P11_T48  CAP_M7_T48  0.7
    X_P11_T48  CAP_M8_T48  2
    X_P11_T48  CAP_M9_T48  1.5
    X_P11_T48  CAP_M10_T48  1.7
    X_P11_T48  CAP_M11_T48  2.8
    X_P12_T48  COST      14.7
    X_P12_T48  BAL_P12_T48  1
    X_P12_T48  CAP_M0_T48  2.4
    X_P12_T48  CAP_M1_T48  2.3
    X_P12_T48  CAP_M2_T48  1.7
    X_P12_T48  CAP_M3_T48  2
    X_P12_T48  CAP_M4_T48  1.9
    X_P12_T48  CAP_M5_T48  1.2
    X_P12_T48  CAP_M6_T48  1.7
    X_P12_T48  CAP_M7_T48  1.4
    X_P12_T48  CAP_M8_T48  2
    X_P12_T48  CAP_M9_T48  1.6
    X_P12_T48  CAP_M10_T48  1.3
    X_P12_T48  CAP_M11_T48  2.7
    X_P13_T48  COST      47
    X_P13_T48  BAL_P13_T48  1
    X_P13_T48  CAP_M0_T48  2.2
    X_P13_T48  CAP_M1_T48  0.8
    X_P13_T48  CAP_M2_T48  2.7
    X_P13_T48  CAP_M3_T48  2.1
    X_P13_T48  CAP_M4_T48  1.8
    X_P13_T48  CAP_M5_T48  1.2
    X_P13_T48  CAP_M6_T48  1
    X_P13_T48  CAP_M7_T48  1.2
    X_P13_T48  CAP_M8_T48  1.8
    X_P13_T48  CAP_M9_T48  1
    X_P13_T48  CAP_M10_T48  1.3
    X_P13_T48  CAP_M11_T48  1.2
    X_P14_T48  COST      45.2
    X_P14_T48  BAL_P14_T48  1
    X_P14_T48  CAP_M0_T48  1.1
    X_P14_T48  CAP_M1_T48  1.8
    X_P14_T48  CAP_M2_T48  1.9
    X_P14_T48  CAP_M3_T48  1.4
    X_P14_T48  CAP_M4_T48  1.5
    X_P14_T48  CAP_M5_T48  1.9
    X_P14_T48  CAP_M6_T48  2.7
    X_P14_T48  CAP_M7_T48  0.8
    X_P14_T48  CAP_M8_T48  1.7
    X_P14_T48  CAP_M9_T48  2.2
    X_P14_T48  CAP_M10_T48  2.7
    X_P14_T48  CAP_M11_T48  1.2
    X_P15_T48  COST      29.3
    X_P15_T48  BAL_P15_T48  1
    X_P15_T48  CAP_M0_T48  0.8
    X_P15_T48  CAP_M1_T48  0.8
    X_P15_T48  CAP_M2_T48  2.4
    X_P15_T48  CAP_M3_T48  2.3
    X_P15_T48  CAP_M4_T48  1.8
    X_P15_T48  CAP_M5_T48  0.8
    X_P15_T48  CAP_M6_T48  0.8
    X_P15_T48  CAP_M7_T48  1.4
    X_P15_T48  CAP_M8_T48  1.3
    X_P15_T48  CAP_M9_T48  1.8
    X_P15_T48  CAP_M10_T48  2.1
    X_P15_T48  CAP_M11_T48  1.5
    X_P16_T48  COST      13.9
    X_P16_T48  BAL_P16_T48  1
    X_P16_T48  CAP_M0_T48  1.1
    X_P16_T48  CAP_M1_T48  0.5
    X_P16_T48  CAP_M2_T48  1.2
    X_P16_T48  CAP_M3_T48  2.8
    X_P16_T48  CAP_M4_T48  1.1
    X_P16_T48  CAP_M5_T48  1
    X_P16_T48  CAP_M6_T48  1.8
    X_P16_T48  CAP_M7_T48  1.8
    X_P16_T48  CAP_M8_T48  2.5
    X_P16_T48  CAP_M9_T48  1.6
    X_P16_T48  CAP_M10_T48  2.7
    X_P16_T48  CAP_M11_T48  1.3
    X_P17_T48  COST      35.6
    X_P17_T48  BAL_P17_T48  1
    X_P17_T48  CAP_M0_T48  1.8
    X_P17_T48  CAP_M1_T48  2.2
    X_P17_T48  CAP_M2_T48  2.7
    X_P17_T48  CAP_M3_T48  2.2
    X_P17_T48  CAP_M4_T48  1.2
    X_P17_T48  CAP_M5_T48  1.3
    X_P17_T48  CAP_M6_T48  0.7
    X_P17_T48  CAP_M7_T48  1.3
    X_P17_T48  CAP_M8_T48  2.8
    X_P17_T48  CAP_M9_T48  1.4
    X_P17_T48  CAP_M10_T48  2.7
    X_P17_T48  CAP_M11_T48  2.2
    X_P18_T48  COST      42.8
    X_P18_T48  BAL_P18_T48  1
    X_P18_T48  CAP_M0_T48  1.3
    X_P18_T48  CAP_M1_T48  2.9
    X_P18_T48  CAP_M2_T48  1.7
    X_P18_T48  CAP_M3_T48  0.5
    X_P18_T48  CAP_M4_T48  2.4
    X_P18_T48  CAP_M5_T48  2.9
    X_P18_T48  CAP_M6_T48  2.1
    X_P18_T48  CAP_M7_T48  2.7
    X_P18_T48  CAP_M8_T48  1.4
    X_P18_T48  CAP_M9_T48  0.5
    X_P18_T48  CAP_M10_T48  2.1
    X_P18_T48  CAP_M11_T48  1.1
    X_P19_T48  COST      19
    X_P19_T48  BAL_P19_T48  1
    X_P19_T48  CAP_M0_T48  2.2
    X_P19_T48  CAP_M1_T48  2.8
    X_P19_T48  CAP_M2_T48  1.6
    X_P19_T48  CAP_M3_T48  2.6
    X_P19_T48  CAP_M4_T48  1.7
    X_P19_T48  CAP_M5_T48  1.3
    X_P19_T48  CAP_M6_T48  1
    X_P19_T48  CAP_M7_T48  1.5
    X_P19_T48  CAP_M8_T48  0.6
    X_P19_T48  CAP_M9_T48  2.8
    X_P19_T48  CAP_M10_T48  0.8
    X_P19_T48  CAP_M11_T48  0.8
    X_P20_T48  COST      19.7
    X_P20_T48  BAL_P20_T48  1
    X_P20_T48  CAP_M0_T48  1.2
    X_P20_T48  CAP_M1_T48  2
    X_P20_T48  CAP_M2_T48  1.4
    X_P20_T48  CAP_M3_T48  2.3
    X_P20_T48  CAP_M4_T48  1.5
    X_P20_T48  CAP_M5_T48  1.6
    X_P20_T48  CAP_M6_T48  2.6
    X_P20_T48  CAP_M7_T48  2.1
    X_P20_T48  CAP_M8_T48  1.2
    X_P20_T48  CAP_M9_T48  1
    X_P20_T48  CAP_M10_T48  2.3
    X_P20_T48  CAP_M11_T48  1.8
    X_P21_T48  COST      47.5
    X_P21_T48  BAL_P21_T48  1
    X_P21_T48  CAP_M0_T48  2.4
    X_P21_T48  CAP_M1_T48  1.9
    X_P21_T48  CAP_M2_T48  2.9
    X_P21_T48  CAP_M3_T48  2.7
    X_P21_T48  CAP_M4_T48  2.7
    X_P21_T48  CAP_M5_T48  1.7
    X_P21_T48  CAP_M6_T48  2.8
    X_P21_T48  CAP_M7_T48  2.5
    X_P21_T48  CAP_M8_T48  3
    X_P21_T48  CAP_M9_T48  2.7
    X_P21_T48  CAP_M10_T48  2.4
    X_P21_T48  CAP_M11_T48  2.4
    X_P22_T48  COST      28
    X_P22_T48  BAL_P22_T48  1
    X_P22_T48  CAP_M0_T48  0.6
    X_P22_T48  CAP_M1_T48  2.9
    X_P22_T48  CAP_M2_T48  2.1
    X_P22_T48  CAP_M3_T48  2.1
    X_P22_T48  CAP_M4_T48  2
    X_P22_T48  CAP_M5_T48  2.4
    X_P22_T48  CAP_M6_T48  2.2
    X_P22_T48  CAP_M7_T48  0.7
    X_P22_T48  CAP_M8_T48  0.5
    X_P22_T48  CAP_M9_T48  1.8
    X_P22_T48  CAP_M10_T48  1.1
    X_P22_T48  CAP_M11_T48  2.6
    X_P23_T48  COST      17.8
    X_P23_T48  BAL_P23_T48  1
    X_P23_T48  CAP_M0_T48  2.9
    X_P23_T48  CAP_M1_T48  1.2
    X_P23_T48  CAP_M2_T48  1.8
    X_P23_T48  CAP_M3_T48  1.8
    X_P23_T48  CAP_M4_T48  1.5
    X_P23_T48  CAP_M5_T48  0.5
    X_P23_T48  CAP_M6_T48  2.8
    X_P23_T48  CAP_M7_T48  1.9
    X_P23_T48  CAP_M8_T48  2.2
    X_P23_T48  CAP_M9_T48  2.9
    X_P23_T48  CAP_M10_T48  2.1
    X_P23_T48  CAP_M11_T48  2.2
    X_P24_T48  COST      15.1
    X_P24_T48  BAL_P24_T48  1
    X_P24_T48  CAP_M0_T48  1.1
    X_P24_T48  CAP_M1_T48  2.5
    X_P24_T48  CAP_M2_T48  1.3
    X_P24_T48  CAP_M3_T48  2.8
    X_P24_T48  CAP_M4_T48  1.1
    X_P24_T48  CAP_M5_T48  2
    X_P24_T48  CAP_M6_T48  1.4
    X_P24_T48  CAP_M7_T48  0.5
    X_P24_T48  CAP_M8_T48  1.2
    X_P24_T48  CAP_M9_T48  2.4
    X_P24_T48  CAP_M10_T48  0.6
    X_P24_T48  CAP_M11_T48  1.9
    S_P0_T48  COST      3.2
    S_P0_T48  BAL_P0_T48  -1
    S_P0_T48  STORAGE_T48  1
    S_P0_T48  BAL_P0_T49  1
    S_P1_T48  COST      3
    S_P1_T48  BAL_P1_T48  -1
    S_P1_T48  STORAGE_T48  1
    S_P1_T48  BAL_P1_T49  1
    S_P2_T48  COST      4.7
    S_P2_T48  BAL_P2_T48  -1
    S_P2_T48  STORAGE_T48  1
    S_P2_T48  BAL_P2_T49  1
    S_P3_T48  COST      1.2
    S_P3_T48  BAL_P3_T48  -1
    S_P3_T48  STORAGE_T48  1
    S_P3_T48  BAL_P3_T49  1
    S_P4_T48  COST      1.5
    S_P4_T48  BAL_P4_T48  -1
    S_P4_T48  STORAGE_T48  1
    S_P4_T48  BAL_P4_T49  1
    S_P5_T48  COST      2.7
    S_P5_T48  BAL_P5_T48  -1
    S_P5_T48  STORAGE_T48  1
    S_P5_T48  BAL_P5_T49  1
    S_P6_T48  COST      2.2
    S_P6_T48  BAL_P6_T48  -1
    S_P6_T48  STORAGE_T48  1
    S_P6_T48  BAL_P6_T49  1
    S_P7_T48  COST      4.1
    S_P7_T48  BAL_P7_T48  -1
    S_P7_T48  STORAGE_T48  1
    S_P7_T48  BAL_P7_T49  1
    S_P8_T48  COST      2.6
    S_P8_T48  BAL_P8_T48  -1
    S_P8_T48  STORAGE_T48  1
    S_P8_T48  BAL_P8_T49  1
    S_P9_T48  COST      2.2
    S_P9_T48  BAL_P9_T48  -1
    S_P9_T48  STORAGE_T48  1
    S_P9_T48  BAL_P9_T49  1
    S_P10_T48  COST      4.2
    S_P10_T48  BAL_P10_T48  -1
    S_P10_T48  STORAGE_T48  1
    S_P10_T48  BAL_P10_T49  1
    S_P11_T48  COST      1.7
    S_P11_T48  BAL_P11_T48  -1
    S_P11_T48  STORAGE_T48  1
    S_P11_T48  BAL_P11_T49  1
    S_P12_T48  COST      2.7
    S_P12_T48  BAL_P12_T48  -1
    S_P12_T48  STORAGE_T48  1
    S_P12_T48  BAL_P12_T49  1
    S_P13_T48  COST      1.6
    S_P13_T48  BAL_P13_T48  -1
    S_P13_T48  STORAGE_T48  1
    S_P13_T48  BAL_P13_T49  1
    S_P14_T48  COST      4.3
    S_P14_T48  BAL_P14_T48  -1
    S_P14_T48  STORAGE_T48  1
    S_P14_T48  BAL_P14_T49  1
    S_P15_T48  COST      3.6
    S_P15_T48  BAL_P15_T48  -1
    S_P15_T48  STORAGE_T48  1
    S_P15_T48  BAL_P15_T49  1
    S_P16_T48  COST      2.5
    S_P16_T48  BAL_P16_T48  -1
    S_P16_T48  STORAGE_T48  1
    S_P16_T48  BAL_P16_T49  1
    S_P17_T48  COST      3.7
    S_P17_T48  BAL_P17_T48  -1
    S_P17_T48  STORAGE_T48  1
    S_P17_T48  BAL_P17_T49  1
    S_P18_T48  COST      3.9
    S_P18_T48  BAL_P18_T48  -1
    S_P18_T48  STORAGE_T48  1
    S_P18_T48  BAL_P18_T49  1
    S_P19_T48  COST      3.5
    S_P19_T48  BAL_P19_T48  -1
    S_P19_T48  STORAGE_T48  1
    S_P19_T48  BAL_P19_T49  1
    S_P20_T48  COST      3.3
    S_P20_T48  BAL_P20_T48  -1
    S_P20_T48  STORAGE_T48  1
    S_P20_T48  BAL_P20_T49  1
    S_P21_T48  COST      3.9
    S_P21_T48  BAL_P21_T48  -1
    S_P21_T48  STORAGE_T48  1
    S_P21_T48  BAL_P21_T49  1
    S_P22_T48  COST      4.8
    S_P22_T48  BAL_P22_T48  -1
    S_P22_T48  STORAGE_T48  1
    S_P22_T48  BAL_P22_T49  1
    S_P23_T48  COST      2
    S_P23_T48  BAL_P23_T48  -1
    S_P23_T48  STORAGE_T48  1
    S_P23_T48  BAL_P23_T49  1
    S_P24_T48  COST      2.8
    S_P24_T48  BAL_P24_T48  -1
    S_P24_T48  STORAGE_T48  1
    S_P24_T48  BAL_P24_T49  1
    X_P0_T49  COST      13.7
    X_P0_T49  BAL_P0_T49  1
    X_P0_T49  CAP_M0_T49  1.4
    X_P0_T49  CAP_M1_T49  2.4
    X_P0_T49  CAP_M2_T49  0.5
    X_P0_T49  CAP_M3_T49  1
    X_P0_T49  CAP_M4_T49  1.3
    X_P0_T49  CAP_M5_T49  0.8
    X_P0_T49  CAP_M6_T49  1
    X_P0_T49  CAP_M7_T49  1.7
    X_P0_T49  CAP_M8_T49  0.7
    X_P0_T49  CAP_M9_T49  1.5
    X_P0_T49  CAP_M10_T49  2.4
    X_P0_T49  CAP_M11_T49  0.9
    X_P1_T49  COST      36.9
    X_P1_T49  BAL_P1_T49  1
    X_P1_T49  CAP_M0_T49  1
    X_P1_T49  CAP_M1_T49  2.2
    X_P1_T49  CAP_M2_T49  1
    X_P1_T49  CAP_M3_T49  2.4
    X_P1_T49  CAP_M4_T49  3
    X_P1_T49  CAP_M5_T49  2.2
    X_P1_T49  CAP_M6_T49  2.7
    X_P1_T49  CAP_M7_T49  1.4
    X_P1_T49  CAP_M8_T49  1.9
    X_P1_T49  CAP_M9_T49  0.9
    X_P1_T49  CAP_M10_T49  2.9
    X_P1_T49  CAP_M11_T49  2.2
    X_P2_T49  COST      33.4
    X_P2_T49  BAL_P2_T49  1
    X_P2_T49  CAP_M0_T49  2.6
    X_P2_T49  CAP_M1_T49  1.4
    X_P2_T49  CAP_M2_T49  0.8
    X_P2_T49  CAP_M3_T49  2.3
    X_P2_T49  CAP_M4_T49  2.5
    X_P2_T49  CAP_M5_T49  1
    X_P2_T49  CAP_M6_T49  1.2
    X_P2_T49  CAP_M7_T49  1
    X_P2_T49  CAP_M8_T49  1.1
    X_P2_T49  CAP_M9_T49  1.9
    X_P2_T49  CAP_M10_T49  3
    X_P2_T49  CAP_M11_T49  0.8
    X_P3_T49  COST      30.9
    X_P3_T49  BAL_P3_T49  1
    X_P3_T49  CAP_M0_T49  1.8
    X_P3_T49  CAP_M1_T49  2.8
    X_P3_T49  CAP_M2_T49  2.1
    X_P3_T49  CAP_M3_T49  1.6
    X_P3_T49  CAP_M4_T49  1.1
    X_P3_T49  CAP_M5_T49  0.7
    X_P3_T49  CAP_M6_T49  2
    X_P3_T49  CAP_M7_T49  2.7
    X_P3_T49  CAP_M8_T49  1.9
    X_P3_T49  CAP_M9_T49  2.6
    X_P3_T49  CAP_M10_T49  2.1
    X_P3_T49  CAP_M11_T49  2.3
    X_P4_T49  COST      47.1
    X_P4_T49  BAL_P4_T49  1
    X_P4_T49  CAP_M0_T49  1.9
    X_P4_T49  CAP_M1_T49  2
    X_P4_T49  CAP_M2_T49  2.5
    X_P4_T49  CAP_M3_T49  2.7
    X_P4_T49  CAP_M4_T49  2.1
    X_P4_T49  CAP_M5_T49  1.2
    X_P4_T49  CAP_M6_T49  1.6
    X_P4_T49  CAP_M7_T49  1.6
    X_P4_T49  CAP_M8_T49  2.1
    X_P4_T49  CAP_M9_T49  1.7
    X_P4_T49  CAP_M10_T49  0.8
    X_P4_T49  CAP_M11_T49  1.6
    X_P5_T49  COST      13.8
    X_P5_T49  BAL_P5_T49  1
    X_P5_T49  CAP_M0_T49  2.1
    X_P5_T49  CAP_M1_T49  0.7
    X_P5_T49  CAP_M2_T49  2.9
    X_P5_T49  CAP_M3_T49  1.3
    X_P5_T49  CAP_M4_T49  2.6
    X_P5_T49  CAP_M5_T49  1.9
    X_P5_T49  CAP_M6_T49  2.4
    X_P5_T49  CAP_M7_T49  1.8
    X_P5_T49  CAP_M8_T49  1.4
    X_P5_T49  CAP_M9_T49  0.7
    X_P5_T49  CAP_M10_T49  0.6
    X_P5_T49  CAP_M11_T49  2.9
    X_P6_T49  COST      49.7
    X_P6_T49  BAL_P6_T49  1
    X_P6_T49  CAP_M0_T49  1.3
    X_P6_T49  CAP_M1_T49  1.8
    X_P6_T49  CAP_M2_T49  2.5
    X_P6_T49  CAP_M3_T49  2.2
    X_P6_T49  CAP_M4_T49  0.7
    X_P6_T49  CAP_M5_T49  1.5
    X_P6_T49  CAP_M6_T49  0.6
    X_P6_T49  CAP_M7_T49  1.9
    X_P6_T49  CAP_M8_T49  1.3
    X_P6_T49  CAP_M9_T49  2.1
    X_P6_T49  CAP_M10_T49  2.4
    X_P6_T49  CAP_M11_T49  1.1
    X_P7_T49  COST      10.7
    X_P7_T49  BAL_P7_T49  1
    X_P7_T49  CAP_M0_T49  1.1
    X_P7_T49  CAP_M1_T49  2.2
    X_P7_T49  CAP_M2_T49  2.5
    X_P7_T49  CAP_M3_T49  2.9
    X_P7_T49  CAP_M4_T49  1
    X_P7_T49  CAP_M5_T49  2.9
    X_P7_T49  CAP_M6_T49  2.4
    X_P7_T49  CAP_M7_T49  1.6
    X_P7_T49  CAP_M8_T49  1.4
    X_P7_T49  CAP_M9_T49  0.6
    X_P7_T49  CAP_M10_T49  1.6
    X_P7_T49  CAP_M11_T49  1.7
    X_P8_T49  COST      41.5
    X_P8_T49  BAL_P8_T49  1
    X_P8_T49  CAP_M0_T49  1.8
    X_P8_T49  CAP_M1_T49  0.7
    X_P8_T49  CAP_M2_T49  2.7
    X_P8_T49  CAP_M3_T49  2.3
    X_P8_T49  CAP_M4_T49  1.6
    X_P8_T49  CAP_M5_T49  1.3
    X_P8_T49  CAP_M6_T49  2.9
    X_P8_T49  CAP_M7_T49  1.1
    X_P8_T49  CAP_M8_T49  1.5
    X_P8_T49  CAP_M9_T49  2.1
    X_P8_T49  CAP_M10_T49  1.6
    X_P8_T49  CAP_M11_T49  0.7
    X_P9_T49  COST      40.4
    X_P9_T49  BAL_P9_T49  1
    X_P9_T49  CAP_M0_T49  1.3
    X_P9_T49  CAP_M1_T49  2.8
    X_P9_T49  CAP_M2_T49  1.3
    X_P9_T49  CAP_M3_T49  0.6
    X_P9_T49  CAP_M4_T49  1.7
    X_P9_T49  CAP_M5_T49  2.5
    X_P9_T49  CAP_M6_T49  1
    X_P9_T49  CAP_M7_T49  2.5
    X_P9_T49  CAP_M8_T49  2.7
    X_P9_T49  CAP_M9_T49  1.1
    X_P9_T49  CAP_M10_T49  1.8
    X_P9_T49  CAP_M11_T49  2.8
    X_P10_T49  COST      28.2
    X_P10_T49  BAL_P10_T49  1
    X_P10_T49  CAP_M0_T49  0.8
    X_P10_T49  CAP_M1_T49  0.8
    X_P10_T49  CAP_M2_T49  1.3
    X_P10_T49  CAP_M3_T49  0.8
    X_P10_T49  CAP_M4_T49  0.7
    X_P10_T49  CAP_M5_T49  1.7
    X_P10_T49  CAP_M6_T49  1.4
    X_P10_T49  CAP_M7_T49  1.3
    X_P10_T49  CAP_M8_T49  2.9
    X_P10_T49  CAP_M9_T49  1.6
    X_P10_T49  CAP_M10_T49  2.9
    X_P10_T49  CAP_M11_T49  0.7
    X_P11_T49  COST      49.3
    X_P11_T49  BAL_P11_T49  1
    X_P11_T49  CAP_M0_T49  2.4
    X_P11_T49  CAP_M1_T49  1.8
    X_P11_T49  CAP_M2_T49  1.8
    X_P11_T49  CAP_M3_T49  1.5
    X_P11_T49  CAP_M4_T49  2.8
    X_P11_T49  CAP_M5_T49  1.4
    X_P11_T49  CAP_M6_T49  0.7
    X_P11_T49  CAP_M7_T49  0.7
    X_P11_T49  CAP_M8_T49  2
    X_P11_T49  CAP_M9_T49  1.5
    X_P11_T49  CAP_M10_T49  1.7
    X_P11_T49  CAP_M11_T49  2.8
    X_P12_T49  COST      46.2
    X_P12_T49  BAL_P12_T49  1
    X_P12_T49  CAP_M0_T49  2.4
    X_P12_T49  CAP_M1_T49  2.3
    X_P12_T49  CAP_M2_T49  1.7
    X_P12_T49  CAP_M3_T49  2
    X_P12_T49  CAP_M4_T49  1.9
    X_P12_T49  CAP_M5_T49  1.2
    X_P12_T49  CAP_M6_T49  1.7
    X_P12_T49  CAP_M7_T49  1.4
    X_P12_T49  CAP_M8_T49  2
    X_P12_T49  CAP_M9_T49  1.6
    X_P12_T49  CAP_M10_T49  1.3
    X_P12_T49  CAP_M11_T49  2.7
    X_P13_T49  COST      35.2
    X_P13_T49  BAL_P13_T49  1
    X_P13_T49  CAP_M0_T49  2.2
    X_P13_T49  CAP_M1_T49  0.8
    X_P13_T49  CAP_M2_T49  2.7
    X_P13_T49  CAP_M3_T49  2.1
    X_P13_T49  CAP_M4_T49  1.8
    X_P13_T49  CAP_M5_T49  1.2
    X_P13_T49  CAP_M6_T49  1
    X_P13_T49  CAP_M7_T49  1.2
    X_P13_T49  CAP_M8_T49  1.8
    X_P13_T49  CAP_M9_T49  1
    X_P13_T49  CAP_M10_T49  1.3
    X_P13_T49  CAP_M11_T49  1.2
    X_P14_T49  COST      35.8
    X_P14_T49  BAL_P14_T49  1
    X_P14_T49  CAP_M0_T49  1.1
    X_P14_T49  CAP_M1_T49  1.8
    X_P14_T49  CAP_M2_T49  1.9
    X_P14_T49  CAP_M3_T49  1.4
    X_P14_T49  CAP_M4_T49  1.5
    X_P14_T49  CAP_M5_T49  1.9
    X_P14_T49  CAP_M6_T49  2.7
    X_P14_T49  CAP_M7_T49  0.8
    X_P14_T49  CAP_M8_T49  1.7
    X_P14_T49  CAP_M9_T49  2.2
    X_P14_T49  CAP_M10_T49  2.7
    X_P14_T49  CAP_M11_T49  1.2
    X_P15_T49  COST      24.8
    X_P15_T49  BAL_P15_T49  1
    X_P15_T49  CAP_M0_T49  0.8
    X_P15_T49  CAP_M1_T49  0.8
    X_P15_T49  CAP_M2_T49  2.4
    X_P15_T49  CAP_M3_T49  2.3
    X_P15_T49  CAP_M4_T49  1.8
    X_P15_T49  CAP_M5_T49  0.8
    X_P15_T49  CAP_M6_T49  0.8
    X_P15_T49  CAP_M7_T49  1.4
    X_P15_T49  CAP_M8_T49  1.3
    X_P15_T49  CAP_M9_T49  1.8
    X_P15_T49  CAP_M10_T49  2.1
    X_P15_T49  CAP_M11_T49  1.5
    X_P16_T49  COST      26.8
    X_P16_T49  BAL_P16_T49  1
    X_P16_T49  CAP_M0_T49  1.1
    X_P16_T49  CAP_M1_T49  0.5
    X_P16_T49  CAP_M2_T49  1.2
    X_P16_T49  CAP_M3_T49  2.8
    X_P16_T49  CAP_M4_T49  1.1
    X_P16_T49  CAP_M5_T49  1
    X_P16_T49  CAP_M6_T49  1.8
    X_P16_T49  CAP_M7_T49  1.8
    X_P16_T49  CAP_M8_T49  2.5
    X_P16_T49  CAP_M9_T49  1.6
    X_P16_T49  CAP_M10_T49  2.7
    X_P16_T49  CAP_M11_T49  1.3
    X_P17_T49  COST      33
    X_P17_T49  BAL_P17_T49  1
    X_P17_T49  CAP_M0_T49  1.8
    X_P17_T49  CAP_M1_T49  2.2
    X_P17_T49  CAP_M2_T49  2.7
    X_P17_T49  CAP_M3_T49  2.2
    X_P17_T49  CAP_M4_T49  1.2
    X_P17_T49  CAP_M5_T49  1.3
    X_P17_T49  CAP_M6_T49  0.7
    X_P17_T49  CAP_M7_T49  1.3
    X_P17_T49  CAP_M8_T49  2.8
    X_P17_T49  CAP_M9_T49  1.4
    X_P17_T49  CAP_M10_T49  2.7
    X_P17_T49  CAP_M11_T49  2.2
    X_P18_T49  COST      44.2
    X_P18_T49  BAL_P18_T49  1
    X_P18_T49  CAP_M0_T49  1.3
    X_P18_T49  CAP_M1_T49  2.9
    X_P18_T49  CAP_M2_T49  1.7
    X_P18_T49  CAP_M3_T49  0.5
    X_P18_T49  CAP_M4_T49  2.4
    X_P18_T49  CAP_M5_T49  2.9
    X_P18_T49  CAP_M6_T49  2.1
    X_P18_T49  CAP_M7_T49  2.7
    X_P18_T49  CAP_M8_T49  1.4
    X_P18_T49  CAP_M9_T49  0.5
    X_P18_T49  CAP_M10_T49  2.1
    X_P18_T49  CAP_M11_T49  1.1
    X_P19_T49  COST      27.1
    X_P19_T49  BAL_P19_T49  1
    X_P19_T49  CAP_M0_T49  2.2
    X_P19_T49  CAP_M1_T49  2.8
    X_P19_T49  CAP_M2_T49  1.6
    X_P19_T49  CAP_M3_T49  2.6
    X_P19_T49  CAP_M4_T49  1.7
    X_P19_T49  CAP_M5_T49  1.3
    X_P19_T49  CAP_M6_T49  1
    X_P19_T49  CAP_M7_T49  1.5
    X_P19_T49  CAP_M8_T49  0.6
    X_P19_T49  CAP_M9_T49  2.8
    X_P19_T49  CAP_M10_T49  0.8
    X_P19_T49  CAP_M11_T49  0.8
    X_P20_T49  COST      45
    X_P20_T49  BAL_P20_T49  1
    X_P20_T49  CAP_M0_T49  1.2
    X_P20_T49  CAP_M1_T49  2
    X_P20_T49  CAP_M2_T49  1.4
    X_P20_T49  CAP_M3_T49  2.3
    X_P20_T49  CAP_M4_T49  1.5
    X_P20_T49  CAP_M5_T49  1.6
    X_P20_T49  CAP_M6_T49  2.6
    X_P20_T49  CAP_M7_T49  2.1
    X_P20_T49  CAP_M8_T49  1.2
    X_P20_T49  CAP_M9_T49  1
    X_P20_T49  CAP_M10_T49  2.3
    X_P20_T49  CAP_M11_T49  1.8
    X_P21_T49  COST      44.4
    X_P21_T49  BAL_P21_T49  1
    X_P21_T49  CAP_M0_T49  2.4
    X_P21_T49  CAP_M1_T49  1.9
    X_P21_T49  CAP_M2_T49  2.9
    X_P21_T49  CAP_M3_T49  2.7
    X_P21_T49  CAP_M4_T49  2.7
    X_P21_T49  CAP_M5_T49  1.7
    X_P21_T49  CAP_M6_T49  2.8
    X_P21_T49  CAP_M7_T49  2.5
    X_P21_T49  CAP_M8_T49  3
    X_P21_T49  CAP_M9_T49  2.7
    X_P21_T49  CAP_M10_T49  2.4
    X_P21_T49  CAP_M11_T49  2.4
    X_P22_T49  COST      39.8
    X_P22_T49  BAL_P22_T49  1
    X_P22_T49  CAP_M0_T49  0.6
    X_P22_T49  CAP_M1_T49  2.9
    X_P22_T49  CAP_M2_T49  2.1
    X_P22_T49  CAP_M3_T49  2.1
    X_P22_T49  CAP_M4_T49  2
    X_P22_T49  CAP_M5_T49  2.4
    X_P22_T49  CAP_M6_T49  2.2
    X_P22_T49  CAP_M7_T49  0.7
    X_P22_T49  CAP_M8_T49  0.5
    X_P22_T49  CAP_M9_T49  1.8
    X_P22_T49  CAP_M10_T49  1.1
    X_P22_T49  CAP_M11_T49  2.6
    X_P23_T49  COST      20.6
    X_P23_T49  BAL_P23_T49  1
    X_P23_T49  CAP_M0_T49  2.9
    X_P23_T49  CAP_M1_T49  1.2
    X_P23_T49  CAP_M2_T49  1.8
    X_P23_T49  CAP_M3_T49  1.8
    X_P23_T49  CAP_M4_T49  1.5
    X_P23_T49  CAP_M5_T49  0.5
    X_P23_T49  CAP_M6_T49  2.8
    X_P23_T49  CAP_M7_T49  1.9
    X_P23_T49  CAP_M8_T49  2.2
    X_P23_T49  CAP_M9_T49  2.9
    X_P23_T49  CAP_M10_T49  2.1
    X_P23_T49  CAP_M11_T49  2.2
    X_P24_T49  COST      32.6
    X_P24_T49  BAL_P24_T49  1
    X_P24_T49  CAP_M0_T49  1.1
    X_P24_T49  CAP_M1_T49  2.5
    X_P24_T49  CAP_M2_T49  1.3
    X_P24_T49  CAP_M3_T49  2.8
    X_P24_T49  CAP_M4_T49  1.1
    X_P24_T49  CAP_M5_T49  2
    X_P24_T49  CAP_M6_T49  1.4
    X_P24_T49  CAP_M7_T49  0.5
    X_P24_T49  CAP_M8_T49  1.2
    X_P24_T49  CAP_M9_T49  2.4
    X_P24_T49  CAP_M10_T49  0.6
    X_P24_T49  CAP_M11_T49  1.9
    S_P0_T49  COST      2.8
    S_P0_T49  BAL_P0_T49  -1
    S_P0_T49  STORAGE_T49  1
    S_P1_T49  COST      2.8
    S_P1_T49  BAL_P1_T49  -1
    S_P1_T49  STORAGE_T49  1
    S_P2_T49  COST      4.6
    S_P2_T49  BAL_P2_T49  -1
    S_P2_T49  STORAGE_T49  1
    S_P3_T49  COST      1.4
    S_P3_T49  BAL_P3_T49  -1
    S_P3_T49  STORAGE_T49  1
    S_P4_T49  COST      3.8
    S_P4_T49  BAL_P4_T49  -1
    S_P4_T49  STORAGE_T49  1
    S_P5_T49  COST      1.4
    S_P5_T49  BAL_P5_T49  -1
    S_P5_T49  STORAGE_T49  1
    S_P6_T49  COST      4
    S_P6_T49  BAL_P6_T49  -1
    S_P6_T49  STORAGE_T49  1
    S_P7_T49  COST      3.2
    S_P7_T49  BAL_P7_T49  -1
    S_P7_T49  STORAGE_T49  1
    S_P8_T49  COST      1.9
    S_P8_T49  BAL_P8_T49  -1
    S_P8_T49  STORAGE_T49  1
    S_P9_T49  COST      3.8
    S_P9_T49  BAL_P9_T49  -1
    S_P9_T49  STORAGE_T49  1
    S_P10_T49  COST      2.1
    S_P10_T49  BAL_P10_T49  -1
    S_P10_T49  STORAGE_T49  1
    S_P11_T49  COST      2
    S_P11_T49  BAL_P11_T49  -1
    S_P11_T49  STORAGE_T49  1
    S_P12_T49  COST      3.1
    S_P12_T49  BAL_P12_T49  -1
    S_P12_T49  STORAGE_T49  1
    S_P13_T49  COST      4.3
    S_P13_T49  BAL_P13_T49  -1
    S_P13_T49  STORAGE_T49  1
    S_P14_T49  COST      1.3
    S_P14_T49  BAL_P14_T49  -1
    S_P14_T49  STORAGE_T49  1
    S_P15_T49  COST      1.1
    S_P15_T49  BAL_P15_T49  -1
    S_P15_T49  STORAGE_T49  1
    S_P16_T49  COST      1.1
    S_P16_T49  BAL_P16_T49  -1
    S_P16_T49  STORAGE_T49  1
    S_P17_T49  COST      1.8
    S_P17_T49  BAL_P17_T49  -1
    S_P17_T49  STORAGE_T49  1
    S_P18_T49  COST      1.6
    S_P18_T49  BAL_P18_T49  -1
    S_P18_T49  STORAGE_T49  1
    S_P19_T49  COST      4.8
    S_P19_T49  BAL_P19_T49  -1
    S_P19_T49  STORAGE_T49  1
    S_P20_T49  COST      3.2
    S_P20_T49  BAL_P20_T49  -1
    S_P20_T49  STORAGE_T49  1
    S_P21_T49  COST      4.5
    S_P21_T49  BAL_P21_T49  -1
    S_P21_T49  STORAGE_T49  1
    S_P22_T49  COST      2.9
    S_P22_T49  BAL_P22_T49  -1
    S_P22_T49  STORAGE_T49  1
    S_P23_T49  COST      1.3
    S_P23_T49  BAL_P23_T49  -1
    S_P23_T49  STORAGE_T49  1
    S_P24_T49  COST      3.9
    S_P24_T49  BAL_P24_T49  -1
    S_P24_T49  STORAGE_T49  1
RHS
    RHS1      BAL_P0_T0  163
    RHS1      BAL_P1_T0  64
    RHS1      BAL_P2_T0  91
    RHS1      BAL_P3_T0  129
    RHS1      BAL_P4_T0  174
    RHS1      BAL_P5_T0  117
    RHS1      BAL_P6_T0  162
    RHS1      BAL_P7_T0  65
    RHS1      BAL_P8_T0  130
    RHS1      BAL_P9_T0  68
    RHS1      BAL_P10_T0  163
    RHS1      BAL_P11_T0  189
    RHS1      BAL_P12_T0  95
    RHS1      BAL_P13_T0  119
    RHS1      BAL_P14_T0  82
    RHS1      BAL_P15_T0  108
    RHS1      BAL_P16_T0  115
    RHS1      BAL_P17_T0  173
    RHS1      BAL_P18_T0  199
    RHS1      BAL_P19_T0  137
    RHS1      BAL_P20_T0  174
    RHS1      BAL_P21_T0  97
    RHS1      BAL_P22_T0  105
    RHS1      BAL_P23_T0  153
    RHS1      BAL_P24_T0  172
    RHS1      CAP_M0_T0  32712
    RHS1      CAP_M1_T0  28576
    RHS1      CAP_M2_T0  31066
    RHS1      CAP_M3_T0  19685
    RHS1      CAP_M4_T0  33020
    RHS1      CAP_M5_T0  35923
    RHS1      CAP_M6_T0  18132
    RHS1      CAP_M7_T0  35270
    RHS1      CAP_M8_T0  15969
    RHS1      CAP_M9_T0  32527
    RHS1      CAP_M10_T0  36221
    RHS1      CAP_M11_T0  35303
    RHS1      STORAGE_T0  12500
    RHS1      BAL_P0_T1  169
    RHS1      BAL_P1_T1  102
    RHS1      BAL_P2_T1  139
    RHS1      BAL_P3_T1  144
    RHS1      BAL_P4_T1  142
    RHS1      BAL_P5_T1  160
    RHS1      BAL_P6_T1  190
    RHS1      BAL_P7_T1  129
    RHS1      BAL_P8_T1  85
    RHS1      BAL_P9_T1  121
    RHS1      BAL_P10_T1  69
    RHS1      BAL_P11_T1  103
    RHS1      BAL_P12_T1  199
    RHS1      BAL_P13_T1  175
    RHS1      BAL_P14_T1  183
    RHS1      BAL_P15_T1  94
    RHS1      BAL_P16_T1  178
    RHS1      BAL_P17_T1  173
    RHS1      BAL_P18_T1  181
    RHS1      BAL_P19_T1  178
    RHS1      BAL_P20_T1  61
    RHS1      BAL_P21_T1  116
    RHS1      BAL_P22_T1  156
    RHS1      BAL_P23_T1  75
    RHS1      BAL_P24_T1  110
    RHS1      CAP_M0_T1  33132
    RHS1      CAP_M1_T1  26860
    RHS1      CAP_M2_T1  31175
    RHS1      CAP_M3_T1  30702
    RHS1      CAP_M4_T1  35422
    RHS1      CAP_M5_T1  21733
    RHS1      CAP_M6_T1  29977
    RHS1      CAP_M7_T1  33574
    RHS1      CAP_M8_T1  17403
    RHS1      CAP_M9_T1  35930
    RHS1      CAP_M10_T1  33148
    RHS1      CAP_M11_T1  37260
    RHS1      STORAGE_T1  12500
    RHS1      BAL_P0_T2  151
    RHS1      BAL_P1_T2  128
    RHS1      BAL_P2_T2  78
    RHS1      BAL_P3_T2  62
    RHS1      BAL_P4_T2  121
    RHS1      BAL_P5_T2  199
    RHS1      BAL_P6_T2  122
    RHS1      BAL_P7_T2  97
    RHS1      BAL_P8_T2  146
    RHS1      BAL_P9_T2  103
    RHS1      BAL_P10_T2  80
    RHS1      BAL_P11_T2  91
    RHS1      BAL_P12_T2  170
    RHS1      BAL_P13_T2  151
    RHS1      BAL_P14_T2  61
    RHS1      BAL_P15_T2  77
    RHS1      BAL_P16_T2  65
    RHS1      BAL_P17_T2  118
    RHS1      BAL_P18_T2  114
    RHS1      BAL_P19_T2  79
    RHS1      BAL_P20_T2  117
    RHS1      BAL_P21_T2  76
    RHS1      BAL_P22_T2  82
    RHS1      BAL_P23_T2  109
    RHS1      BAL_P24_T2  110
    RHS1      CAP_M0_T2  20831
    RHS1      CAP_M1_T2  20364
    RHS1      CAP_M2_T2  31576
    RHS1      CAP_M3_T2  33348
    RHS1      CAP_M4_T2  17376
    RHS1      CAP_M5_T2  26768
    RHS1      CAP_M6_T2  16729
    RHS1      CAP_M7_T2  29456
    RHS1      CAP_M8_T2  15494
    RHS1      CAP_M9_T2  35035
    RHS1      CAP_M10_T2  32459
    RHS1      CAP_M11_T2  20117
    RHS1      STORAGE_T2  12500
    RHS1      BAL_P0_T3  100
    RHS1      BAL_P1_T3  99
    RHS1      BAL_P2_T3  139
    RHS1      BAL_P3_T3  145
    RHS1      BAL_P4_T3  114
    RHS1      BAL_P5_T3  62
    RHS1      BAL_P6_T3  186
    RHS1      BAL_P7_T3  82
    RHS1      BAL_P8_T3  144
    RHS1      BAL_P9_T3  93
    RHS1      BAL_P10_T3  104
    RHS1      BAL_P11_T3  57
    RHS1      BAL_P12_T3  85
    RHS1      BAL_P13_T3  132
    RHS1      BAL_P14_T3  168
    RHS1      BAL_P15_T3  59
    RHS1      BAL_P16_T3  130
    RHS1      BAL_P17_T3  66
    RHS1      BAL_P18_T3  188
    RHS1      BAL_P19_T3  191
    RHS1      BAL_P20_T3  73
    RHS1      BAL_P21_T3  73
    RHS1      BAL_P22_T3  155
    RHS1      BAL_P23_T3  54
    RHS1      BAL_P24_T3  118
    RHS1      CAP_M0_T3  18381
    RHS1      CAP_M1_T3  18447
    RHS1      CAP_M2_T3  29298
    RHS1      CAP_M3_T3  15307
    RHS1      CAP_M4_T3  26666
    RHS1      CAP_M5_T3  19792
    RHS1      CAP_M6_T3  23219
    RHS1      CAP_M7_T3  20061
    RHS1      CAP_M8_T3  29361
    RHS1      CAP_M9_T3  29479
    RHS1      CAP_M10_T3  33388
    RHS1      CAP_M11_T3  20231
    RHS1      STORAGE_T3  12500
    RHS1      BAL_P0_T4  73
    RHS1      BAL_P1_T4  86
    RHS1      BAL_P2_T4  142
    RHS1      BAL_P3_T4  97
    RHS1      BAL_P4_T4  156
    RHS1      BAL_P5_T4  103
    RHS1      BAL_P6_T4  121
    RHS1      BAL_P7_T4  173
    RHS1      BAL_P8_T4  179
    RHS1      BAL_P9_T4  55
    RHS1      BAL_P10_T4  75
    RHS1      BAL_P11_T4  73
    RHS1      BAL_P12_T4  134
    RHS1      BAL_P13_T4  191
    RHS1      BAL_P14_T4  111
    RHS1      BAL_P15_T4  70
    RHS1      BAL_P16_T4  80
    RHS1      BAL_P17_T4  129
    RHS1      BAL_P18_T4  131
    RHS1      BAL_P19_T4  162
    RHS1      BAL_P20_T4  125
    RHS1      BAL_P21_T4  110
    RHS1      BAL_P22_T4  192
    RHS1      BAL_P23_T4  180
    RHS1      BAL_P24_T4  160
    RHS1      CAP_M0_T4  32255
    RHS1      CAP_M1_T4  34567
    RHS1      CAP_M2_T4  28872
    RHS1      CAP_M3_T4  26281
    RHS1      CAP_M4_T4  31948
    RHS1      CAP_M5_T4  31287
    RHS1      CAP_M6_T4  25847
    RHS1      CAP_M7_T4  26706
    RHS1      CAP_M8_T4  22858
    RHS1      CAP_M9_T4  20763
    RHS1      CAP_M10_T4  29266
    RHS1      CAP_M11_T4  34581
    RHS1      STORAGE_T4  12500
    RHS1      BAL_P0_T5  155
    RHS1      BAL_P1_T5  116
    RHS1      BAL_P2_T5  106
    RHS1      BAL_P3_T5  80
    RHS1      BAL_P4_T5  146
    RHS1      BAL_P5_T5  170
    RHS1      BAL_P6_T5  199
    RHS1      BAL_P7_T5  68
    RHS1      BAL_P8_T5  150
    RHS1      BAL_P9_T5  89
    RHS1      BAL_P10_T5  108
    RHS1      BAL_P11_T5  177
    RHS1      BAL_P12_T5  138
    RHS1      BAL_P13_T5  125
    RHS1      BAL_P14_T5  152
    RHS1      BAL_P15_T5  150
    RHS1      BAL_P16_T5  64
    RHS1      BAL_P17_T5  174
    RHS1      BAL_P18_T5  170
    RHS1      BAL_P19_T5  63
    RHS1      BAL_P20_T5  86
    RHS1      BAL_P21_T5  171
    RHS1      BAL_P22_T5  108
    RHS1      BAL_P23_T5  143
    RHS1      BAL_P24_T5  192
    RHS1      CAP_M0_T5  15789
    RHS1      CAP_M1_T5  23142
    RHS1      CAP_M2_T5  34441
    RHS1      CAP_M3_T5  20763
    RHS1      CAP_M4_T5  30143
    RHS1      CAP_M5_T5  23303
    RHS1      CAP_M6_T5  18397
    RHS1      CAP_M7_T5  15052
    RHS1      CAP_M8_T5  16023
    RHS1      CAP_M9_T5  30430
    RHS1      CAP_M10_T5  17902
    RHS1      CAP_M11_T5  30452
    RHS1      STORAGE_T5  12500
    RHS1      BAL_P0_T6  108
    RHS1      BAL_P1_T6  89
    RHS1      BAL_P2_T6  122
    RHS1      BAL_P3_T6  129
    RHS1      BAL_P4_T6  192
    RHS1      BAL_P5_T6  161
    RHS1      BAL_P6_T6  96
    RHS1      BAL_P7_T6  104
    RHS1      BAL_P8_T6  67
    RHS1      BAL_P9_T6  142
    RHS1      BAL_P10_T6  191
    RHS1      BAL_P11_T6  78
    RHS1      BAL_P12_T6  157
    RHS1      BAL_P13_T6  66
    RHS1      BAL_P14_T6  149
    RHS1      BAL_P15_T6  120
    RHS1      BAL_P16_T6  175
    RHS1      BAL_P17_T6  131
    RHS1      BAL_P18_T6  66
    RHS1      BAL_P19_T6  134
    RHS1      BAL_P20_T6  63
    RHS1      BAL_P21_T6  183
    RHS1      BAL_P22_T6  108
    RHS1      BAL_P23_T6  137
    RHS1      BAL_P24_T6  97
    RHS1      CAP_M0_T6  17267
    RHS1      CAP_M1_T6  19032
    RHS1      CAP_M2_T6  17713
    RHS1      CAP_M3_T6  31771
    RHS1      CAP_M4_T6  25666
    RHS1      CAP_M5_T6  32628
    RHS1      CAP_M6_T6  23788
    RHS1      CAP_M7_T6  31511
    RHS1      CAP_M8_T6  32235
    RHS1      CAP_M9_T6  35333
    RHS1      CAP_M10_T6  28516
    RHS1      CAP_M11_T6  35975
    RHS1      STORAGE_T6  12500
    RHS1      BAL_P0_T7  147
    RHS1      BAL_P1_T7  172
    RHS1      BAL_P2_T7  164
    RHS1      BAL_P3_T7  125
    RHS1      BAL_P4_T7  113
    RHS1      BAL_P5_T7  111
    RHS1      BAL_P6_T7  65
    RHS1      BAL_P7_T7  103
    RHS1      BAL_P8_T7  153
    RHS1      BAL_P9_T7  83
    RHS1      BAL_P10_T7  61
    RHS1      BAL_P11_T7  160
    RHS1      BAL_P12_T7  93
    RHS1      BAL_P13_T7  92
    RHS1      BAL_P14_T7  195
    RHS1      BAL_P15_T7  78
    RHS1      BAL_P16_T7  50
    RHS1      BAL_P17_T7  169
    RHS1      BAL_P18_T7  130
    RHS1      BAL_P19_T7  156
    RHS1      BAL_P20_T7  160
    RHS1      BAL_P21_T7  118
    RHS1      BAL_P22_T7  98
    RHS1      BAL_P23_T7  69
    RHS1      BAL_P24_T7  137
    RHS1      CAP_M0_T7  20279
    RHS1      CAP_M1_T7  31131
    RHS1      CAP_M2_T7  26123
    RHS1      CAP_M3_T7  21111
    RHS1      CAP_M4_T7  32076
    RHS1      CAP_M5_T7  19530
    RHS1      CAP_M6_T7  35949
    RHS1      CAP_M7_T7  25341
    RHS1      CAP_M8_T7  32445
    RHS1      CAP_M9_T7  34928
    RHS1      CAP_M10_T7  22801
    RHS1      CAP_M11_T7  30533
    RHS1      STORAGE_T7  12500
    RHS1      BAL_P0_T8  164
    RHS1      BAL_P1_T8  77
    RHS1      BAL_P2_T8  102
    RHS1      BAL_P3_T8  89
    RHS1      BAL_P4_T8  104
    RHS1      BAL_P5_T8  173
    RHS1      BAL_P6_T8  58
    RHS1      BAL_P7_T8  90
    RHS1      BAL_P8_T8  178
    RHS1      BAL_P9_T8  152
    RHS1      BAL_P10_T8  115
    RHS1      BAL_P11_T8  149
    RHS1      BAL_P12_T8  82
    RHS1      BAL_P13_T8  157
    RHS1      BAL_P14_T8  177
    RHS1      BAL_P15_T8  131
    RHS1      BAL_P16_T8  117
    RHS1      BAL_P17_T8  141
    RHS1      BAL_P18_T8  85
    RHS1      BAL_P19_T8  96
    RHS1      BAL_P20_T8  136
    RHS1      BAL_P21_T8  110
    RHS1      BAL_P22_T8  129
    RHS1      BAL_P23_T8  100
    RHS1      BAL_P24_T8  119
    RHS1      CAP_M0_T8  21085
    RHS1      CAP_M1_T8  31435
    RHS1      CAP_M2_T8  24463
    RHS1      CAP_M3_T8  31091
    RHS1      CAP_M4_T8  22881
    RHS1      CAP_M5_T8  35895
    RHS1      CAP_M6_T8  36183
    RHS1      CAP_M7_T8  25799
    RHS1      CAP_M8_T8  28458
    RHS1      CAP_M9_T8  24102
    RHS1      CAP_M10_T8  26937
    RHS1      CAP_M11_T8  21093
    RHS1      STORAGE_T8  12500
    RHS1      BAL_P0_T9  56
    RHS1      BAL_P1_T9  59
    RHS1      BAL_P2_T9  159
    RHS1      BAL_P3_T9  139
    RHS1      BAL_P4_T9  177
    RHS1      BAL_P5_T9  119
    RHS1      BAL_P6_T9  118
    RHS1      BAL_P7_T9  161
    RHS1      BAL_P8_T9  147
    RHS1      BAL_P9_T9  118
    RHS1      BAL_P10_T9  147
    RHS1      BAL_P11_T9  137
    RHS1      BAL_P12_T9  73
    RHS1      BAL_P13_T9  61
    RHS1      BAL_P14_T9  55
    RHS1      BAL_P15_T9  194
    RHS1      BAL_P16_T9  136
    RHS1      BAL_P17_T9  57
    RHS1      BAL_P18_T9  66
    RHS1      BAL_P19_T9  116
    RHS1      BAL_P20_T9  144
    RHS1      BAL_P21_T9  190
    RHS1      BAL_P22_T9  199
    RHS1      BAL_P23_T9  168
    RHS1      BAL_P24_T9  133
    RHS1      CAP_M0_T9  27671
    RHS1      CAP_M1_T9  22032
    RHS1      CAP_M2_T9  23687
    RHS1      CAP_M3_T9  25765
    RHS1      CAP_M4_T9  17191
    RHS1      CAP_M5_T9  21052
    RHS1      CAP_M6_T9  25039
    RHS1      CAP_M7_T9  30924
    RHS1      CAP_M8_T9  36691
    RHS1      CAP_M9_T9  35259
    RHS1      CAP_M10_T9  32259
    RHS1      CAP_M11_T9  16251
    RHS1      STORAGE_T9  12500
    RHS1      BAL_P0_T10  69
    RHS1      BAL_P1_T10  83
    RHS1      BAL_P2_T10  123
    RHS1      BAL_P3_T10  98
    RHS1      BAL_P4_T10  144
    RHS1      BAL_P5_T10  107
    RHS1      BAL_P6_T10  56
    RHS1      BAL_P7_T10  109
    RHS1      BAL_P8_T10  149
    RHS1      BAL_P9_T10  128
    RHS1      BAL_P10_T10  195
    RHS1      BAL_P11_T10  79
    RHS1      BAL_P12_T10  188
    RHS1      BAL_P13_T10  135
    RHS1      BAL_P14_T10  138
    RHS1      BAL_P15_T10  199
    RHS1      BAL_P16_T10  124
    RHS1      BAL_P17_T10  83
    RHS1      BAL_P18_T10  174
    RHS1      BAL_P19_T10  137
    RHS1      BAL_P20_T10  148
    RHS1      BAL_P21_T10  195
    RHS1      BAL_P22_T10  194
    RHS1      BAL_P23_T10  97
    RHS1      BAL_P24_T10  61
    RHS1      CAP_M0_T10  29628
    RHS1      CAP_M1_T10  27552
    RHS1      CAP_M2_T10  27229
    RHS1      CAP_M3_T10  23471
    RHS1      CAP_M4_T10  19571
    RHS1      CAP_M5_T10  19361
    RHS1      CAP_M6_T10  33866
    RHS1      CAP_M7_T10  19862
    RHS1      CAP_M8_T10  29973
    RHS1      CAP_M9_T10  22124
    RHS1      CAP_M10_T10  17201
    RHS1      CAP_M11_T10  17441
    RHS1      STORAGE_T10  12500
    RHS1      BAL_P0_T11  76
    RHS1      BAL_P1_T11  150
    RHS1      BAL_P2_T11  141
    RHS1      BAL_P3_T11  76
    RHS1      BAL_P4_T11  186
    RHS1      BAL_P5_T11  123
    RHS1      BAL_P6_T11  90
    RHS1      BAL_P7_T11  124
    RHS1      BAL_P8_T11  191
    RHS1      BAL_P9_T11  103
    RHS1      BAL_P10_T11  151
    RHS1      BAL_P11_T11  113
    RHS1      BAL_P12_T11  128
    RHS1      BAL_P13_T11  179
    RHS1      BAL_P14_T11  69
    RHS1      BAL_P15_T11  73
    RHS1      BAL_P16_T11  78
    RHS1      BAL_P17_T11  153
    RHS1      BAL_P18_T11  102
    RHS1      BAL_P19_T11  117
    RHS1      BAL_P20_T11  91
    RHS1      BAL_P21_T11  71
    RHS1      BAL_P22_T11  197
    RHS1      BAL_P23_T11  76
    RHS1      BAL_P24_T11  170
    RHS1      CAP_M0_T11  26461
    RHS1      CAP_M1_T11  30035
    RHS1      CAP_M2_T11  26878
    RHS1      CAP_M3_T11  29757
    RHS1      CAP_M4_T11  32136
    RHS1      CAP_M5_T11  33504
    RHS1      CAP_M6_T11  21515
    RHS1      CAP_M7_T11  36222
    RHS1      CAP_M8_T11  17727
    RHS1      CAP_M9_T11  26452
    RHS1      CAP_M10_T11  29075
    RHS1      CAP_M11_T11  28358
    RHS1      STORAGE_T11  12500
    RHS1      BAL_P0_T12  188
    RHS1      BAL_P1_T12  168
    RHS1      BAL_P2_T12  117
    RHS1      BAL_P3_T12  81
    RHS1      BAL_P4_T12  86
    RHS1      BAL_P5_T12  169
    RHS1      BAL_P6_T12  153
    RHS1      BAL_P7_T12  165
    RHS1      BAL_P8_T12  147
    RHS1      BAL_P9_T12  119
    RHS1      BAL_P10_T12  190
    RHS1      BAL_P11_T12  124
    RHS1      BAL_P12_T12  157
    RHS1      BAL_P13_T12  99
    RHS1      BAL_P14_T12  79
    RHS1      BAL_P15_T12  137
    RHS1      BAL_P16_T12  163
    RHS1      BAL_P17_T12  175
    RHS1      BAL_P18_T12  122
    RHS1      BAL_P19_T12  188
    RHS1      BAL_P20_T12  80
    RHS1      BAL_P21_T12  99
    RHS1      BAL_P22_T12  100
    RHS1      BAL_P23_T12  116
    RHS1      BAL_P24_T12  78
    RHS1      CAP_M0_T12  15839
    RHS1      CAP_M1_T12  34830
    RHS1      CAP_M2_T12  34007
    RHS1      CAP_M3_T12  18448
    RHS1      CAP_M4_T12  16321
    RHS1      CAP_M5_T12  33116
    RHS1      CAP_M6_T12  24307
    RHS1      CAP_M7_T12  19150
    RHS1      CAP_M8_T12  15112
    RHS1      CAP_M9_T12  33398
    RHS1      CAP_M10_T12  20865
    RHS1      CAP_M11_T12  32814
    RHS1      STORAGE_T12  12500
    RHS1      BAL_P0_T13  57
    RHS1      BAL_P1_T13  112
    RHS1      BAL_P2_T13  160
    RHS1      BAL_P3_T13  177
    RHS1      BAL_P4_T13  64
    RHS1      BAL_P5_T13  130
    RHS1      BAL_P6_T13  169
    RHS1      BAL_P7_T13  75
    RHS1      BAL_P8_T13  189
    RHS1      BAL_P9_T13  75
    RHS1      BAL_P10_T13  95
    RHS1      BAL_P11_T13  129
    RHS1      BAL_P12_T13  198
    RHS1      BAL_P13_T13  98
    RHS1      BAL_P14_T13  142
    RHS1      BAL_P15_T13  166
    RHS1      BAL_P16_T13  115
    RHS1      BAL_P17_T13  72
    RHS1      BAL_P18_T13  155
    RHS1      BAL_P19_T13  103
    RHS1      BAL_P20_T13  62
    RHS1      BAL_P21_T13  134
    RHS1      BAL_P22_T13  89
    RHS1      BAL_P23_T13  147
    RHS1      BAL_P24_T13  66
    RHS1      CAP_M0_T13  21309
    RHS1      CAP_M1_T13  37485
    RHS1      CAP_M2_T13  33359
    RHS1      CAP_M3_T13  32494
    RHS1      CAP_M4_T13  36039
    RHS1      CAP_M5_T13  16960
    RHS1      CAP_M6_T13  34964
    RHS1      CAP_M7_T13  26959
    RHS1      CAP_M8_T13  18389
    RHS1      CAP_M9_T13  32304
    RHS1      CAP_M10_T13  15386
    RHS1      CAP_M11_T13  33147
    RHS1      STORAGE_T13  12500
    RHS1      BAL_P0_T14  193
    RHS1      BAL_P1_T14  195
    RHS1      BAL_P2_T14  120
    RHS1      BAL_P3_T14  143
    RHS1      BAL_P4_T14  102
    RHS1      BAL_P5_T14  135
    RHS1      BAL_P6_T14  196
    RHS1      BAL_P7_T14  165
    RHS1      BAL_P8_T14  87
    RHS1      BAL_P9_T14  106
    RHS1      BAL_P10_T14  120
    RHS1      BAL_P11_T14  134
    RHS1      BAL_P12_T14  67
    RHS1      BAL_P13_T14  162
    RHS1      BAL_P14_T14  190
    RHS1      BAL_P15_T14  195
    RHS1      BAL_P16_T14  182
    RHS1      BAL_P17_T14  71
    RHS1      BAL_P18_T14  103
    RHS1      BAL_P19_T14  193
    RHS1      BAL_P20_T14  74
    RHS1      BAL_P21_T14  139
    RHS1      BAL_P22_T14  90
    RHS1      BAL_P23_T14  147
    RHS1      BAL_P24_T14  172
    RHS1      CAP_M0_T14  24600
    RHS1      CAP_M1_T14  23587
    RHS1      CAP_M2_T14  21632
    RHS1      CAP_M3_T14  34388
    RHS1      CAP_M4_T14  31333
    RHS1      CAP_M5_T14  29351
    RHS1      CAP_M6_T14  32717
    RHS1      CAP_M7_T14  19228
    RHS1      CAP_M8_T14  20554
    RHS1      CAP_M9_T14  16748
    RHS1      CAP_M10_T14  19120
    RHS1      CAP_M11_T14  37036
    RHS1      STORAGE_T14  12500
    RHS1      BAL_P0_T15  138
    RHS1      BAL_P1_T15  125
    RHS1      BAL_P2_T15  127
    RHS1      BAL_P3_T15  55
    RHS1      BAL_P4_T15  61
    RHS1      BAL_P5_T15  149
    RHS1      BAL_P6_T15  165
    RHS1      BAL_P7_T15  59
    RHS1      BAL_P8_T15  52
    RHS1      BAL_P9_T15  103
    RHS1      BAL_P10_T15  82
    RHS1      BAL_P11_T15  182
    RHS1      BAL_P12_T15  65
    RHS1      BAL_P13_T15  69
    RHS1      BAL_P14_T15  121
    RHS1      BAL_P15_T15  106
    RHS1      BAL_P16_T15  88
    RHS1      BAL_P17_T15  163
    RHS1      BAL_P18_T15  115
    RHS1      BAL_P19_T15  55
    RHS1      BAL_P20_T15  92
    RHS1      BAL_P21_T15  77
    RHS1      BAL_P22_T15  123
    RHS1      BAL_P23_T15  142
    RHS1      BAL_P24_T15  102
    RHS1      CAP_M0_T15  20777
    RHS1      CAP_M1_T15  17243
    RHS1      CAP_M2_T15  19901
    RHS1      CAP_M3_T15  19153
    RHS1      CAP_M4_T15  26619
    RHS1      CAP_M5_T15  18923
    RHS1      CAP_M6_T15  25059
    RHS1      CAP_M7_T15  29223
    RHS1      CAP_M8_T15  28867
    RHS1      CAP_M9_T15  28338
    RHS1      CAP_M10_T15  17920
    RHS1      CAP_M11_T15  33606
    RHS1      STORAGE_T15  12500
    RHS1      BAL_P0_T16  145
    RHS1      BAL_P1_T16  124
    RHS1      BAL_P2_T16  92
    RHS1      BAL_P3_T16  135
    RHS1      BAL_P4_T16  189
    RHS1      BAL_P5_T16  77
    RHS1      BAL_P6_T16  149
    RHS1      BAL_P7_T16  133
    RHS1      BAL_P8_T16  179
    RHS1      BAL_P9_T16  137
    RHS1      BAL_P10_T16  193
    RHS1      BAL_P11_T16  85
    RHS1      BAL_P12_T16  166
    RHS1      BAL_P13_T16  157
    RHS1      BAL_P14_T16  72
    RHS1      BAL_P15_T16  93
    RHS1      BAL_P16_T16  147
    RHS1      BAL_P17_T16  117
    RHS1      BAL_P18_T16  185
    RHS1      BAL_P19_T16  88
    RHS1      BAL_P20_T16  55
    RHS1      BAL_P21_T16  121
    RHS1      BAL_P22_T16  68
    RHS1      BAL_P23_T16  88
    RHS1      BAL_P24_T16  127
    RHS1      CAP_M0_T16  29273
    RHS1      CAP_M1_T16  28625
    RHS1      CAP_M2_T16  19657
    RHS1      CAP_M3_T16  33843
    RHS1      CAP_M4_T16  27611
    RHS1      CAP_M5_T16  33319
    RHS1      CAP_M6_T16  16020
    RHS1      CAP_M7_T16  17459
    RHS1      CAP_M8_T16  16976
    RHS1      CAP_M9_T16  15473
    RHS1      CAP_M10_T16  27845
    RHS1      CAP_M11_T16  31040
    RHS1      STORAGE_T16  12500
    RHS1      BAL_P0_T17  175
    RHS1      BAL_P1_T17  103
    RHS1      BAL_P2_T17  92
    RHS1      BAL_P3_T17  114
    RHS1      BAL_P4_T17  56
    RHS1      BAL_P5_T17  79
    RHS1      BAL_P6_T17  122
    RHS1      BAL_P7_T17  179
    RHS1      BAL_P8_T17  197
    RHS1      BAL_P9_T17  129
    RHS1      BAL_P10_T17  153
    RHS1      BAL_P11_T17  185
    RHS1      BAL_P12_T17  160
    RHS1      BAL_P13_T17  106
    RHS1      BAL_P14_T17  118
    RHS1      BAL_P15_T17  127
    RHS1      BAL_P16_T17  195
    RHS1      BAL_P17_T17  138
    RHS1      BAL_P18_T17  119
    RHS1      BAL_P19_T17  188
    RHS1      BAL_P20_T17  105
    RHS1      BAL_P21_T17  74
    RHS1      BAL_P22_T17  119
    RHS1      BAL_P23_T17  113
    RHS1      BAL_P24_T17  176
    RHS1      CAP_M0_T17  22504
    RHS1      CAP_M1_T17  34389
    RHS1      CAP_M2_T17  23335
    RHS1      CAP_M3_T17  18724
    RHS1      CAP_M4_T17  17323
    RHS1      CAP_M5_T17  36113
    RHS1      CAP_M6_T17  18999
    RHS1      CAP_M7_T17  32878
    RHS1      CAP_M8_T17  25133
    RHS1      CAP_M9_T17  26095
    RHS1      CAP_M10_T17  32833
    RHS1      CAP_M11_T17  27861
    RHS1      STORAGE_T17  12500
    RHS1      BAL_P0_T18  69
    RHS1      BAL_P1_T18  77
    RHS1      BAL_P2_T18  139
    RHS1      BAL_P3_T18  161
    RHS1      BAL_P4_T18  72
    RHS1      BAL_P5_T18  181
    RHS1      BAL_P6_T18  61
    RHS1      BAL_P7_T18  188
    RHS1      BAL_P8_T18  53
    RHS1      BAL_P9_T18  186
    RHS1      BAL_P10_T18  75
    RHS1      BAL_P11_T18  110
    RHS1      BAL_P12_T18  176
    RHS1      BAL_P13_T18  108
    RHS1      BAL_P14_T18  146
    RHS1      BAL_P15_T18  56
    RHS1      BAL_P16_T18  52
    RHS1      BAL_P17_T18  189
    RHS1      BAL_P18_T18  80
    RHS1      BAL_P19_T18  137
    RHS1      BAL_P20_T18  162
    RHS1      BAL_P21_T18  82
    RHS1      BAL_P22_T18  173
    RHS1      BAL_P23_T18  78
    RHS1      BAL_P24_T18  142
    RHS1      CAP_M0_T18  17516
    RHS1      CAP_M1_T18  31599
    RHS1      CAP_M2_T18  23801
    RHS1      CAP_M3_T18  25951
    RHS1      CAP_M4_T18  34741
    RHS1      CAP_M5_T18  21675
    RHS1      CAP_M6_T18  19723
    RHS1      CAP_M7_T18  20706
    RHS1      CAP_M8_T18  19559
    RHS1      CAP_M9_T18  18059
    RHS1      CAP_M10_T18  22546
    RHS1      CAP_M11_T18  26047
    RHS1      STORAGE_T18  12500
    RHS1      BAL_P0_T19  180
    RHS1      BAL_P1_T19  174
    RHS1      BAL_P2_T19  76
    RHS1      BAL_P3_T19  60
    RHS1      BAL_P4_T19  168
    RHS1      BAL_P5_T19  135
    RHS1      BAL_P6_T19  72
    RHS1      BAL_P7_T19  59
    RHS1      BAL_P8_T19  103
    RHS1      BAL_P9_T19  186
    RHS1      BAL_P10_T19  56
    RHS1      BAL_P11_T19  76
    RHS1      BAL_P12_T19  72
    RHS1      BAL_P13_T19  95
    RHS1      BAL_P14_T19  61
    RHS1      BAL_P15_T19  150
    RHS1      BAL_P16_T19  138
    RHS1      BAL_P17_T19  75
    RHS1      BAL_P18_T19  74
    RHS1      BAL_P19_T19  58
    RHS1      BAL_P20_T19  151
    RHS1      BAL_P21_T19  94
    RHS1      BAL_P22_T19  152
    RHS1      BAL_P23_T19  136
    RHS1      BAL_P24_T19  66
    RHS1      CAP_M0_T19  18356
    RHS1      CAP_M1_T19  27713
    RHS1      CAP_M2_T19  34414
    RHS1      CAP_M3_T19  18704
    RHS1      CAP_M4_T19  16620
    RHS1      CAP_M5_T19  30914
    RHS1      CAP_M6_T19  26937
    RHS1      CAP_M7_T19  24779
    RHS1      CAP_M8_T19  18381
    RHS1      CAP_M9_T19  28582
    RHS1      CAP_M10_T19  34229
    RHS1      CAP_M11_T19  30636
    RHS1      STORAGE_T19  12500
    RHS1      BAL_P0_T20  94
    RHS1      BAL_P1_T20  180
    RHS1      BAL_P2_T20  102
    RHS1      BAL_P3_T20  105
    RHS1      BAL_P4_T20  152
    RHS1      BAL_P5_T20  133
    RHS1      BAL_P6_T20  75
    RHS1      BAL_P7_T20  141
    RHS1      BAL_P8_T20  72
    RHS1      BAL_P9_T20  171
    RHS1      BAL_P10_T20  84
    RHS1      BAL_P11_T20  75
    RHS1      BAL_P12_T20  162
    RHS1      BAL_P13_T20  148
    RHS1      BAL_P14_T20  74
    RHS1      BAL_P15_T20  144
    RHS1      BAL_P16_T20  145
    RHS1      BAL_P17_T20  130
    RHS1      BAL_P18_T20  88
    RHS1      BAL_P19_T20  160
    RHS1      BAL_P20_T20  187
    RHS1      BAL_P21_T20  157
    RHS1      BAL_P22_T20  130
    RHS1      BAL_P23_T20  112
    RHS1      BAL_P24_T20  138
    RHS1      CAP_M0_T20  24097
    RHS1      CAP_M1_T20  23870
    RHS1      CAP_M2_T20  30968
    RHS1      CAP_M3_T20  35233
    RHS1      CAP_M4_T20  18504
    RHS1      CAP_M5_T20  29940
    RHS1      CAP_M6_T20  29340
    RHS1      CAP_M7_T20  31648
    RHS1      CAP_M8_T20  22848
    RHS1      CAP_M9_T20  34250
    RHS1      CAP_M10_T20  30570
    RHS1      CAP_M11_T20  32949
    RHS1      STORAGE_T20  12500
    RHS1      BAL_P0_T21  58
    RHS1      BAL_P1_T21  149
    RHS1      BAL_P2_T21  161
    RHS1      BAL_P3_T21  106
    RHS1      BAL_P4_T21  83
    RHS1      BAL_P5_T21  108
    RHS1      BAL_P6_T21  173
    RHS1      BAL_P7_T21  122
    RHS1      BAL_P8_T21  65
    RHS1      BAL_P9_T21  114
    RHS1      BAL_P10_T21  194
    RHS1      BAL_P11_T21  152
    RHS1      BAL_P12_T21  65
    RHS1      BAL_P13_T21  98
    RHS1      BAL_P14_T21  164
    RHS1      BAL_P15_T21  168
    RHS1      BAL_P16_T21  74
    RHS1      BAL_P17_T21  161
    RHS1      BAL_P18_T21  80
    RHS1      BAL_P19_T21  183
    RHS1      BAL_P20_T21  112
    RHS1      BAL_P21_T21  120
    RHS1      BAL_P22_T21  124
    RHS1      BAL_P23_T21  157
    RHS1      BAL_P24_T21  178
    RHS1      CAP_M0_T21  26983
    RHS1      CAP_M1_T21  16427
    RHS1      CAP_M2_T21  18471
    RHS1      CAP_M3_T21  19331
    RHS1      CAP_M4_T21  32580
    RHS1      CAP_M5_T21  19881
    RHS1      CAP_M6_T21  35571
    RHS1      CAP_M7_T21  36901
    RHS1      CAP_M8_T21  25024
    RHS1      CAP_M9_T21  31693
    RHS1      CAP_M10_T21  26958
    RHS1      CAP_M11_T21  18033
    RHS1      STORAGE_T21  12500
    RHS1      BAL_P0_T22  113
    RHS1      BAL_P1_T22  91
    RHS1      BAL_P2_T22  172
    RHS1      BAL_P3_T22  171
    RHS1      BAL_P4_T22  62
    RHS1      BAL_P5_T22  189
    RHS1      BAL_P6_T22  76
    RHS1      BAL_P7_T22  124
    RHS1      BAL_P8_T22  172
    RHS1      BAL_P9_T22  93
    RHS1      BAL_P10_T22  130
    RHS1      BAL_P11_T22  190
    RHS1      BAL_P12_T22  68
    RHS1      BAL_P13_T22  175
    RHS1      BAL_P14_T22  111
    RHS1      BAL_P15_T22  176
    RHS1      BAL_P16_T22  63
    RHS1      BAL_P17_T22  121
    RHS1      BAL_P18_T22  162
    RHS1      BAL_P19_T22  75
    RHS1      BAL_P20_T22  94
    RHS1      BAL_P21_T22  93
    RHS1      BAL_P22_T22  120
    RHS1      BAL_P23_T22  53
    RHS1      BAL_P24_T22  193
    RHS1      CAP_M0_T22  20704
    RHS1      CAP_M1_T22  23029
    RHS1      CAP_M2_T22  29058
    RHS1      CAP_M3_T22  32250
    RHS1      CAP_M4_T22  34776
    RHS1      CAP_M5_T22  17083
    RHS1      CAP_M6_T22  24105
    RHS1      CAP_M7_T22  34634
    RHS1      CAP_M8_T22  19548
    RHS1      CAP_M9_T22  27085
    RHS1      CAP_M10_T22  25353
    RHS1      CAP_M11_T22  36432
    RHS1      STORAGE_T22  12500
    RHS1      BAL_P0_T23  138
    RHS1      BAL_P1_T23  195
    RHS1      BAL_P2_T23  110
    RHS1      BAL_P3_T23  158
    RHS1      BAL_P4_T23  75
    RHS1      BAL_P5_T23  128
    RHS1      BAL_P6_T23  110
    RHS1      BAL_P7_T23  65
    RHS1      BAL_P8_T23  67
    RHS1      BAL_P9_T23  60
    RHS1      BAL_P10_T23  195
    RHS1      BAL_P11_T23  151
    RHS1      BAL_P12_T23  167
    RHS1      BAL_P13_T23  138
    RHS1      BAL_P14_T23  167
    RHS1      BAL_P15_T23  157
    RHS1      BAL_P16_T23  97
    RHS1      BAL_P17_T23  127
    RHS1      BAL_P18_T23  175
    RHS1      BAL_P19_T23  111
    RHS1      BAL_P20_T23  54
    RHS1      BAL_P21_T23  58
    RHS1      BAL_P22_T23  120
    RHS1      BAL_P23_T23  64
    RHS1      BAL_P24_T23  159
    RHS1      CAP_M0_T23  32948
    RHS1      CAP_M1_T23  20734
    RHS1      CAP_M2_T23  35150
    RHS1      CAP_M3_T23  26440
    RHS1      CAP_M4_T23  15531
    RHS1      CAP_M5_T23  16694
    RHS1      CAP_M6_T23  30261
    RHS1      CAP_M7_T23  35957
    RHS1      CAP_M8_T23  18976
    RHS1      CAP_M9_T23  24274
    RHS1      CAP_M10_T23  31974
    RHS1      CAP_M11_T23  26541
    RHS1      STORAGE_T23  12500
    RHS1      BAL_P0_T24  115
    RHS1      BAL_P1_T24  120
    RHS1      BAL_P2_T24  150
    RHS1      BAL_P3_T24  135
    RHS1      BAL_P4_T24  145
    RHS1      BAL_P5_T24  102
    RHS1      BAL_P6_T24  134
    RHS1      BAL_P7_T24  70
    RHS1      BAL_P8_T24  80
    RHS1      BAL_P9_T24  61
    RHS1      BAL_P10_T24  61
    RHS1      BAL_P11_T24  105
    RHS1      BAL_P12_T24  80
    RHS1      BAL_P13_T24  99
    RHS1      BAL_P14_T24  115
    RHS1      BAL_P15_T24  192
    RHS1      BAL_P16_T24  153
    RHS1      BAL_P17_T24  98
    RHS1      BAL_P18_T24  134
    RHS1      BAL_P19_T24  126
    RHS1      BAL_P20_T24  81
    RHS1      BAL_P21_T24  118
    RHS1      BAL_P22_T24  138
    RHS1      BAL_P23_T24  175
    RHS1      BAL_P24_T24  181
    RHS1      CAP_M0_T24  25865
    RHS1      CAP_M1_T24  35909
    RHS1      CAP_M2_T24  36186
    RHS1      CAP_M3_T24  25022
    RHS1      CAP_M4_T24  16665
    RHS1      CAP_M5_T24  33402
    RHS1      CAP_M6_T24  34258
    RHS1      CAP_M7_T24  28088
    RHS1      CAP_M8_T24  24003
    RHS1      CAP_M9_T24  30000
    RHS1      CAP_M10_T24  16785
    RHS1      CAP_M11_T24  17234
    RHS1      STORAGE_T24  12500
    RHS1      BAL_P0_T25  85
    RHS1      BAL_P1_T25  163
    RHS1      BAL_P2_T25  69
    RHS1      BAL_P3_T25  155
    RHS1      BAL_P4_T25  99
    RHS1      BAL_P5_T25  91
    RHS1      BAL_P6_T25  136
    RHS1      BAL_P7_T25  57
    RHS1      BAL_P8_T25  132
    RHS1      BAL_P9_T25  50
    RHS1      BAL_P10_T25  193
    RHS1      BAL_P11_T25  189
    RHS1      BAL_P12_T25  156
    RHS1      BAL_P13_T25  129
    RHS1      BAL_P14_T25  56
    RHS1      BAL_P15_T25  127
    RHS1      BAL_P16_T25  75
    RHS1      BAL_P17_T25  98
    RHS1      BAL_P18_T25  167
    RHS1      BAL_P19_T25  148
    RHS1      BAL_P20_T25  157
    RHS1      BAL_P21_T25  135
    RHS1      BAL_P22_T25  192
    RHS1      BAL_P23_T25  151
    RHS1      BAL_P24_T25  164
    RHS1      CAP_M0_T25  16307
    RHS1      CAP_M1_T25  33382
    RHS1      CAP_M2_T25  19938
    RHS1      CAP_M3_T25  20712
    RHS1      CAP_M4_T25  31043
    RHS1      CAP_M5_T25  36284
    RHS1      CAP_M6_T25  36039
    RHS1      CAP_M7_T25  37079
    RHS1      CAP_M8_T25  27699
    RHS1      CAP_M9_T25  15913
    RHS1      CAP_M10_T25  23107
    RHS1      CAP_M11_T25  33245
    RHS1      STORAGE_T25  12500
    RHS1      BAL_P0_T26  165
    RHS1      BAL_P1_T26  199
    RHS1      BAL_P2_T26  190
    RHS1      BAL_P3_T26  116
    RHS1      BAL_P4_T26  53
    RHS1      BAL_P5_T26  93
    RHS1      BAL_P6_T26  62
    RHS1      BAL_P7_T26  77
    RHS1      BAL_P8_T26  190
    RHS1      BAL_P9_T26  159
    RHS1      BAL_P10_T26  165
    RHS1      BAL_P11_T26  60
    RHS1      BAL_P12_T26  120
    RHS1      BAL_P13_T26  51
    RHS1      BAL_P14_T26  64
    RHS1      BAL_P15_T26  169
    RHS1      BAL_P16_T26  70
    RHS1      BAL_P17_T26  95
    RHS1      BAL_P18_T26  114
    RHS1      BAL_P19_T26  77
    RHS1      BAL_P20_T26  53
    RHS1      BAL_P21_T26  142
    RHS1      BAL_P22_T26  162
    RHS1      BAL_P23_T26  64
    RHS1      BAL_P24_T26  53
    RHS1      CAP_M0_T26  31009
    RHS1      CAP_M1_T26  31911
    RHS1      CAP_M2_T26  18412
    RHS1      CAP_M3_T26  37187
    RHS1      CAP_M4_T26  34825
    RHS1      CAP_M5_T26  27943
    RHS1      CAP_M6_T26  24408
    RHS1      CAP_M7_T26  19346
    RHS1      CAP_M8_T26  22992
    RHS1      CAP_M9_T26  27791
    RHS1      CAP_M10_T26  20682
    RHS1      CAP_M11_T26  16931
    RHS1      STORAGE_T26  12500
    RHS1      BAL_P0_T27  121
    RHS1      BAL_P1_T27  130
    RHS1      BAL_P2_T27  130
    RHS1      BAL_P3_T27  165
    RHS1      BAL_P4_T27  139
    RHS1      BAL_P5_T27  129
    RHS1      BAL_P6_T27  107
    RHS1      BAL_P7_T27  140
    RHS1      BAL_P8_T27  183
    RHS1      BAL_P9_T27  94
    RHS1      BAL_P10_T27  154
    RHS1      BAL_P11_T27  168
    RHS1      BAL_P12_T27  123
    RHS1      BAL_P13_T27  190
    RHS1      BAL_P14_T27  95
    RHS1      BAL_P15_T27  137
    RHS1      BAL_P16_T27  136
    RHS1      BAL_P17_T27  51
    RHS1      BAL_P18_T27  126
    RHS1      BAL_P19_T27  179
    RHS1      BAL_P20_T27  97
    RHS1      BAL_P21_T27  67
    RHS1      BAL_P22_T27  70
    RHS1      BAL_P23_T27  139
    RHS1      BAL_P24_T27  78
    RHS1      CAP_M0_T27  30423
    RHS1      CAP_M1_T27  15593
    RHS1      CAP_M2_T27  37480
    RHS1      CAP_M3_T27  31002
    RHS1      CAP_M4_T27  24607
    RHS1      CAP_M5_T27  19333
    RHS1      CAP_M6_T27  19010
    RHS1      CAP_M7_T27  21573
    RHS1      CAP_M8_T27  18828
    RHS1      CAP_M9_T27  22566
    RHS1      CAP_M10_T27  21410
    RHS1      CAP_M11_T27  29238
    RHS1      STORAGE_T27  12500
    RHS1      BAL_P0_T28  65
    RHS1      BAL_P1_T28  124
    RHS1      BAL_P2_T28  143
    RHS1      BAL_P3_T28  156
    RHS1      BAL_P4_T28  86
    RHS1      BAL_P5_T28  172
    RHS1      BAL_P6_T28  114
    RHS1      BAL_P7_T28  162
    RHS1      BAL_P8_T28  160
    RHS1      BAL_P9_T28  163
    RHS1      BAL_P10_T28  68
    RHS1      BAL_P11_T28  184
    RHS1      BAL_P12_T28  166
    RHS1      BAL_P13_T28  91
    RHS1      BAL_P14_T28  131
    RHS1      BAL_P15_T28  188
    RHS1      BAL_P16_T28  190
    RHS1      BAL_P17_T28  68
    RHS1      BAL_P18_T28  146
    RHS1      BAL_P19_T28  61
    RHS1      BAL_P20_T28  126
    RHS1      BAL_P21_T28  193
    RHS1      BAL_P22_T28  141
    RHS1      BAL_P23_T28  86
    RHS1      BAL_P24_T28  63
    RHS1      CAP_M0_T28  17860
    RHS1      CAP_M1_T28  24441
    RHS1      CAP_M2_T28  33825
    RHS1      CAP_M3_T28  27410
    RHS1      CAP_M4_T28  17628
    RHS1      CAP_M5_T28  15597
    RHS1      CAP_M6_T28  30682
    RHS1      CAP_M7_T28  16629
    RHS1      CAP_M8_T28  22836
    RHS1      CAP_M9_T28  26392
    RHS1      CAP_M10_T28  36959
    RHS1      CAP_M11_T28  34765
    RHS1      STORAGE_T28  12500
    RHS1      BAL_P0_T29  110
    RHS1      BAL_P1_T29  110
    RHS1      BAL_P2_T29  129
    RHS1      BAL_P3_T29  198
    RHS1      BAL_P4_T29  123
    RHS1      BAL_P5_T29  85
    RHS1      BAL_P6_T29  96
    RHS1      BAL_P7_T29  136
    RHS1      BAL_P8_T29  152
    RHS1      BAL_P9_T29  64
    RHS1      BAL_P10_T29  159
    RHS1      BAL_P11_T29  52
    RHS1      BAL_P12_T29  196
    RHS1      BAL_P13_T29  177
    RHS1      BAL_P14_T29  113
    RHS1      BAL_P15_T29  73
    RHS1      BAL_P16_T29  199
    RHS1      BAL_P17_T29  122
    RHS1      BAL_P18_T29  73
    RHS1      BAL_P19_T29  161
    RHS1      BAL_P20_T29  120
    RHS1      BAL_P21_T29  166
    RHS1      BAL_P22_T29  174
    RHS1      BAL_P23_T29  163
    RHS1      BAL_P24_T29  104
    RHS1      CAP_M0_T29  36470
    RHS1      CAP_M1_T29  25122
    RHS1      CAP_M2_T29  37446
    RHS1      CAP_M3_T29  32258
    RHS1      CAP_M4_T29  30512
    RHS1      CAP_M5_T29  34047
    RHS1      CAP_M6_T29  36155
    RHS1      CAP_M7_T29  20861
    RHS1      CAP_M8_T29  17967
    RHS1      CAP_M9_T29  20018
    RHS1      CAP_M10_T29  20315
    RHS1      CAP_M11_T29  28680
    RHS1      STORAGE_T29  12500
    RHS1      BAL_P0_T30  160
    RHS1      BAL_P1_T30  170
    RHS1      BAL_P2_T30  133
    RHS1      BAL_P3_T30  129
    RHS1      BAL_P4_T30  60
    RHS1      BAL_P5_T30  193
    RHS1      BAL_P6_T30  61
    RHS1      BAL_P7_T30  56
    RHS1      BAL_P8_T30  97
    RHS1      BAL_P9_T30  161
    RHS1      BAL_P10_T30  53
    RHS1      BAL_P11_T30  136
    RHS1      BAL_P12_T30  187
    RHS1      BAL_P13_T30  178
    RHS1      BAL_P14_T30  188
    RHS1      BAL_P15_T30  200
    RHS1      BAL_P16_T30  175
    RHS1      BAL_P17_T30  140
    RHS1      BAL_P18_T30  114
    RHS1      BAL_P19_T30  189
    RHS1      BAL_P20_T30  146
    RHS1      BAL_P21_T30  163
    RHS1      BAL_P22_T30  162
    RHS1      BAL_P23_T30  154
    RHS1      BAL_P24_T30  101
    RHS1      CAP_M0_T30  20330
    RHS1      CAP_M1_T30  33638
    RHS1      CAP_M2_T30  36723
    RHS1      CAP_M3_T30  24452
    RHS1      CAP_M4_T30  26258
    RHS1      CAP_M5_T30  29848
    RHS1      CAP_M6_T30  33601
    RHS1      CAP_M7_T30  23322
    RHS1      CAP_M8_T30  31408
    RHS1      CAP_M9_T30  19403
    RHS1      CAP_M10_T30  35339
    RHS1      CAP_M11_T30  32620
    RHS1      STORAGE_T30  12500
    RHS1      BAL_P0_T31  114
    RHS1      BAL_P1_T31  136
    RHS1      BAL_P2_T31  86
    RHS1      BAL_P3_T31  125
    RHS1      BAL_P4_T31  128
    RHS1      BAL_P5_T31  117
    RHS1      BAL_P6_T31  155
    RHS1      BAL_P7_T31  85
    RHS1      BAL_P8_T31  128
    RHS1      BAL_P9_T31  74
    RHS1      BAL_P10_T31  192
    RHS1      BAL_P11_T31  172
    RHS1      BAL_P12_T31  80
    RHS1      BAL_P13_T31  51
    RHS1      BAL_P14_T31  83
    RHS1      BAL_P15_T31  111
    RHS1      BAL_P16_T31  193
    RHS1      BAL_P17_T31  181
    RHS1      BAL_P18_T31  61
    RHS1      BAL_P19_T31  172
    RHS1      BAL_P20_T31  97
    RHS1      BAL_P21_T31  193
    RHS1      BAL_P22_T31  152
    RHS1      BAL_P23_T31  157
    RHS1      BAL_P24_T31  116
    RHS1      CAP_M0_T31  30133
    RHS1      CAP_M1_T31  30483
    RHS1      CAP_M2_T31  35193
    RHS1      CAP_M3_T31  28093
    RHS1      CAP_M4_T31  25383
    RHS1      CAP_M5_T31  29365
    RHS1      CAP_M6_T31  35464
    RHS1      CAP_M7_T31  30841
    RHS1      CAP_M8_T31  16243
    RHS1      CAP_M9_T31  26368
    RHS1      CAP_M10_T31  36149
    RHS1      CAP_M11_T31  23626
    RHS1      STORAGE_T31  12500
    RHS1      BAL_P0_T32  140
    RHS1      BAL_P1_T32  169
    RHS1      BAL_P2_T32  196
    RHS1      BAL_P3_T32  79
    RHS1      BAL_P4_T32  58
    RHS1      BAL_P5_T32  81
    RHS1      BAL_P6_T32  71
    RHS1      BAL_P7_T32  150
    RHS1      BAL_P8_T32  198
    RHS1      BAL_P9_T32  74
    RHS1      BAL_P10_T32  62
    RHS1      BAL_P11_T32  62
    RHS1      BAL_P12_T32  170
    RHS1      BAL_P13_T32  115
    RHS1      BAL_P14_T32  69
    RHS1      BAL_P15_T32  152
    RHS1      BAL_P16_T32  158
    RHS1      BAL_P17_T32  121
    RHS1      BAL_P18_T32  51
    RHS1      BAL_P19_T32  79
    RHS1      BAL_P20_T32  60
    RHS1      BAL_P21_T32  135
    RHS1      BAL_P22_T32  118
    RHS1      BAL_P23_T32  165
    RHS1      BAL_P24_T32  134
    RHS1      CAP_M0_T32  31750
    RHS1      CAP_M1_T32  31946
    RHS1      CAP_M2_T32  19524
    RHS1      CAP_M3_T32  25125
    RHS1      CAP_M4_T32  29656
    RHS1      CAP_M5_T32  15174
    RHS1      CAP_M6_T32  15534
    RHS1      CAP_M7_T32  30096
    RHS1      CAP_M8_T32  35968
    RHS1      CAP_M9_T32  24149
    RHS1      CAP_M10_T32  30043
    RHS1      CAP_M11_T32  24087
    RHS1      STORAGE_T32  12500
    RHS1      BAL_P0_T33  179
    RHS1      BAL_P1_T33  166
    RHS1      BAL_P2_T33  113
    RHS1      BAL_P3_T33  164
    RHS1      BAL_P4_T33  70
    RHS1      BAL_P5_T33  125
    RHS1      BAL_P6_T33  73
    RHS1      BAL_P7_T33  156
    RHS1      BAL_P8_T33  159
    RHS1      BAL_P9_T33  138
    RHS1      BAL_P10_T33  89
    RHS1      BAL_P11_T33  143
    RHS1      BAL_P12_T33  199
    RHS1      BAL_P13_T33  176
    RHS1      BAL_P14_T33  106
    RHS1      BAL_P15_T33  107
    RHS1      BAL_P16_T33  180
    RHS1      BAL_P17_T33  183
    RHS1      BAL_P18_T33  88
    RHS1      BAL_P19_T33  178
    RHS1      BAL_P20_T33  109
    RHS1      BAL_P21_T33  96
    RHS1      BAL_P22_T33  174
    RHS1      BAL_P23_T33  66
    RHS1      BAL_P24_T33  118
    RHS1      CAP_M0_T33  31109
    RHS1      CAP_M1_T33  24202
    RHS1      CAP_M2_T33  19395
    RHS1      CAP_M3_T33  35516
    RHS1      CAP_M4_T33  35403
    RHS1      CAP_M5_T33  25022
    RHS1      CAP_M6_T33  16998
    RHS1      CAP_M7_T33  21542
    RHS1      CAP_M8_T33  29162
    RHS1      CAP_M9_T33  30890
    RHS1      CAP_M10_T33  35228
    RHS1      CAP_M11_T33  34988
    RHS1      STORAGE_T33  12500
    RHS1      BAL_P0_T34  162
    RHS1      BAL_P1_T34  154
    RHS1      BAL_P2_T34  127
    RHS1      BAL_P3_T34  83
    RHS1      BAL_P4_T34  165
    RHS1      BAL_P5_T34  114
    RHS1      BAL_P6_T34  125
    RHS1      BAL_P7_T34  114
    RHS1      BAL_P8_T34  64
    RHS1      BAL_P9_T34  189
    RHS1      BAL_P10_T34  80
    RHS1      BAL_P11_T34  168
    RHS1      BAL_P12_T34  58
    RHS1      BAL_P13_T34  98
    RHS1      BAL_P14_T34  97
    RHS1      BAL_P15_T34  185
    RHS1      BAL_P16_T34  115
    RHS1      BAL_P17_T34  136
    RHS1      BAL_P18_T34  125
    RHS1      BAL_P19_T34  74
    RHS1      BAL_P20_T34  168
    RHS1      BAL_P21_T34  65
    RHS1      BAL_P22_T34  149
    RHS1      BAL_P23_T34  169
    RHS1      BAL_P24_T34  163
    RHS1      CAP_M0_T34  27386
    RHS1      CAP_M1_T34  18037
    RHS1      CAP_M2_T34  26272
    RHS1      CAP_M3_T34  20815
    RHS1      CAP_M4_T34  20069
    RHS1      CAP_M5_T34  15040
    RHS1      CAP_M6_T34  19384
    RHS1      CAP_M7_T34  32561
    RHS1      CAP_M8_T34  29300
    RHS1      CAP_M9_T34  26707
    RHS1      CAP_M10_T34  23032
    RHS1      CAP_M11_T34  31447
    RHS1      STORAGE_T34  12500
    RHS1      BAL_P0_T35  189
    RHS1      BAL_P1_T35  56
    RHS1      BAL_P2_T35  136
    RHS1      BAL_P3_T35  140
    RHS1      BAL_P4_T35  163
    RHS1      BAL_P5_T35  96
    RHS1      BAL_P6_T35  69
    RHS1      BAL_P7_T35  181
    RHS1      BAL_P8_T35  101
    RHS1      BAL_P9_T35  159
    RHS1      BAL_P10_T35  169
    RHS1      BAL_P11_T35  145
    RHS1      BAL_P12_T35  145
    RHS1      BAL_P13_T35  165
    RHS1      BAL_P14_T35  150
    RHS1      BAL_P15_T35  85
    RHS1      BAL_P16_T35  180
    RHS1      BAL_P17_T35  129
    RHS1      BAL_P18_T35  111
    RHS1      BAL_P19_T35  110
    RHS1      BAL_P20_T35  82
    RHS1      BAL_P21_T35  108
    RHS1      BAL_P22_T35  190
    RHS1      BAL_P23_T35  53
    RHS1      BAL_P24_T35  124
    RHS1      CAP_M0_T35  19320
    RHS1      CAP_M1_T35  16503
    RHS1      CAP_M2_T35  31128
    RHS1      CAP_M3_T35  26427
    RHS1      CAP_M4_T35  20319
    RHS1      CAP_M5_T35  28227
    RHS1      CAP_M6_T35  30221
    RHS1      CAP_M7_T35  31755
    RHS1      CAP_M8_T35  26078
    RHS1      CAP_M9_T35  22562
    RHS1      CAP_M10_T35  23754
    RHS1      CAP_M11_T35  17099
    RHS1      STORAGE_T35  12500
    RHS1      BAL_P0_T36  160
    RHS1      BAL_P1_T36  113
    RHS1      BAL_P2_T36  180
    RHS1      BAL_P3_T36  112
    RHS1      BAL_P4_T36  70
    RHS1      BAL_P5_T36  81
    RHS1      BAL_P6_T36  98
    RHS1      BAL_P7_T36  68
    RHS1      BAL_P8_T36  185
    RHS1      BAL_P9_T36  56
    RHS1      BAL_P10_T36  72
    RHS1      BAL_P11_T36  179
    RHS1      BAL_P12_T36  143
    RHS1      BAL_P13_T36  182
    RHS1      BAL_P14_T36  130
    RHS1      BAL_P15_T36  148
    RHS1      BAL_P16_T36  181
    RHS1      BAL_P17_T36  195
    RHS1      BAL_P18_T36  126
    RHS1      BAL_P19_T36  59
    RHS1      BAL_P20_T36  132
    RHS1      BAL_P21_T36  120
    RHS1      BAL_P22_T36  92
    RHS1      BAL_P23_T36  80
    RHS1      BAL_P24_T36  179
    RHS1      CAP_M0_T36  33816
    RHS1      CAP_M1_T36  23970
    RHS1      CAP_M2_T36  33044
    RHS1      CAP_M3_T36  26197
    RHS1      CAP_M4_T36  23019
    RHS1      CAP_M5_T36  18081
    RHS1      CAP_M6_T36  27990
    RHS1      CAP_M7_T36  16119
    RHS1      CAP_M8_T36  20475
    RHS1      CAP_M9_T36  29037
    RHS1      CAP_M10_T36  34182
    RHS1      CAP_M11_T36  22400
    RHS1      STORAGE_T36  12500
    RHS1      BAL_P0_T37  143
    RHS1      BAL_P1_T37  182
    RHS1      BAL_P2_T37  171
    RHS1      BAL_P3_T37  149
    RHS1      BAL_P4_T37  136
    RHS1      BAL_P5_T37  160
    RHS1      BAL_P6_T37  149
    RHS1      BAL_P7_T37  185
    RHS1      BAL_P8_T37  96
    RHS1      BAL_P9_T37  73
    RHS1      BAL_P10_T37  68
    RHS1      BAL_P11_T37  109
    RHS1      BAL_P12_T37  124
    RHS1      BAL_P13_T37  143
    RHS1      BAL_P14_T37  166
    RHS1      BAL_P15_T37  97
    RHS1      BAL_P16_T37  153
    RHS1      BAL_P17_T37  61
    RHS1      BAL_P18_T37  63
    RHS1      BAL_P19_T37  173
    RHS1      BAL_P20_T37  92
    RHS1      BAL_P21_T37  77
    RHS1      BAL_P22_T37  179
    RHS1      BAL_P23_T37  151
    RHS1      BAL_P24_T37  145
    RHS1      CAP_M0_T37  21768
    RHS1      CAP_M1_T37  31793
    RHS1      CAP_M2_T37  20578
    RHS1      CAP_M3_T37  31499
    RHS1      CAP_M4_T37  31436
    RHS1      CAP_M5_T37  25525
    RHS1      CAP_M6_T37  27346
    RHS1      CAP_M7_T37  16246
    RHS1      CAP_M8_T37  26642
    RHS1      CAP_M9_T37  16841
    RHS1      CAP_M10_T37  19620
    RHS1      CAP_M11_T37  36417
    RHS1      STORAGE_T37  12500
    RHS1      BAL_P0_T38  196
    RHS1      BAL_P1_T38  136
    RHS1      BAL_P2_T38  94
    RHS1      BAL_P3_T38  149
    RHS1      BAL_P4_T38  168
    RHS1      BAL_P5_T38  57
    RHS1      BAL_P6_T38  99
    RHS1      BAL_P7_T38  179
    RHS1      BAL_P8_T38  117
    RHS1      BAL_P9_T38  129
    RHS1      BAL_P10_T38  172
    RHS1      BAL_P11_T38  144
    RHS1      BAL_P12_T38  67
    RHS1      BAL_P13_T38  103
    RHS1      BAL_P14_T38  51
    RHS1      BAL_P15_T38  102
    RHS1      BAL_P16_T38  166
    RHS1      BAL_P17_T38  90
    RHS1      BAL_P18_T38  164
    RHS1      BAL_P19_T38  138
    RHS1      BAL_P20_T38  155
    RHS1      BAL_P21_T38  148
    RHS1      BAL_P22_T38  130
    RHS1      BAL_P23_T38  164
    RHS1      BAL_P24_T38  105
    RHS1      CAP_M0_T38  27173
    RHS1      CAP_M1_T38  20478
    RHS1      CAP_M2_T38  22451
    RHS1      CAP_M3_T38  28445
    RHS1      CAP_M4_T38  25140
    RHS1      CAP_M5_T38  18075
    RHS1      CAP_M6_T38  16134
    RHS1      CAP_M7_T38  33170
    RHS1      CAP_M8_T38  29136
    RHS1      CAP_M9_T38  15897
    RHS1      CAP_M10_T38  23330
    RHS1      CAP_M11_T38  17585
    RHS1      STORAGE_T38  12500
    RHS1      BAL_P0_T39  161
    RHS1      BAL_P1_T39  54
    RHS1      BAL_P2_T39  83
    RHS1      BAL_P3_T39  90
    RHS1      BAL_P4_T39  105
    RHS1      BAL_P5_T39  158
    RHS1      BAL_P6_T39  180
    RHS1      BAL_P7_T39  167
    RHS1      BAL_P8_T39  196
    RHS1      BAL_P9_T39  199
    RHS1      BAL_P10_T39  54
    RHS1      BAL_P11_T39  107
    RHS1      BAL_P12_T39  94
    RHS1      BAL_P13_T39  111
    RHS1      BAL_P14_T39  197
    RHS1      BAL_P15_T39  59
    RHS1      BAL_P16_T39  82
    RHS1      BAL_P17_T39  115
    RHS1      BAL_P18_T39  117
    RHS1      BAL_P19_T39  167
    RHS1      BAL_P20_T39  192
    RHS1      BAL_P21_T39  69
    RHS1      BAL_P22_T39  88
    RHS1      BAL_P23_T39  80
    RHS1      BAL_P24_T39  89
    RHS1      CAP_M0_T39  35439
    RHS1      CAP_M1_T39  18566
    RHS1      CAP_M2_T39  22120
    RHS1      CAP_M3_T39  32896
    RHS1      CAP_M4_T39  15591
    RHS1      CAP_M5_T39  17926
    RHS1      CAP_M6_T39  27072
    RHS1      CAP_M7_T39  17440
    RHS1      CAP_M8_T39  31349
    RHS1      CAP_M9_T39  25837
    RHS1      CAP_M10_T39  17212
    RHS1      CAP_M11_T39  26770
    RHS1      STORAGE_T39  12500
    RHS1      BAL_P0_T40  62
    RHS1      BAL_P1_T40  72
    RHS1      BAL_P2_T40  74
    RHS1      BAL_P3_T40  161
    RHS1      BAL_P4_T40  60
    RHS1      BAL_P5_T40  89
    RHS1      BAL_P6_T40  198
    RHS1      BAL_P7_T40  116
    RHS1      BAL_P8_T40  73
    RHS1      BAL_P9_T40  145
    RHS1      BAL_P10_T40  121
    RHS1      BAL_P11_T40  113
    RHS1      BAL_P12_T40  139
    RHS1      BAL_P13_T40  79
    RHS1      BAL_P14_T40  148
    RHS1      BAL_P15_T40  177
    RHS1      BAL_P16_T40  84
    RHS1      BAL_P17_T40  136
    RHS1      BAL_P18_T40  76
    RHS1      BAL_P19_T40  141
    RHS1      BAL_P20_T40  65
    RHS1      BAL_P21_T40  119
    RHS1      BAL_P22_T40  168
    RHS1      BAL_P23_T40  169
    RHS1      BAL_P24_T40  165
    RHS1      CAP_M0_T40  37346
    RHS1      CAP_M1_T40  17228
    RHS1      CAP_M2_T40  28567
    RHS1      CAP_M3_T40  33466
    RHS1      CAP_M4_T40  31140
    RHS1      CAP_M5_T40  26784
    RHS1      CAP_M6_T40  16592
    RHS1      CAP_M7_T40  18569
    RHS1      CAP_M8_T40  20971
    RHS1      CAP_M9_T40  34212
    RHS1      CAP_M10_T40  31464
    RHS1      CAP_M11_T40  33882
    RHS1      STORAGE_T40  12500
    RHS1      BAL_P0_T41  138
    RHS1      BAL_P1_T41  157
    RHS1      BAL_P2_T41  186
    RHS1      BAL_P3_T41  192
    RHS1      BAL_P4_T41  79
    RHS1      BAL_P5_T41  191
    RHS1      BAL_P6_T41  142
    RHS1      BAL_P7_T41  111
    RHS1      BAL_P8_T41  81
    RHS1      BAL_P9_T41  165
    RHS1      BAL_P10_T41  129
    RHS1      BAL_P11_T41  125
    RHS1      BAL_P12_T41  82
    RHS1      BAL_P13_T41  53
    RHS1      BAL_P14_T41  105
    RHS1      BAL_P15_T41  191
    RHS1      BAL_P16_T41  83
    RHS1      BAL_P17_T41  122
    RHS1      BAL_P18_T41  67
    RHS1      BAL_P19_T41  198
    RHS1      BAL_P20_T41  164
    RHS1      BAL_P21_T41  145
    RHS1      BAL_P22_T41  150
    RHS1      BAL_P23_T41  56
    RHS1      BAL_P24_T41  149
    RHS1      CAP_M0_T41  37068
    RHS1      CAP_M1_T41  26421
    RHS1      CAP_M2_T41  27253
    RHS1      CAP_M3_T41  18428
    RHS1      CAP_M4_T41  32738
    RHS1      CAP_M5_T41  15149
    RHS1      CAP_M6_T41  24558
    RHS1      CAP_M7_T41  18576
    RHS1      CAP_M8_T41  22168
    RHS1      CAP_M9_T41  18346
    RHS1      CAP_M10_T41  19297
    RHS1      CAP_M11_T41  21000
    RHS1      STORAGE_T41  12500
    RHS1      BAL_P0_T42  182
    RHS1      BAL_P1_T42  56
    RHS1      BAL_P2_T42  183
    RHS1      BAL_P3_T42  184
    RHS1      BAL_P4_T42  196
    RHS1      BAL_P5_T42  149
    RHS1      BAL_P6_T42  64
    RHS1      BAL_P7_T42  126
    RHS1      BAL_P8_T42  138
    RHS1      BAL_P9_T42  194
    RHS1      BAL_P10_T42  63
    RHS1      BAL_P11_T42  63
    RHS1      BAL_P12_T42  161
    RHS1      BAL_P13_T42  121
    RHS1      BAL_P14_T42  127
    RHS1      BAL_P15_T42  133
    RHS1      BAL_P16_T42  174
    RHS1      BAL_P17_T42  158
    RHS1      BAL_P18_T42  165
    RHS1      BAL_P19_T42  174
    RHS1      BAL_P20_T42  153
    RHS1      BAL_P21_T42  194
    RHS1      BAL_P22_T42  122
    RHS1      BAL_P23_T42  142
    RHS1      BAL_P24_T42  94
    RHS1      CAP_M0_T42  31420
    RHS1      CAP_M1_T42  32433
    RHS1      CAP_M2_T42  29304
    RHS1      CAP_M3_T42  29821
    RHS1      CAP_M4_T42  21420
    RHS1      CAP_M5_T42  36264
    RHS1      CAP_M6_T42  30606
    RHS1      CAP_M7_T42  20916
    RHS1      CAP_M8_T42  16369
    RHS1      CAP_M9_T42  21185
    RHS1      CAP_M10_T42  28970
    RHS1      CAP_M11_T42  23263
    RHS1      STORAGE_T42  12500
    RHS1      BAL_P0_T43  172
    RHS1      BAL_P1_T43  166
    RHS1      BAL_P2_T43  143
    RHS1      BAL_P3_T43  137
    RHS1      BAL_P4_T43  180
    RHS1      BAL_P5_T43  52
    RHS1      BAL_P6_T43  77
    RHS1      BAL_P7_T43  59
    RHS1      BAL_P8_T43  163
    RHS1      BAL_P9_T43  167
    RHS1      BAL_P10_T43  193
    RHS1      BAL_P11_T43  59
    RHS1      BAL_P12_T43  140
    RHS1      BAL_P13_T43  66
    RHS1      BAL_P14_T43  145
    RHS1      BAL_P15_T43  172
    RHS1      BAL_P16_T43  176
    RHS1      BAL_P17_T43  54
    RHS1      BAL_P18_T43  193
    RHS1      BAL_P19_T43  134
    RHS1      BAL_P20_T43  74
    RHS1      BAL_P21_T43  69
    RHS1      BAL_P22_T43  196
    RHS1      BAL_P23_T43  177
    RHS1      BAL_P24_T43  75
    RHS1      CAP_M0_T43  27443
    RHS1      CAP_M1_T43  18890
    RHS1      CAP_M2_T43  17634
    RHS1      CAP_M3_T43  27626
    RHS1      CAP_M4_T43  20027
    RHS1      CAP_M5_T43  36953
    RHS1      CAP_M6_T43  30514
    RHS1      CAP_M7_T43  15329
    RHS1      CAP_M8_T43  26384
    RHS1      CAP_M9_T43  28339
    RHS1      CAP_M10_T43  30389
    RHS1      CAP_M11_T43  21727
    RHS1      STORAGE_T43  12500
    RHS1      BAL_P0_T44  157
    RHS1      BAL_P1_T44  145
    RHS1      BAL_P2_T44  121
    RHS1      BAL_P3_T44  140
    RHS1      BAL_P4_T44  190
    RHS1      BAL_P5_T44  112
    RHS1      BAL_P6_T44  78
    RHS1      BAL_P7_T44  157
    RHS1      BAL_P8_T44  93
    RHS1      BAL_P9_T44  101
    RHS1      BAL_P10_T44  105
    RHS1      BAL_P11_T44  122
    RHS1      BAL_P12_T44  69
    RHS1      BAL_P13_T44  152
    RHS1      BAL_P14_T44  197
    RHS1      BAL_P15_T44  184
    RHS1      BAL_P16_T44  88
    RHS1      BAL_P17_T44  67
    RHS1      BAL_P18_T44  194
    RHS1      BAL_P19_T44  100
    RHS1      BAL_P20_T44  135
    RHS1      BAL_P21_T44  103
    RHS1      BAL_P22_T44  144
    RHS1      BAL_P23_T44  76
    RHS1      BAL_P24_T44  127
    RHS1      CAP_M0_T44  29584
    RHS1      CAP_M1_T44  15913
    RHS1      CAP_M2_T44  36389
    RHS1      CAP_M3_T44  27423
    RHS1      CAP_M4_T44  27579
    RHS1      CAP_M5_T44  23100
    RHS1      CAP_M6_T44  35398
    RHS1      CAP_M7_T44  34721
    RHS1      CAP_M8_T44  24061
    RHS1      CAP_M9_T44  34174
    RHS1      CAP_M10_T44  20299
    RHS1      CAP_M11_T44  27522
    RHS1      STORAGE_T44  12500
    RHS1      BAL_P0_T45  51
    RHS1      BAL_P1_T45  104
    RHS1      BAL_P2_T45  60
    RHS1      BAL_P3_T45  123
    RHS1      BAL_P4_T45  185
    RHS1      BAL_P5_T45  176
    RHS1      BAL_P6_T45  173
    RHS1      BAL_P7_T45  105
    RHS1      BAL_P8_T45  58
    RHS1      BAL_P9_T45  62
    RHS1      BAL_P10_T45  95
    RHS1      BAL_P11_T45  81
    RHS1      BAL_P12_T45  118
    RHS1      BAL_P13_T45  100
    RHS1      BAL_P14_T45  56
    RHS1      BAL_P15_T45  152
    RHS1      BAL_P16_T45  55
    RHS1      BAL_P17_T45  69
    RHS1      BAL_P18_T45  183
    RHS1      BAL_P19_T45  134
    RHS1      BAL_P20_T45  198
    RHS1      BAL_P21_T45  67
    RHS1      BAL_P22_T45  134
    RHS1      BAL_P23_T45  142
    RHS1      BAL_P24_T45  129
    RHS1      CAP_M0_T45  33552
    RHS1      CAP_M1_T45  28092
    RHS1      CAP_M2_T45  29036
    RHS1      CAP_M3_T45  32571
    RHS1      CAP_M4_T45  26333
    RHS1      CAP_M5_T45  20229
    RHS1      CAP_M6_T45  30888
    RHS1      CAP_M7_T45  22102
    RHS1      CAP_M8_T45  24668
    RHS1      CAP_M9_T45  25375
    RHS1      CAP_M10_T45  15186
    RHS1      CAP_M11_T45  32190
    RHS1      STORAGE_T45  12500
    RHS1      BAL_P0_T46  62
    RHS1      BAL_P1_T46  78
    RHS1      BAL_P2_T46  133
    RHS1      BAL_P3_T46  105
    RHS1      BAL_P4_T46  189
    RHS1      BAL_P5_T46  164
    RHS1      BAL_P6_T46  170
    RHS1      BAL_P7_T46  111
    RHS1      BAL_P8_T46  125
    RHS1      BAL_P9_T46  55
    RHS1      BAL_P10_T46  103
    RHS1      BAL_P11_T46  142
    RHS1      BAL_P12_T46  112
    RHS1      BAL_P13_T46  81
    RHS1      BAL_P14_T46  119
    RHS1      BAL_P15_T46  108
    RHS1      BAL_P16_T46  117
    RHS1      BAL_P17_T46  152
    RHS1      BAL_P18_T46  56
    RHS1      BAL_P19_T46  70
    RHS1      BAL_P20_T46  81
    RHS1      BAL_P21_T46  175
    RHS1      BAL_P22_T46  200
    RHS1      BAL_P23_T46  167
    RHS1      BAL_P24_T46  164
    RHS1      CAP_M0_T46  22798
    RHS1      CAP_M1_T46  30412
    RHS1      CAP_M2_T46  22462
    RHS1      CAP_M3_T46  34955
    RHS1      CAP_M4_T46  20320
    RHS1      CAP_M5_T46  22177
    RHS1      CAP_M6_T46  23529
    RHS1      CAP_M7_T46  30148
    RHS1      CAP_M8_T46  24659
    RHS1      CAP_M9_T46  18830
    RHS1      CAP_M10_T46  28855
    RHS1      CAP_M11_T46  29716
    RHS1      STORAGE_T46  12500
    RHS1      BAL_P0_T47  83
    RHS1      BAL_P1_T47  181
    RHS1      BAL_P2_T47  96
    RHS1      BAL_P3_T47  134
    RHS1      BAL_P4_T47  145
    RHS1      BAL_P5_T47  114
    RHS1      BAL_P6_T47  101
    RHS1      BAL_P7_T47  125
    RHS1      BAL_P8_T47  139
    RHS1      BAL_P9_T47  184
    RHS1      BAL_P10_T47  170
    RHS1      BAL_P11_T47  97
    RHS1      BAL_P12_T47  196
    RHS1      BAL_P13_T47  103
    RHS1      BAL_P14_T47  174
    RHS1      BAL_P15_T47  87
    RHS1      BAL_P16_T47  181
    RHS1      BAL_P17_T47  193
    RHS1      BAL_P18_T47  133
    RHS1      BAL_P19_T47  101
    RHS1      BAL_P20_T47  96
    RHS1      BAL_P21_T47  158
    RHS1      BAL_P22_T47  76
    RHS1      BAL_P23_T47  74
    RHS1      BAL_P24_T47  122
    RHS1      CAP_M0_T47  35357
    RHS1      CAP_M1_T47  20950
    RHS1      CAP_M2_T47  32323
    RHS1      CAP_M3_T47  34756
    RHS1      CAP_M4_T47  22073
    RHS1      CAP_M5_T47  25008
    RHS1      CAP_M6_T47  24131
    RHS1      CAP_M7_T47  34733
    RHS1      CAP_M8_T47  29581
    RHS1      CAP_M9_T47  27117
    RHS1      CAP_M10_T47  17337
    RHS1      CAP_M11_T47  20219
    RHS1      STORAGE_T47  12500
    RHS1      BAL_P0_T48  181
    RHS1      BAL_P1_T48  126
    RHS1      BAL_P2_T48  116
    RHS1      BAL_P3_T48  166
    RHS1      BAL_P4_T48  136
    RHS1      BAL_P5_T48  70
    RHS1      BAL_P6_T48  169
    RHS1      BAL_P7_T48  96
    RHS1      BAL_P8_T48  51
    RHS1      BAL_P9_T48  100
    RHS1      BAL_P10_T48  127
    RHS1      BAL_P11_T48  77
    RHS1      BAL_P12_T48  194
    RHS1      BAL_P13_T48  80
    RHS1      BAL_P14_T48  113
    RHS1      BAL_P15_T48  73
    RHS1      BAL_P16_T48  128
    RHS1      BAL_P17_T48  128
    RHS1      BAL_P18_T48  112
    RHS1      BAL_P19_T48  114
    RHS1      BAL_P20_T48  61
    RHS1      BAL_P21_T48  53
    RHS1      BAL_P22_T48  106
    RHS1      BAL_P23_T48  89
    RHS1      BAL_P24_T48  120
    RHS1      CAP_M0_T48  35793
    RHS1      CAP_M1_T48  34792
    RHS1      CAP_M2_T48  17441
    RHS1      CAP_M3_T48  26564
    RHS1      CAP_M4_T48  27877
    RHS1      CAP_M5_T48  16936
    RHS1      CAP_M6_T48  30870
    RHS1      CAP_M7_T48  25757
    RHS1      CAP_M8_T48  22648
    RHS1      CAP_M9_T48  35140
    RHS1      CAP_M10_T48  28885
    RHS1      CAP_M11_T48  23877
    RHS1      STORAGE_T48  12500
    RHS1      BAL_P0_T49  65
    RHS1      BAL_P1_T49  174
    RHS1      BAL_P2_T49  83
    RHS1      BAL_P3_T49  182
    RHS1      BAL_P4_T49  100
    RHS1      BAL_P5_T49  72
    RHS1      BAL_P6_T49  88
    RHS1      BAL_P7_T49  129
    RHS1      BAL_P8_T49  54
    RHS1      BAL_P9_T49  80
    RHS1      BAL_P10_T49  169
    RHS1      BAL_P11_T49  193
    RHS1      BAL_P12_T49  87
    RHS1      BAL_P13_T49  160
    RHS1      BAL_P14_T49  75
    RHS1      BAL_P15_T49  155
    RHS1      BAL_P16_T49  50
    RHS1      BAL_P17_T49  160
    RHS1      BAL_P18_T49  186
    RHS1      BAL_P19_T49  148
    RHS1      BAL_P20_T49  186
    RHS1      BAL_P21_T49  102
    RHS1      BAL_P22_T49  61
    RHS1      BAL_P23_T49  159
    RHS1      BAL_P24_T49  131
    RHS1      CAP_M0_T49  18231
    RHS1      CAP_M1_T49  30941
    RHS1      CAP_M2_T49  25341
    RHS1      CAP_M3_T49  31261
    RHS1      CAP_M4_T49  31177
    RHS1      CAP_M5_T49  21849
    RHS1      CAP_M6_T49  20876
    RHS1      CAP_M7_T49  36868
    RHS1      CAP_M8_T49  19552
    RHS1      CAP_M9_T49  36182
    RHS1      CAP_M10_T49  27740
    RHS1      CAP_M11_T49  29411
    RHS1      STORAGE_T49  12500
BOUNDS
ENDATA
