NAME          BLENDING_Large
OBJSENSE
  MIN
ROWS
 N  PROFIT
 E  BAL_P0
 E  BAL_P1
 E  BAL_P2
 E  BAL_P3
 E  BAL_P4
 E  BAL_P5
 E  BAL_P6
 E  BAL_P7
 E  BAL_P8
 E  BAL_P9
 L  AVAIL_C0
 L  AVAIL_C1
 L  AVAIL_C2
 L  AVAIL_C3
 L  AVAIL_C4
 L  AVAIL_C5
 L  AVAIL_C6
 L  AVAIL_C7
 L  AVAIL_C8
 L  AVAIL_C9
 L  AVAIL_C10
 L  AVAIL_C11
 L  AVAIL_C12
 L  AVAIL_C13
 L  AVAIL_C14
 L  AVAIL_C15
 L  AVAIL_C16
 L  AVAIL_C17
 L  AVAIL_C18
 L  AVAIL_C19
 L  AVAIL_C20
 L  AVAIL_C21
 L  AVAIL_C22
 L  AVAIL_C23
 L  AVAIL_C24
 G  QMIN_P0_Q0
 G  QMIN_P0_Q1
 G  QMIN_P0_Q2
 G  QMIN_P0_Q3
 G  QMIN_P0_Q4
 G  QMIN_P0_Q5
 G  QMIN_P1_Q0
 G  QMIN_P1_Q1
 G  QMIN_P1_Q2
 G  QMIN_P1_Q3
 G  QMIN_P1_Q4
 G  QMIN_P1_Q5
 G  QMIN_P2_Q0
 G  QMIN_P2_Q1
 G  QMIN_P2_Q2
 G  QMIN_P2_Q3
 G  QMIN_P2_Q4
 G  QMIN_P2_Q5
 G  QMIN_P3_Q0
 G  QMIN_P3_Q1
 G  QMIN_P3_Q2
 G  QMIN_P3_Q3
 G  QMIN_P3_Q4
 G  QMIN_P3_Q5
 G  QMIN_P4_Q0
 G  QMIN_P4_Q1
 G  QMIN_P4_Q2
 G  QMIN_P4_Q3
 G  QMIN_P4_Q4
 G  QMIN_P4_Q5
 G  QMIN_P5_Q0
 G  QMIN_P5_Q1
 G  QMIN_P5_Q2
 G  QMIN_P5_Q3
 G  QMIN_P5_Q4
 G  QMIN_P5_Q5
 G  QMIN_P6_Q0
 G  QMIN_P6_Q1
 G  QMIN_P6_Q2
 G  QMIN_P6_Q3
 G  QMIN_P6_Q4
 G  QMIN_P6_Q5
 G  QMIN_P7_Q0
 G  QMIN_P7_Q1
 G  QMIN_P7_Q2
 G  QMIN_P7_Q3
 G  QMIN_P7_Q4
 G  QMIN_P7_Q5
 G  QMIN_P8_Q0
 G  QMIN_P8_Q1
 G  QMIN_P8_Q2
 G  QMIN_P8_Q3
 G  QMIN_P8_Q4
 G  QMIN_P8_Q5
 G  QMIN_P9_Q0
 G  QMIN_P9_Q1
 G  QMIN_P9_Q2
 G  QMIN_P9_Q3
 G  QMIN_P9_Q4
 G  QMIN_P9_Q5
 L  QMAX_P0_Q0
 L  QMAX_P0_Q1
 L  QMAX_P0_Q2
 L  QMAX_P0_Q3
 L  QMAX_P0_Q4
 L  QMAX_P0_Q5
 L  QMAX_P1_Q0
 L  QMAX_P1_Q1
 L  QMAX_P1_Q2
 L  QMAX_P1_Q3
 L  QMAX_P1_Q4
 L  QMAX_P1_Q5
 L  QMAX_P2_Q0
 L  QMAX_P2_Q1
 L  QMAX_P2_Q2
 L  QMAX_P2_Q3
 L  QMAX_P2_Q4
 L  QMAX_P2_Q5
 L  QMAX_P3_Q0
 L  QMAX_P3_Q1
 L  QMAX_P3_Q2
 L  QMAX_P3_Q3
 L  QMAX_P3_Q4
 L  QMAX_P3_Q5
 L  QMAX_P4_Q0
 L  QMAX_P4_Q1
 L  QMAX_P4_Q2
 L  QMAX_P4_Q3
 L  QMAX_P4_Q4
 L  QMAX_P4_Q5
 L  QMAX_P5_Q0
 L  QMAX_P5_Q1
 L  QMAX_P5_Q2
 L  QMAX_P5_Q3
 L  QMAX_P5_Q4
 L  QMAX_P5_Q5
 L  QMAX_P6_Q0
 L  QMAX_P6_Q1
 L  QMAX_P6_Q2
 L  QMAX_P6_Q3
 L  QMAX_P6_Q4
 L  QMAX_P6_Q5
 L  QMAX_P7_Q0
 L  QMAX_P7_Q1
 L  QMAX_P7_Q2
 L  QMAX_P7_Q3
 L  QMAX_P7_Q4
 L  QMAX_P7_Q5
 L  QMAX_P8_Q0
 L  QMAX_P8_Q1
 L  QMAX_P8_Q2
 L  QMAX_P8_Q3
 L  QMAX_P8_Q4
 L  QMAX_P8_Q5
 L  QMAX_P9_Q0
 L  QMAX_P9_Q1
 L  QMAX_P9_Q2
 L  QMAX_P9_Q3
 L  QMAX_P9_Q4
 L  QMAX_P9_Q5
COLUMNS
    X_C0_P0   PROFIT    75.2
    X_C0_P0   BAL_P0    1
    X_C0_P0   AVAIL_C0  1
    X_C0_P0   QMIN_P0_Q0  65
    X_C0_P0   QMIN_P0_Q1  75
    X_C0_P0   QMIN_P0_Q2  85
    X_C0_P0   QMIN_P0_Q3  95
    X_C0_P0   QMIN_P0_Q4  105
    X_C0_P0   QMIN_P0_Q5  115
    X_C0_P0   QMAX_P0_Q0  65
    X_C0_P0   QMAX_P0_Q1  75
    X_C0_P0   QMAX_P0_Q2  85
    X_C0_P0   QMAX_P0_Q3  95
    X_C0_P0   QMAX_P0_Q4  105
    X_C0_P0   QMAX_P0_Q5  115
    X_C0_P1   PROFIT    75.2
    X_C0_P1   BAL_P1    1
    X_C0_P1   AVAIL_C0  1
    X_C0_P1   QMIN_P1_Q0  65
    X_C0_P1   QMIN_P1_Q1  75
    X_C0_P1   QMIN_P1_Q2  85
    X_C0_P1   QMIN_P1_Q3  95
    X_C0_P1   QMIN_P1_Q4  105
    X_C0_P1   QMIN_P1_Q5  115
    X_C0_P1   QMAX_P1_Q0  65
    X_C0_P1   QMAX_P1_Q1  75
    X_C0_P1   QMAX_P1_Q2  85
    X_C0_P1   QMAX_P1_Q3  95
    X_C0_P1   QMAX_P1_Q4  105
    X_C0_P1   QMAX_P1_Q5  115
    X_C0_P2   PROFIT    75.2
    X_C0_P2   BAL_P2    1
    X_C0_P2   AVAIL_C0  1
    X_C0_P2   QMIN_P2_Q0  65
    X_C0_P2   QMIN_P2_Q1  75
    X_C0_P2   QMIN_P2_Q2  85
    X_C0_P2   QMIN_P2_Q3  95
    X_C0_P2   QMIN_P2_Q4  105
    X_C0_P2   QMIN_P2_Q5  115
    X_C0_P2   QMAX_P2_Q0  65
    X_C0_P2   QMAX_P2_Q1  75
    X_C0_P2   QMAX_P2_Q2  85
    X_C0_P2   QMAX_P2_Q3  95
    X_C0_P2   QMAX_P2_Q4  105
    X_C0_P2   QMAX_P2_Q5  115
    X_C0_P3   PROFIT    75.2
    X_C0_P3   BAL_P3    1
    X_C0_P3   AVAIL_C0  1
    X_C0_P3   QMIN_P3_Q0  65
    X_C0_P3   QMIN_P3_Q1  75
    X_C0_P3   QMIN_P3_Q2  85
    X_C0_P3   QMIN_P3_Q3  95
    X_C0_P3   QMIN_P3_Q4  105
    X_C0_P3   QMIN_P3_Q5  115
    X_C0_P3   QMAX_P3_Q0  65
    X_C0_P3   QMAX_P3_Q1  75
    X_C0_P3   QMAX_P3_Q2  85
    X_C0_P3   QMAX_P3_Q3  95
    X_C0_P3   QMAX_P3_Q4  105
    X_C0_P3   QMAX_P3_Q5  115
    X_C0_P4   PROFIT    75.2
    X_C0_P4   BAL_P4    1
    X_C0_P4   AVAIL_C0  1
    X_C0_P4   QMIN_P4_Q0  65
    X_C0_P4   QMIN_P4_Q1  75
    X_C0_P4   QMIN_P4_Q2  85
    X_C0_P4   QMIN_P4_Q3  95
    X_C0_P4   QMIN_P4_Q4  105
    X_C0_P4   QMIN_P4_Q5  115
    X_C0_P4   QMAX_P4_Q0  65
    X_C0_P4   QMAX_P4_Q1  75
    X_C0_P4   QMAX_P4_Q2  85
    X_C0_P4   QMAX_P4_Q3  95
    X_C0_P4   QMAX_P4_Q4  105
    X_C0_P4   QMAX_P4_Q5  115
    X_C0_P5   PROFIT    75.2
    X_C0_P5   BAL_P5    1
    X_C0_P5   AVAIL_C0  1
    X_C0_P5   QMIN_P5_Q0  65
    X_C0_P5   QMIN_P5_Q1  75
    X_C0_P5   QMIN_P5_Q2  85
    X_C0_P5   QMIN_P5_Q3  95
    X_C0_P5   QMIN_P5_Q4  105
    X_C0_P5   QMIN_P5_Q5  115
    X_C0_P5   QMAX_P5_Q0  65
    X_C0_P5   QMAX_P5_Q1  75
    X_C0_P5   QMAX_P5_Q2  85
    X_C0_P5   QMAX_P5_Q3  95
    X_C0_P5   QMAX_P5_Q4  105
    X_C0_P5   QMAX_P5_Q5  115
    X_C0_P6   PROFIT    75.2
    X_C0_P6   BAL_P6    1
    X_C0_P6   AVAIL_C0  1
    X_C0_P6   QMIN_P6_Q0  65
    X_C0_P6   QMIN_P6_Q1  75
    X_C0_P6   QMIN_P6_Q2  85
    X_C0_P6   QMIN_P6_Q3  95
    X_C0_P6   QMIN_P6_Q4  105
    X_C0_P6   QMIN_P6_Q5  115
    X_C0_P6   QMAX_P6_Q0  65
    X_C0_P6   QMAX_P6_Q1  75
    X_C0_P6   QMAX_P6_Q2  85
    X_C0_P6   QMAX_P6_Q3  95
    X_C0_P6   QMAX_P6_Q4  105
    X_C0_P6   QMAX_P6_Q5  115
    X_C0_P7   PROFIT    75.2
    X_C0_P7   BAL_P7    1
    X_C0_P7   AVAIL_C0  1
    X_C0_P7   QMIN_P7_Q0  65
    X_C0_P7   QMIN_P7_Q1  75
    X_C0_P7   QMIN_P7_Q2  85
    X_C0_P7   QMIN_P7_Q3  95
    X_C0_P7   QMIN_P7_Q4  105
    X_C0_P7   QMIN_P7_Q5  115
    X_C0_P7   QMAX_P7_Q0  65
    X_C0_P7   QMAX_P7_Q1  75
    X_C0_P7   QMAX_P7_Q2  85
    X_C0_P7   QMAX_P7_Q3  95
    X_C0_P7   QMAX_P7_Q4  105
    X_C0_P7   QMAX_P7_Q5  115
    X_C0_P8   PROFIT    75.2
    X_C0_P8   BAL_P8    1
    X_C0_P8   AVAIL_C0  1
    X_C0_P8   QMIN_P8_Q0  65
    X_C0_P8   QMIN_P8_Q1  75
    X_C0_P8   QMIN_P8_Q2  85
    X_C0_P8   QMIN_P8_Q3  95
    X_C0_P8   QMIN_P8_Q4  105
    X_C0_P8   QMIN_P8_Q5  115
    X_C0_P8   QMAX_P8_Q0  65
    X_C0_P8   QMAX_P8_Q1  75
    X_C0_P8   QMAX_P8_Q2  85
    X_C0_P8   QMAX_P8_Q3  95
    X_C0_P8   QMAX_P8_Q4  105
    X_C0_P8   QMAX_P8_Q5  115
    X_C0_P9   PROFIT    75.2
    X_C0_P9   BAL_P9    1
    X_C0_P9   AVAIL_C0  1
    X_C0_P9   QMIN_P9_Q0  65
    X_C0_P9   QMIN_P9_Q1  75
    X_C0_P9   QMIN_P9_Q2  85
    X_C0_P9   QMIN_P9_Q3  95
    X_C0_P9   QMIN_P9_Q4  105
    X_C0_P9   QMIN_P9_Q5  115
    X_C0_P9   QMAX_P9_Q0  65
    X_C0_P9   QMAX_P9_Q1  75
    X_C0_P9   QMAX_P9_Q2  85
    X_C0_P9   QMAX_P9_Q3  95
    X_C0_P9   QMAX_P9_Q4  105
    X_C0_P9   QMAX_P9_Q5  115
    X_C1_P0   PROFIT    75.1
    X_C1_P0   BAL_P0    1
    X_C1_P0   AVAIL_C1  1
    X_C1_P0   QMIN_P0_Q0  87.2
    X_C1_P0   QMIN_P0_Q1  98.5
    X_C1_P0   QMIN_P0_Q2  98.1
    X_C1_P0   QMIN_P0_Q3  104.1
    X_C1_P0   QMIN_P0_Q4  117.3
    X_C1_P0   QMIN_P0_Q5  134.4
    X_C1_P0   QMAX_P0_Q0  87.2
    X_C1_P0   QMAX_P0_Q1  98.5
    X_C1_P0   QMAX_P0_Q2  98.1
    X_C1_P0   QMAX_P0_Q3  104.1
    X_C1_P0   QMAX_P0_Q4  117.3
    X_C1_P0   QMAX_P0_Q5  134.4
    X_C1_P1   PROFIT    75.1
    X_C1_P1   BAL_P1    1
    X_C1_P1   AVAIL_C1  1
    X_C1_P1   QMIN_P1_Q0  87.2
    X_C1_P1   QMIN_P1_Q1  98.5
    X_C1_P1   QMIN_P1_Q2  98.1
    X_C1_P1   QMIN_P1_Q3  104.1
    X_C1_P1   QMIN_P1_Q4  117.3
    X_C1_P1   QMIN_P1_Q5  134.4
    X_C1_P1   QMAX_P1_Q0  87.2
    X_C1_P1   QMAX_P1_Q1  98.5
    X_C1_P1   QMAX_P1_Q2  98.1
    X_C1_P1   QMAX_P1_Q3  104.1
    X_C1_P1   QMAX_P1_Q4  117.3
    X_C1_P1   QMAX_P1_Q5  134.4
    X_C1_P2   PROFIT    75.1
    X_C1_P2   BAL_P2    1
    X_C1_P2   AVAIL_C1  1
    X_C1_P2   QMIN_P2_Q0  87.2
    X_C1_P2   QMIN_P2_Q1  98.5
    X_C1_P2   QMIN_P2_Q2  98.1
    X_C1_P2   QMIN_P2_Q3  104.1
    X_C1_P2   QMIN_P2_Q4  117.3
    X_C1_P2   QMIN_P2_Q5  134.4
    X_C1_P2   QMAX_P2_Q0  87.2
    X_C1_P2   QMAX_P2_Q1  98.5
    X_C1_P2   QMAX_P2_Q2  98.1
    X_C1_P2   QMAX_P2_Q3  104.1
    X_C1_P2   QMAX_P2_Q4  117.3
    X_C1_P2   QMAX_P2_Q5  134.4
    X_C1_P3   PROFIT    75.1
    X_C1_P3   BAL_P3    1
    X_C1_P3   AVAIL_C1  1
    X_C1_P3   QMIN_P3_Q0  87.2
    X_C1_P3   QMIN_P3_Q1  98.5
    X_C1_P3   QMIN_P3_Q2  98.1
    X_C1_P3   QMIN_P3_Q3  104.1
    X_C1_P3   QMIN_P3_Q4  117.3
    X_C1_P3   QMIN_P3_Q5  134.4
    X_C1_P3   QMAX_P3_Q0  87.2
    X_C1_P3   QMAX_P3_Q1  98.5
    X_C1_P3   QMAX_P3_Q2  98.1
    X_C1_P3   QMAX_P3_Q3  104.1
    X_C1_P3   QMAX_P3_Q4  117.3
    X_C1_P3   QMAX_P3_Q5  134.4
    X_C1_P4   PROFIT    75.1
    X_C1_P4   BAL_P4    1
    X_C1_P4   AVAIL_C1  1
    X_C1_P4   QMIN_P4_Q0  87.2
    X_C1_P4   QMIN_P4_Q1  98.5
    X_C1_P4   QMIN_P4_Q2  98.1
    X_C1_P4   QMIN_P4_Q3  104.1
    X_C1_P4   QMIN_P4_Q4  117.3
    X_C1_P4   QMIN_P4_Q5  134.4
    X_C1_P4   QMAX_P4_Q0  87.2
    X_C1_P4   QMAX_P4_Q1  98.5
    X_C1_P4   QMAX_P4_Q2  98.1
    X_C1_P4   QMAX_P4_Q3  104.1
    X_C1_P4   QMAX_P4_Q4  117.3
    X_C1_P4   QMAX_P4_Q5  134.4
    X_C1_P5   PROFIT    75.1
    X_C1_P5   BAL_P5    1
    X_C1_P5   AVAIL_C1  1
    X_C1_P5   QMIN_P5_Q0  87.2
    X_C1_P5   QMIN_P5_Q1  98.5
    X_C1_P5   QMIN_P5_Q2  98.1
    X_C1_P5   QMIN_P5_Q3  104.1
    X_C1_P5   QMIN_P5_Q4  117.3
    X_C1_P5   QMIN_P5_Q5  134.4
    X_C1_P5   QMAX_P5_Q0  87.2
    X_C1_P5   QMAX_P5_Q1  98.5
    X_C1_P5   QMAX_P5_Q2  98.1
    X_C1_P5   QMAX_P5_Q3  104.1
    X_C1_P5   QMAX_P5_Q4  117.3
    X_C1_P5   QMAX_P5_Q5  134.4
    X_C1_P6   PROFIT    75.1
    X_C1_P6   BAL_P6    1
    X_C1_P6   AVAIL_C1  1
    X_C1_P6   QMIN_P6_Q0  87.2
    X_C1_P6   QMIN_P6_Q1  98.5
    X_C1_P6   QMIN_P6_Q2  98.1
    X_C1_P6   QMIN_P6_Q3  104.1
    X_C1_P6   QMIN_P6_Q4  117.3
    X_C1_P6   QMIN_P6_Q5  134.4
    X_C1_P6   QMAX_P6_Q0  87.2
    X_C1_P6   QMAX_P6_Q1  98.5
    X_C1_P6   QMAX_P6_Q2  98.1
    X_C1_P6   QMAX_P6_Q3  104.1
    X_C1_P6   QMAX_P6_Q4  117.3
    X_C1_P6   QMAX_P6_Q5  134.4
    X_C1_P7   PROFIT    75.1
    X_C1_P7   BAL_P7    1
    X_C1_P7   AVAIL_C1  1
    X_C1_P7   QMIN_P7_Q0  87.2
    X_C1_P7   QMIN_P7_Q1  98.5
    X_C1_P7   QMIN_P7_Q2  98.1
    X_C1_P7   QMIN_P7_Q3  104.1
    X_C1_P7   QMIN_P7_Q4  117.3
    X_C1_P7   QMIN_P7_Q5  134.4
    X_C1_P7   QMAX_P7_Q0  87.2
    X_C1_P7   QMAX_P7_Q1  98.5
    X_C1_P7   QMAX_P7_Q2  98.1
    X_C1_P7   QMAX_P7_Q3  104.1
    X_C1_P7   QMAX_P7_Q4  117.3
    X_C1_P7   QMAX_P7_Q5  134.4
    X_C1_P8   PROFIT    75.1
    X_C1_P8   BAL_P8    1
    X_C1_P8   AVAIL_C1  1
    X_C1_P8   QMIN_P8_Q0  87.2
    X_C1_P8   QMIN_P8_Q1  98.5
    X_C1_P8   QMIN_P8_Q2  98.1
    X_C1_P8   QMIN_P8_Q3  104.1
    X_C1_P8   QMIN_P8_Q4  117.3
    X_C1_P8   QMIN_P8_Q5  134.4
    X_C1_P8   QMAX_P8_Q0  87.2
    X_C1_P8   QMAX_P8_Q1  98.5
    X_C1_P8   QMAX_P8_Q2  98.1
    X_C1_P8   QMAX_P8_Q3  104.1
    X_C1_P8   QMAX_P8_Q4  117.3
    X_C1_P8   QMAX_P8_Q5  134.4
    X_C1_P9   PROFIT    75.1
    X_C1_P9   BAL_P9    1
    X_C1_P9   AVAIL_C1  1
    X_C1_P9   QMIN_P9_Q0  87.2
    X_C1_P9   QMIN_P9_Q1  98.5
    X_C1_P9   QMIN_P9_Q2  98.1
    X_C1_P9   QMIN_P9_Q3  104.1
    X_C1_P9   QMIN_P9_Q4  117.3
    X_C1_P9   QMIN_P9_Q5  134.4
    X_C1_P9   QMAX_P9_Q0  87.2
    X_C1_P9   QMAX_P9_Q1  98.5
    X_C1_P9   QMAX_P9_Q2  98.1
    X_C1_P9   QMAX_P9_Q3  104.1
    X_C1_P9   QMAX_P9_Q4  117.3
    X_C1_P9   QMAX_P9_Q5  134.4
    X_C2_P0   PROFIT    81.1
    X_C2_P0   BAL_P0    1
    X_C2_P0   AVAIL_C2  1
    X_C2_P0   QMIN_P0_Q0  88.2
    X_C2_P0   QMIN_P0_Q1  85.8
    X_C2_P0   QMIN_P0_Q2  97.3
    X_C2_P0   QMIN_P0_Q3  116.3
    X_C2_P0   QMIN_P0_Q4  121.3
    X_C2_P0   QMIN_P0_Q5  124.5
    X_C2_P0   QMAX_P0_Q0  88.2
    X_C2_P0   QMAX_P0_Q1  85.8
    X_C2_P0   QMAX_P0_Q2  97.3
    X_C2_P0   QMAX_P0_Q3  116.3
    X_C2_P0   QMAX_P0_Q4  121.3
    X_C2_P0   QMAX_P0_Q5  124.5
    X_C2_P1   PROFIT    81.1
    X_C2_P1   BAL_P1    1
    X_C2_P1   AVAIL_C2  1
    X_C2_P1   QMIN_P1_Q0  88.2
    X_C2_P1   QMIN_P1_Q1  85.8
    X_C2_P1   QMIN_P1_Q2  97.3
    X_C2_P1   QMIN_P1_Q3  116.3
    X_C2_P1   QMIN_P1_Q4  121.3
    X_C2_P1   QMIN_P1_Q5  124.5
    X_C2_P1   QMAX_P1_Q0  88.2
    X_C2_P1   QMAX_P1_Q1  85.8
    X_C2_P1   QMAX_P1_Q2  97.3
    X_C2_P1   QMAX_P1_Q3  116.3
    X_C2_P1   QMAX_P1_Q4  121.3
    X_C2_P1   QMAX_P1_Q5  124.5
    X_C2_P2   PROFIT    81.1
    X_C2_P2   BAL_P2    1
    X_C2_P2   AVAIL_C2  1
    X_C2_P2   QMIN_P2_Q0  88.2
    X_C2_P2   QMIN_P2_Q1  85.8
    X_C2_P2   QMIN_P2_Q2  97.3
    X_C2_P2   QMIN_P2_Q3  116.3
    X_C2_P2   QMIN_P2_Q4  121.3
    X_C2_P2   QMIN_P2_Q5  124.5
    X_C2_P2   QMAX_P2_Q0  88.2
    X_C2_P2   QMAX_P2_Q1  85.8
    X_C2_P2   QMAX_P2_Q2  97.3
    X_C2_P2   QMAX_P2_Q3  116.3
    X_C2_P2   QMAX_P2_Q4  121.3
    X_C2_P2   QMAX_P2_Q5  124.5
    X_C2_P3   PROFIT    81.1
    X_C2_P3   BAL_P3    1
    X_C2_P3   AVAIL_C2  1
    X_C2_P3   QMIN_P3_Q0  88.2
    X_C2_P3   QMIN_P3_Q1  85.8
    X_C2_P3   QMIN_P3_Q2  97.3
    X_C2_P3   QMIN_P3_Q3  116.3
    X_C2_P3   QMIN_P3_Q4  121.3
    X_C2_P3   QMIN_P3_Q5  124.5
    X_C2_P3   QMAX_P3_Q0  88.2
    X_C2_P3   QMAX_P3_Q1  85.8
    X_C2_P3   QMAX_P3_Q2  97.3
    X_C2_P3   QMAX_P3_Q3  116.3
    X_C2_P3   QMAX_P3_Q4  121.3
    X_C2_P3   QMAX_P3_Q5  124.5
    X_C2_P4   PROFIT    81.1
    X_C2_P4   BAL_P4    1
    X_C2_P4   AVAIL_C2  1
    X_C2_P4   QMIN_P4_Q0  88.2
    X_C2_P4   QMIN_P4_Q1  85.8
    X_C2_P4   QMIN_P4_Q2  97.3
    X_C2_P4   QMIN_P4_Q3  116.3
    X_C2_P4   QMIN_P4_Q4  121.3
    X_C2_P4   QMIN_P4_Q5  124.5
    X_C2_P4   QMAX_P4_Q0  88.2
    X_C2_P4   QMAX_P4_Q1  85.8
    X_C2_P4   QMAX_P4_Q2  97.3
    X_C2_P4   QMAX_P4_Q3  116.3
    X_C2_P4   QMAX_P4_Q4  121.3
    X_C2_P4   QMAX_P4_Q5  124.5
    X_C2_P5   PROFIT    81.1
    X_C2_P5   BAL_P5    1
    X_C2_P5   AVAIL_C2  1
    X_C2_P5   QMIN_P5_Q0  88.2
    X_C2_P5   QMIN_P5_Q1  85.8
    X_C2_P5   QMIN_P5_Q2  97.3
    X_C2_P5   QMIN_P5_Q3  116.3
    X_C2_P5   QMIN_P5_Q4  121.3
    X_C2_P5   QMIN_P5_Q5  124.5
    X_C2_P5   QMAX_P5_Q0  88.2
    X_C2_P5   QMAX_P5_Q1  85.8
    X_C2_P5   QMAX_P5_Q2  97.3
    X_C2_P5   QMAX_P5_Q3  116.3
    X_C2_P5   QMAX_P5_Q4  121.3
    X_C2_P5   QMAX_P5_Q5  124.5
    X_C2_P6   PROFIT    81.1
    X_C2_P6   BAL_P6    1
    X_C2_P6   AVAIL_C2  1
    X_C2_P6   QMIN_P6_Q0  88.2
    X_C2_P6   QMIN_P6_Q1  85.8
    X_C2_P6   QMIN_P6_Q2  97.3
    X_C2_P6   QMIN_P6_Q3  116.3
    X_C2_P6   QMIN_P6_Q4  121.3
    X_C2_P6   QMIN_P6_Q5  124.5
    X_C2_P6   QMAX_P6_Q0  88.2
    X_C2_P6   QMAX_P6_Q1  85.8
    X_C2_P6   QMAX_P6_Q2  97.3
    X_C2_P6   QMAX_P6_Q3  116.3
    X_C2_P6   QMAX_P6_Q4  121.3
    X_C2_P6   QMAX_P6_Q5  124.5
    X_C2_P7   PROFIT    81.1
    X_C2_P7   BAL_P7    1
    X_C2_P7   AVAIL_C2  1
    X_C2_P7   QMIN_P7_Q0  88.2
    X_C2_P7   QMIN_P7_Q1  85.8
    X_C2_P7   QMIN_P7_Q2  97.3
    X_C2_P7   QMIN_P7_Q3  116.3
    X_C2_P7   QMIN_P7_Q4  121.3
    X_C2_P7   QMIN_P7_Q5  124.5
    X_C2_P7   QMAX_P7_Q0  88.2
    X_C2_P7   QMAX_P7_Q1  85.8
    X_C2_P7   QMAX_P7_Q2  97.3
    X_C2_P7   QMAX_P7_Q3  116.3
    X_C2_P7   QMAX_P7_Q4  121.3
    X_C2_P7   QMAX_P7_Q5  124.5
    X_C2_P8   PROFIT    81.1
    X_C2_P8   BAL_P8    1
    X_C2_P8   AVAIL_C2  1
    X_C2_P8   QMIN_P8_Q0  88.2
    X_C2_P8   QMIN_P8_Q1  85.8
    X_C2_P8   QMIN_P8_Q2  97.3
    X_C2_P8   QMIN_P8_Q3  116.3
    X_C2_P8   QMIN_P8_Q4  121.3
    X_C2_P8   QMIN_P8_Q5  124.5
    X_C2_P8   QMAX_P8_Q0  88.2
    X_C2_P8   QMAX_P8_Q1  85.8
    X_C2_P8   QMAX_P8_Q2  97.3
    X_C2_P8   QMAX_P8_Q3  116.3
    X_C2_P8   QMAX_P8_Q4  121.3
    X_C2_P8   QMAX_P8_Q5  124.5
    X_C2_P9   PROFIT    81.1
    X_C2_P9   BAL_P9    1
    X_C2_P9   AVAIL_C2  1
    X_C2_P9   QMIN_P9_Q0  88.2
    X_C2_P9   QMIN_P9_Q1  85.8
    X_C2_P9   QMIN_P9_Q2  97.3
    X_C2_P9   QMIN_P9_Q3  116.3
    X_C2_P9   QMIN_P9_Q4  121.3
    X_C2_P9   QMIN_P9_Q5  124.5
    X_C2_P9   QMAX_P9_Q0  88.2
    X_C2_P9   QMAX_P9_Q1  85.8
    X_C2_P9   QMAX_P9_Q2  97.3
    X_C2_P9   QMAX_P9_Q3  116.3
    X_C2_P9   QMAX_P9_Q4  121.3
    X_C2_P9   QMAX_P9_Q5  124.5
    X_C3_P0   PROFIT    68
    X_C3_P0   BAL_P0    1
    X_C3_P0   AVAIL_C3  1
    X_C3_P0   QMIN_P0_Q0  86.3
    X_C3_P0   QMIN_P0_Q1  93.2
    X_C3_P0   QMIN_P0_Q2  100.4
    X_C3_P0   QMIN_P0_Q3  102
    X_C3_P0   QMIN_P0_Q4  117.8
    X_C3_P0   QMIN_P0_Q5  142.2
    X_C3_P0   QMAX_P0_Q0  86.3
    X_C3_P0   QMAX_P0_Q1  93.2
    X_C3_P0   QMAX_P0_Q2  100.4
    X_C3_P0   QMAX_P0_Q3  102
    X_C3_P0   QMAX_P0_Q4  117.8
    X_C3_P0   QMAX_P0_Q5  142.2
    X_C3_P1   PROFIT    68
    X_C3_P1   BAL_P1    1
    X_C3_P1   AVAIL_C3  1
    X_C3_P1   QMIN_P1_Q0  86.3
    X_C3_P1   QMIN_P1_Q1  93.2
    X_C3_P1   QMIN_P1_Q2  100.4
    X_C3_P1   QMIN_P1_Q3  102
    X_C3_P1   QMIN_P1_Q4  117.8
    X_C3_P1   QMIN_P1_Q5  142.2
    X_C3_P1   QMAX_P1_Q0  86.3
    X_C3_P1   QMAX_P1_Q1  93.2
    X_C3_P1   QMAX_P1_Q2  100.4
    X_C3_P1   QMAX_P1_Q3  102
    X_C3_P1   QMAX_P1_Q4  117.8
    X_C3_P1   QMAX_P1_Q5  142.2
    X_C3_P2   PROFIT    68
    X_C3_P2   BAL_P2    1
    X_C3_P2   AVAIL_C3  1
    X_C3_P2   QMIN_P2_Q0  86.3
    X_C3_P2   QMIN_P2_Q1  93.2
    X_C3_P2   QMIN_P2_Q2  100.4
    X_C3_P2   QMIN_P2_Q3  102
    X_C3_P2   QMIN_P2_Q4  117.8
    X_C3_P2   QMIN_P2_Q5  142.2
    X_C3_P2   QMAX_P2_Q0  86.3
    X_C3_P2   QMAX_P2_Q1  93.2
    X_C3_P2   QMAX_P2_Q2  100.4
    X_C3_P2   QMAX_P2_Q3  102
    X_C3_P2   QMAX_P2_Q4  117.8
    X_C3_P2   QMAX_P2_Q5  142.2
    X_C3_P3   PROFIT    68
    X_C3_P3   BAL_P3    1
    X_C3_P3   AVAIL_C3  1
    X_C3_P3   QMIN_P3_Q0  86.3
    X_C3_P3   QMIN_P3_Q1  93.2
    X_C3_P3   QMIN_P3_Q2  100.4
    X_C3_P3   QMIN_P3_Q3  102
    X_C3_P3   QMIN_P3_Q4  117.8
    X_C3_P3   QMIN_P3_Q5  142.2
    X_C3_P3   QMAX_P3_Q0  86.3
    X_C3_P3   QMAX_P3_Q1  93.2
    X_C3_P3   QMAX_P3_Q2  100.4
    X_C3_P3   QMAX_P3_Q3  102
    X_C3_P3   QMAX_P3_Q4  117.8
    X_C3_P3   QMAX_P3_Q5  142.2
    X_C3_P4   PROFIT    68
    X_C3_P4   BAL_P4    1
    X_C3_P4   AVAIL_C3  1
    X_C3_P4   QMIN_P4_Q0  86.3
    X_C3_P4   QMIN_P4_Q1  93.2
    X_C3_P4   QMIN_P4_Q2  100.4
    X_C3_P4   QMIN_P4_Q3  102
    X_C3_P4   QMIN_P4_Q4  117.8
    X_C3_P4   QMIN_P4_Q5  142.2
    X_C3_P4   QMAX_P4_Q0  86.3
    X_C3_P4   QMAX_P4_Q1  93.2
    X_C3_P4   QMAX_P4_Q2  100.4
    X_C3_P4   QMAX_P4_Q3  102
    X_C3_P4   QMAX_P4_Q4  117.8
    X_C3_P4   QMAX_P4_Q5  142.2
    X_C3_P5   PROFIT    68
    X_C3_P5   BAL_P5    1
    X_C3_P5   AVAIL_C3  1
    X_C3_P5   QMIN_P5_Q0  86.3
    X_C3_P5   QMIN_P5_Q1  93.2
    X_C3_P5   QMIN_P5_Q2  100.4
    X_C3_P5   QMIN_P5_Q3  102
    X_C3_P5   QMIN_P5_Q4  117.8
    X_C3_P5   QMIN_P5_Q5  142.2
    X_C3_P5   QMAX_P5_Q0  86.3
    X_C3_P5   QMAX_P5_Q1  93.2
    X_C3_P5   QMAX_P5_Q2  100.4
    X_C3_P5   QMAX_P5_Q3  102
    X_C3_P5   QMAX_P5_Q4  117.8
    X_C3_P5   QMAX_P5_Q5  142.2
    X_C3_P6   PROFIT    68
    X_C3_P6   BAL_P6    1
    X_C3_P6   AVAIL_C3  1
    X_C3_P6   QMIN_P6_Q0  86.3
    X_C3_P6   QMIN_P6_Q1  93.2
    X_C3_P6   QMIN_P6_Q2  100.4
    X_C3_P6   QMIN_P6_Q3  102
    X_C3_P6   QMIN_P6_Q4  117.8
    X_C3_P6   QMIN_P6_Q5  142.2
    X_C3_P6   QMAX_P6_Q0  86.3
    X_C3_P6   QMAX_P6_Q1  93.2
    X_C3_P6   QMAX_P6_Q2  100.4
    X_C3_P6   QMAX_P6_Q3  102
    X_C3_P6   QMAX_P6_Q4  117.8
    X_C3_P6   QMAX_P6_Q5  142.2
    X_C3_P7   PROFIT    68
    X_C3_P7   BAL_P7    1
    X_C3_P7   AVAIL_C3  1
    X_C3_P7   QMIN_P7_Q0  86.3
    X_C3_P7   QMIN_P7_Q1  93.2
    X_C3_P7   QMIN_P7_Q2  100.4
    X_C3_P7   QMIN_P7_Q3  102
    X_C3_P7   QMIN_P7_Q4  117.8
    X_C3_P7   QMIN_P7_Q5  142.2
    X_C3_P7   QMAX_P7_Q0  86.3
    X_C3_P7   QMAX_P7_Q1  93.2
    X_C3_P7   QMAX_P7_Q2  100.4
    X_C3_P7   QMAX_P7_Q3  102
    X_C3_P7   QMAX_P7_Q4  117.8
    X_C3_P7   QMAX_P7_Q5  142.2
    X_C3_P8   PROFIT    68
    X_C3_P8   BAL_P8    1
    X_C3_P8   AVAIL_C3  1
    X_C3_P8   QMIN_P8_Q0  86.3
    X_C3_P8   QMIN_P8_Q1  93.2
    X_C3_P8   QMIN_P8_Q2  100.4
    X_C3_P8   QMIN_P8_Q3  102
    X_C3_P8   QMIN_P8_Q4  117.8
    X_C3_P8   QMIN_P8_Q5  142.2
    X_C3_P8   QMAX_P8_Q0  86.3
    X_C3_P8   QMAX_P8_Q1  93.2
    X_C3_P8   QMAX_P8_Q2  100.4
    X_C3_P8   QMAX_P8_Q3  102
    X_C3_P8   QMAX_P8_Q4  117.8
    X_C3_P8   QMAX_P8_Q5  142.2
    X_C3_P9   PROFIT    68
    X_C3_P9   BAL_P9    1
    X_C3_P9   AVAIL_C3  1
    X_C3_P9   QMIN_P9_Q0  86.3
    X_C3_P9   QMIN_P9_Q1  93.2
    X_C3_P9   QMIN_P9_Q2  100.4
    X_C3_P9   QMIN_P9_Q3  102
    X_C3_P9   QMIN_P9_Q4  117.8
    X_C3_P9   QMIN_P9_Q5  142.2
    X_C3_P9   QMAX_P9_Q0  86.3
    X_C3_P9   QMAX_P9_Q1  93.2
    X_C3_P9   QMAX_P9_Q2  100.4
    X_C3_P9   QMAX_P9_Q3  102
    X_C3_P9   QMAX_P9_Q4  117.8
    X_C3_P9   QMAX_P9_Q5  142.2
    X_C4_P0   PROFIT    56
    X_C4_P0   BAL_P0    1
    X_C4_P0   AVAIL_C4  1
    X_C4_P0   QMIN_P0_Q0  90.4
    X_C4_P0   QMIN_P0_Q1  83.1
    X_C4_P0   QMIN_P0_Q2  94
    X_C4_P0   QMIN_P0_Q3  110
    X_C4_P0   QMIN_P0_Q4  117.2
    X_C4_P0   QMIN_P0_Q5  131.1
    X_C4_P0   QMAX_P0_Q0  90.4
    X_C4_P0   QMAX_P0_Q1  83.1
    X_C4_P0   QMAX_P0_Q2  94
    X_C4_P0   QMAX_P0_Q3  110
    X_C4_P0   QMAX_P0_Q4  117.2
    X_C4_P0   QMAX_P0_Q5  131.1
    X_C4_P1   PROFIT    56
    X_C4_P1   BAL_P1    1
    X_C4_P1   AVAIL_C4  1
    X_C4_P1   QMIN_P1_Q0  90.4
    X_C4_P1   QMIN_P1_Q1  83.1
    X_C4_P1   QMIN_P1_Q2  94
    X_C4_P1   QMIN_P1_Q3  110
    X_C4_P1   QMIN_P1_Q4  117.2
    X_C4_P1   QMIN_P1_Q5  131.1
    X_C4_P1   QMAX_P1_Q0  90.4
    X_C4_P1   QMAX_P1_Q1  83.1
    X_C4_P1   QMAX_P1_Q2  94
    X_C4_P1   QMAX_P1_Q3  110
    X_C4_P1   QMAX_P1_Q4  117.2
    X_C4_P1   QMAX_P1_Q5  131.1
    X_C4_P2   PROFIT    56
    X_C4_P2   BAL_P2    1
    X_C4_P2   AVAIL_C4  1
    X_C4_P2   QMIN_P2_Q0  90.4
    X_C4_P2   QMIN_P2_Q1  83.1
    X_C4_P2   QMIN_P2_Q2  94
    X_C4_P2   QMIN_P2_Q3  110
    X_C4_P2   QMIN_P2_Q4  117.2
    X_C4_P2   QMIN_P2_Q5  131.1
    X_C4_P2   QMAX_P2_Q0  90.4
    X_C4_P2   QMAX_P2_Q1  83.1
    X_C4_P2   QMAX_P2_Q2  94
    X_C4_P2   QMAX_P2_Q3  110
    X_C4_P2   QMAX_P2_Q4  117.2
    X_C4_P2   QMAX_P2_Q5  131.1
    X_C4_P3   PROFIT    56
    X_C4_P3   BAL_P3    1
    X_C4_P3   AVAIL_C4  1
    X_C4_P3   QMIN_P3_Q0  90.4
    X_C4_P3   QMIN_P3_Q1  83.1
    X_C4_P3   QMIN_P3_Q2  94
    X_C4_P3   QMIN_P3_Q3  110
    X_C4_P3   QMIN_P3_Q4  117.2
    X_C4_P3   QMIN_P3_Q5  131.1
    X_C4_P3   QMAX_P3_Q0  90.4
    X_C4_P3   QMAX_P3_Q1  83.1
    X_C4_P3   QMAX_P3_Q2  94
    X_C4_P3   QMAX_P3_Q3  110
    X_C4_P3   QMAX_P3_Q4  117.2
    X_C4_P3   QMAX_P3_Q5  131.1
    X_C4_P4   PROFIT    56
    X_C4_P4   BAL_P4    1
    X_C4_P4   AVAIL_C4  1
    X_C4_P4   QMIN_P4_Q0  90.4
    X_C4_P4   QMIN_P4_Q1  83.1
    X_C4_P4   QMIN_P4_Q2  94
    X_C4_P4   QMIN_P4_Q3  110
    X_C4_P4   QMIN_P4_Q4  117.2
    X_C4_P4   QMIN_P4_Q5  131.1
    X_C4_P4   QMAX_P4_Q0  90.4
    X_C4_P4   QMAX_P4_Q1  83.1
    X_C4_P4   QMAX_P4_Q2  94
    X_C4_P4   QMAX_P4_Q3  110
    X_C4_P4   QMAX_P4_Q4  117.2
    X_C4_P4   QMAX_P4_Q5  131.1
    X_C4_P5   PROFIT    56
    X_C4_P5   BAL_P5    1
    X_C4_P5   AVAIL_C4  1
    X_C4_P5   QMIN_P5_Q0  90.4
    X_C4_P5   QMIN_P5_Q1  83.1
    X_C4_P5   QMIN_P5_Q2  94
    X_C4_P5   QMIN_P5_Q3  110
    X_C4_P5   QMIN_P5_Q4  117.2
    X_C4_P5   QMIN_P5_Q5  131.1
    X_C4_P5   QMAX_P5_Q0  90.4
    X_C4_P5   QMAX_P5_Q1  83.1
    X_C4_P5   QMAX_P5_Q2  94
    X_C4_P5   QMAX_P5_Q3  110
    X_C4_P5   QMAX_P5_Q4  117.2
    X_C4_P5   QMAX_P5_Q5  131.1
    X_C4_P6   PROFIT    56
    X_C4_P6   BAL_P6    1
    X_C4_P6   AVAIL_C4  1
    X_C4_P6   QMIN_P6_Q0  90.4
    X_C4_P6   QMIN_P6_Q1  83.1
    X_C4_P6   QMIN_P6_Q2  94
    X_C4_P6   QMIN_P6_Q3  110
    X_C4_P6   QMIN_P6_Q4  117.2
    X_C4_P6   QMIN_P6_Q5  131.1
    X_C4_P6   QMAX_P6_Q0  90.4
    X_C4_P6   QMAX_P6_Q1  83.1
    X_C4_P6   QMAX_P6_Q2  94
    X_C4_P6   QMAX_P6_Q3  110
    X_C4_P6   QMAX_P6_Q4  117.2
    X_C4_P6   QMAX_P6_Q5  131.1
    X_C4_P7   PROFIT    56
    X_C4_P7   BAL_P7    1
    X_C4_P7   AVAIL_C4  1
    X_C4_P7   QMIN_P7_Q0  90.4
    X_C4_P7   QMIN_P7_Q1  83.1
    X_C4_P7   QMIN_P7_Q2  94
    X_C4_P7   QMIN_P7_Q3  110
    X_C4_P7   QMIN_P7_Q4  117.2
    X_C4_P7   QMIN_P7_Q5  131.1
    X_C4_P7   QMAX_P7_Q0  90.4
    X_C4_P7   QMAX_P7_Q1  83.1
    X_C4_P7   QMAX_P7_Q2  94
    X_C4_P7   QMAX_P7_Q3  110
    X_C4_P7   QMAX_P7_Q4  117.2
    X_C4_P7   QMAX_P7_Q5  131.1
    X_C4_P8   PROFIT    56
    X_C4_P8   BAL_P8    1
    X_C4_P8   AVAIL_C4  1
    X_C4_P8   QMIN_P8_Q0  90.4
    X_C4_P8   QMIN_P8_Q1  83.1
    X_C4_P8   QMIN_P8_Q2  94
    X_C4_P8   QMIN_P8_Q3  110
    X_C4_P8   QMIN_P8_Q4  117.2
    X_C4_P8   QMIN_P8_Q5  131.1
    X_C4_P8   QMAX_P8_Q0  90.4
    X_C4_P8   QMAX_P8_Q1  83.1
    X_C4_P8   QMAX_P8_Q2  94
    X_C4_P8   QMAX_P8_Q3  110
    X_C4_P8   QMAX_P8_Q4  117.2
    X_C4_P8   QMAX_P8_Q5  131.1
    X_C4_P9   PROFIT    56
    X_C4_P9   BAL_P9    1
    X_C4_P9   AVAIL_C4  1
    X_C4_P9   QMIN_P9_Q0  90.4
    X_C4_P9   QMIN_P9_Q1  83.1
    X_C4_P9   QMIN_P9_Q2  94
    X_C4_P9   QMIN_P9_Q3  110
    X_C4_P9   QMIN_P9_Q4  117.2
    X_C4_P9   QMIN_P9_Q5  131.1
    X_C4_P9   QMAX_P9_Q0  90.4
    X_C4_P9   QMAX_P9_Q1  83.1
    X_C4_P9   QMAX_P9_Q2  94
    X_C4_P9   QMAX_P9_Q3  110
    X_C4_P9   QMAX_P9_Q4  117.2
    X_C4_P9   QMAX_P9_Q5  131.1
    X_C5_P0   PROFIT    45.5
    X_C5_P0   BAL_P0    1
    X_C5_P0   AVAIL_C5  1
    X_C5_P0   QMIN_P0_Q0  89.7
    X_C5_P0   QMIN_P0_Q1  99.7
    X_C5_P0   QMIN_P0_Q2  111.3
    X_C5_P0   QMIN_P0_Q3  109
    X_C5_P0   QMIN_P0_Q4  121.3
    X_C5_P0   QMIN_P0_Q5  122.6
    X_C5_P0   QMAX_P0_Q0  89.7
    X_C5_P0   QMAX_P0_Q1  99.7
    X_C5_P0   QMAX_P0_Q2  111.3
    X_C5_P0   QMAX_P0_Q3  109
    X_C5_P0   QMAX_P0_Q4  121.3
    X_C5_P0   QMAX_P0_Q5  122.6
    X_C5_P1   PROFIT    45.5
    X_C5_P1   BAL_P1    1
    X_C5_P1   AVAIL_C5  1
    X_C5_P1   QMIN_P1_Q0  89.7
    X_C5_P1   QMIN_P1_Q1  99.7
    X_C5_P1   QMIN_P1_Q2  111.3
    X_C5_P1   QMIN_P1_Q3  109
    X_C5_P1   QMIN_P1_Q4  121.3
    X_C5_P1   QMIN_P1_Q5  122.6
    X_C5_P1   QMAX_P1_Q0  89.7
    X_C5_P1   QMAX_P1_Q1  99.7
    X_C5_P1   QMAX_P1_Q2  111.3
    X_C5_P1   QMAX_P1_Q3  109
    X_C5_P1   QMAX_P1_Q4  121.3
    X_C5_P1   QMAX_P1_Q5  122.6
    X_C5_P2   PROFIT    45.5
    X_C5_P2   BAL_P2    1
    X_C5_P2   AVAIL_C5  1
    X_C5_P2   QMIN_P2_Q0  89.7
    X_C5_P2   QMIN_P2_Q1  99.7
    X_C5_P2   QMIN_P2_Q2  111.3
    X_C5_P2   QMIN_P2_Q3  109
    X_C5_P2   QMIN_P2_Q4  121.3
    X_C5_P2   QMIN_P2_Q5  122.6
    X_C5_P2   QMAX_P2_Q0  89.7
    X_C5_P2   QMAX_P2_Q1  99.7
    X_C5_P2   QMAX_P2_Q2  111.3
    X_C5_P2   QMAX_P2_Q3  109
    X_C5_P2   QMAX_P2_Q4  121.3
    X_C5_P2   QMAX_P2_Q5  122.6
    X_C5_P3   PROFIT    45.5
    X_C5_P3   BAL_P3    1
    X_C5_P3   AVAIL_C5  1
    X_C5_P3   QMIN_P3_Q0  89.7
    X_C5_P3   QMIN_P3_Q1  99.7
    X_C5_P3   QMIN_P3_Q2  111.3
    X_C5_P3   QMIN_P3_Q3  109
    X_C5_P3   QMIN_P3_Q4  121.3
    X_C5_P3   QMIN_P3_Q5  122.6
    X_C5_P3   QMAX_P3_Q0  89.7
    X_C5_P3   QMAX_P3_Q1  99.7
    X_C5_P3   QMAX_P3_Q2  111.3
    X_C5_P3   QMAX_P3_Q3  109
    X_C5_P3   QMAX_P3_Q4  121.3
    X_C5_P3   QMAX_P3_Q5  122.6
    X_C5_P4   PROFIT    45.5
    X_C5_P4   BAL_P4    1
    X_C5_P4   AVAIL_C5  1
    X_C5_P4   QMIN_P4_Q0  89.7
    X_C5_P4   QMIN_P4_Q1  99.7
    X_C5_P4   QMIN_P4_Q2  111.3
    X_C5_P4   QMIN_P4_Q3  109
    X_C5_P4   QMIN_P4_Q4  121.3
    X_C5_P4   QMIN_P4_Q5  122.6
    X_C5_P4   QMAX_P4_Q0  89.7
    X_C5_P4   QMAX_P4_Q1  99.7
    X_C5_P4   QMAX_P4_Q2  111.3
    X_C5_P4   QMAX_P4_Q3  109
    X_C5_P4   QMAX_P4_Q4  121.3
    X_C5_P4   QMAX_P4_Q5  122.6
    X_C5_P5   PROFIT    45.5
    X_C5_P5   BAL_P5    1
    X_C5_P5   AVAIL_C5  1
    X_C5_P5   QMIN_P5_Q0  89.7
    X_C5_P5   QMIN_P5_Q1  99.7
    X_C5_P5   QMIN_P5_Q2  111.3
    X_C5_P5   QMIN_P5_Q3  109
    X_C5_P5   QMIN_P5_Q4  121.3
    X_C5_P5   QMIN_P5_Q5  122.6
    X_C5_P5   QMAX_P5_Q0  89.7
    X_C5_P5   QMAX_P5_Q1  99.7
    X_C5_P5   QMAX_P5_Q2  111.3
    X_C5_P5   QMAX_P5_Q3  109
    X_C5_P5   QMAX_P5_Q4  121.3
    X_C5_P5   QMAX_P5_Q5  122.6
    X_C5_P6   PROFIT    45.5
    X_C5_P6   BAL_P6    1
    X_C5_P6   AVAIL_C5  1
    X_C5_P6   QMIN_P6_Q0  89.7
    X_C5_P6   QMIN_P6_Q1  99.7
    X_C5_P6   QMIN_P6_Q2  111.3
    X_C5_P6   QMIN_P6_Q3  109
    X_C5_P6   QMIN_P6_Q4  121.3
    X_C5_P6   QMIN_P6_Q5  122.6
    X_C5_P6   QMAX_P6_Q0  89.7
    X_C5_P6   QMAX_P6_Q1  99.7
    X_C5_P6   QMAX_P6_Q2  111.3
    X_C5_P6   QMAX_P6_Q3  109
    X_C5_P6   QMAX_P6_Q4  121.3
    X_C5_P6   QMAX_P6_Q5  122.6
    X_C5_P7   PROFIT    45.5
    X_C5_P7   BAL_P7    1
    X_C5_P7   AVAIL_C5  1
    X_C5_P7   QMIN_P7_Q0  89.7
    X_C5_P7   QMIN_P7_Q1  99.7
    X_C5_P7   QMIN_P7_Q2  111.3
    X_C5_P7   QMIN_P7_Q3  109
    X_C5_P7   QMIN_P7_Q4  121.3
    X_C5_P7   QMIN_P7_Q5  122.6
    X_C5_P7   QMAX_P7_Q0  89.7
    X_C5_P7   QMAX_P7_Q1  99.7
    X_C5_P7   QMAX_P7_Q2  111.3
    X_C5_P7   QMAX_P7_Q3  109
    X_C5_P7   QMAX_P7_Q4  121.3
    X_C5_P7   QMAX_P7_Q5  122.6
    X_C5_P8   PROFIT    45.5
    X_C5_P8   BAL_P8    1
    X_C5_P8   AVAIL_C5  1
    X_C5_P8   QMIN_P8_Q0  89.7
    X_C5_P8   QMIN_P8_Q1  99.7
    X_C5_P8   QMIN_P8_Q2  111.3
    X_C5_P8   QMIN_P8_Q3  109
    X_C5_P8   QMIN_P8_Q4  121.3
    X_C5_P8   QMIN_P8_Q5  122.6
    X_C5_P8   QMAX_P8_Q0  89.7
    X_C5_P8   QMAX_P8_Q1  99.7
    X_C5_P8   QMAX_P8_Q2  111.3
    X_C5_P8   QMAX_P8_Q3  109
    X_C5_P8   QMAX_P8_Q4  121.3
    X_C5_P8   QMAX_P8_Q5  122.6
    X_C5_P9   PROFIT    45.5
    X_C5_P9   BAL_P9    1
    X_C5_P9   AVAIL_C5  1
    X_C5_P9   QMIN_P9_Q0  89.7
    X_C5_P9   QMIN_P9_Q1  99.7
    X_C5_P9   QMIN_P9_Q2  111.3
    X_C5_P9   QMIN_P9_Q3  109
    X_C5_P9   QMIN_P9_Q4  121.3
    X_C5_P9   QMIN_P9_Q5  122.6
    X_C5_P9   QMAX_P9_Q0  89.7
    X_C5_P9   QMAX_P9_Q1  99.7
    X_C5_P9   QMAX_P9_Q2  111.3
    X_C5_P9   QMAX_P9_Q3  109
    X_C5_P9   QMAX_P9_Q4  121.3
    X_C5_P9   QMAX_P9_Q5  122.6
    X_C6_P0   PROFIT    72.4
    X_C6_P0   BAL_P0    1
    X_C6_P0   AVAIL_C6  1
    X_C6_P0   QMIN_P0_Q0  86.3
    X_C6_P0   QMIN_P0_Q1  85.9
    X_C6_P0   QMIN_P0_Q2  102.1
    X_C6_P0   QMIN_P0_Q3  112.9
    X_C6_P0   QMIN_P0_Q4  126
    X_C6_P0   QMIN_P0_Q5  124.1
    X_C6_P0   QMAX_P0_Q0  86.3
    X_C6_P0   QMAX_P0_Q1  85.9
    X_C6_P0   QMAX_P0_Q2  102.1
    X_C6_P0   QMAX_P0_Q3  112.9
    X_C6_P0   QMAX_P0_Q4  126
    X_C6_P0   QMAX_P0_Q5  124.1
    X_C6_P1   PROFIT    72.4
    X_C6_P1   BAL_P1    1
    X_C6_P1   AVAIL_C6  1
    X_C6_P1   QMIN_P1_Q0  86.3
    X_C6_P1   QMIN_P1_Q1  85.9
    X_C6_P1   QMIN_P1_Q2  102.1
    X_C6_P1   QMIN_P1_Q3  112.9
    X_C6_P1   QMIN_P1_Q4  126
    X_C6_P1   QMIN_P1_Q5  124.1
    X_C6_P1   QMAX_P1_Q0  86.3
    X_C6_P1   QMAX_P1_Q1  85.9
    X_C6_P1   QMAX_P1_Q2  102.1
    X_C6_P1   QMAX_P1_Q3  112.9
    X_C6_P1   QMAX_P1_Q4  126
    X_C6_P1   QMAX_P1_Q5  124.1
    X_C6_P2   PROFIT    72.4
    X_C6_P2   BAL_P2    1
    X_C6_P2   AVAIL_C6  1
    X_C6_P2   QMIN_P2_Q0  86.3
    X_C6_P2   QMIN_P2_Q1  85.9
    X_C6_P2   QMIN_P2_Q2  102.1
    X_C6_P2   QMIN_P2_Q3  112.9
    X_C6_P2   QMIN_P2_Q4  126
    X_C6_P2   QMIN_P2_Q5  124.1
    X_C6_P2   QMAX_P2_Q0  86.3
    X_C6_P2   QMAX_P2_Q1  85.9
    X_C6_P2   QMAX_P2_Q2  102.1
    X_C6_P2   QMAX_P2_Q3  112.9
    X_C6_P2   QMAX_P2_Q4  126
    X_C6_P2   QMAX_P2_Q5  124.1
    X_C6_P3   PROFIT    72.4
    X_C6_P3   BAL_P3    1
    X_C6_P3   AVAIL_C6  1
    X_C6_P3   QMIN_P3_Q0  86.3
    X_C6_P3   QMIN_P3_Q1  85.9
    X_C6_P3   QMIN_P3_Q2  102.1
    X_C6_P3   QMIN_P3_Q3  112.9
    X_C6_P3   QMIN_P3_Q4  126
    X_C6_P3   QMIN_P3_Q5  124.1
    X_C6_P3   QMAX_P3_Q0  86.3
    X_C6_P3   QMAX_P3_Q1  85.9
    X_C6_P3   QMAX_P3_Q2  102.1
    X_C6_P3   QMAX_P3_Q3  112.9
    X_C6_P3   QMAX_P3_Q4  126
    X_C6_P3   QMAX_P3_Q5  124.1
    X_C6_P4   PROFIT    72.4
    X_C6_P4   BAL_P4    1
    X_C6_P4   AVAIL_C6  1
    X_C6_P4   QMIN_P4_Q0  86.3
    X_C6_P4   QMIN_P4_Q1  85.9
    X_C6_P4   QMIN_P4_Q2  102.1
    X_C6_P4   QMIN_P4_Q3  112.9
    X_C6_P4   QMIN_P4_Q4  126
    X_C6_P4   QMIN_P4_Q5  124.1
    X_C6_P4   QMAX_P4_Q0  86.3
    X_C6_P4   QMAX_P4_Q1  85.9
    X_C6_P4   QMAX_P4_Q2  102.1
    X_C6_P4   QMAX_P4_Q3  112.9
    X_C6_P4   QMAX_P4_Q4  126
    X_C6_P4   QMAX_P4_Q5  124.1
    X_C6_P5   PROFIT    72.4
    X_C6_P5   BAL_P5    1
    X_C6_P5   AVAIL_C6  1
    X_C6_P5   QMIN_P5_Q0  86.3
    X_C6_P5   QMIN_P5_Q1  85.9
    X_C6_P5   QMIN_P5_Q2  102.1
    X_C6_P5   QMIN_P5_Q3  112.9
    X_C6_P5   QMIN_P5_Q4  126
    X_C6_P5   QMIN_P5_Q5  124.1
    X_C6_P5   QMAX_P5_Q0  86.3
    X_C6_P5   QMAX_P5_Q1  85.9
    X_C6_P5   QMAX_P5_Q2  102.1
    X_C6_P5   QMAX_P5_Q3  112.9
    X_C6_P5   QMAX_P5_Q4  126
    X_C6_P5   QMAX_P5_Q5  124.1
    X_C6_P6   PROFIT    72.4
    X_C6_P6   BAL_P6    1
    X_C6_P6   AVAIL_C6  1
    X_C6_P6   QMIN_P6_Q0  86.3
    X_C6_P6   QMIN_P6_Q1  85.9
    X_C6_P6   QMIN_P6_Q2  102.1
    X_C6_P6   QMIN_P6_Q3  112.9
    X_C6_P6   QMIN_P6_Q4  126
    X_C6_P6   QMIN_P6_Q5  124.1
    X_C6_P6   QMAX_P6_Q0  86.3
    X_C6_P6   QMAX_P6_Q1  85.9
    X_C6_P6   QMAX_P6_Q2  102.1
    X_C6_P6   QMAX_P6_Q3  112.9
    X_C6_P6   QMAX_P6_Q4  126
    X_C6_P6   QMAX_P6_Q5  124.1
    X_C6_P7   PROFIT    72.4
    X_C6_P7   BAL_P7    1
    X_C6_P7   AVAIL_C6  1
    X_C6_P7   QMIN_P7_Q0  86.3
    X_C6_P7   QMIN_P7_Q1  85.9
    X_C6_P7   QMIN_P7_Q2  102.1
    X_C6_P7   QMIN_P7_Q3  112.9
    X_C6_P7   QMIN_P7_Q4  126
    X_C6_P7   QMIN_P7_Q5  124.1
    X_C6_P7   QMAX_P7_Q0  86.3
    X_C6_P7   QMAX_P7_Q1  85.9
    X_C6_P7   QMAX_P7_Q2  102.1
    X_C6_P7   QMAX_P7_Q3  112.9
    X_C6_P7   QMAX_P7_Q4  126
    X_C6_P7   QMAX_P7_Q5  124.1
    X_C6_P8   PROFIT    72.4
    X_C6_P8   BAL_P8    1
    X_C6_P8   AVAIL_C6  1
    X_C6_P8   QMIN_P8_Q0  86.3
    X_C6_P8   QMIN_P8_Q1  85.9
    X_C6_P8   QMIN_P8_Q2  102.1
    X_C6_P8   QMIN_P8_Q3  112.9
    X_C6_P8   QMIN_P8_Q4  126
    X_C6_P8   QMIN_P8_Q5  124.1
    X_C6_P8   QMAX_P8_Q0  86.3
    X_C6_P8   QMAX_P8_Q1  85.9
    X_C6_P8   QMAX_P8_Q2  102.1
    X_C6_P8   QMAX_P8_Q3  112.9
    X_C6_P8   QMAX_P8_Q4  126
    X_C6_P8   QMAX_P8_Q5  124.1
    X_C6_P9   PROFIT    72.4
    X_C6_P9   BAL_P9    1
    X_C6_P9   AVAIL_C6  1
    X_C6_P9   QMIN_P9_Q0  86.3
    X_C6_P9   QMIN_P9_Q1  85.9
    X_C6_P9   QMIN_P9_Q2  102.1
    X_C6_P9   QMIN_P9_Q3  112.9
    X_C6_P9   QMIN_P9_Q4  126
    X_C6_P9   QMIN_P9_Q5  124.1
    X_C6_P9   QMAX_P9_Q0  86.3
    X_C6_P9   QMAX_P9_Q1  85.9
    X_C6_P9   QMAX_P9_Q2  102.1
    X_C6_P9   QMAX_P9_Q3  112.9
    X_C6_P9   QMAX_P9_Q4  126
    X_C6_P9   QMAX_P9_Q5  124.1
    X_C7_P0   PROFIT    78.1
    X_C7_P0   BAL_P0    1
    X_C7_P0   AVAIL_C7  1
    X_C7_P0   QMIN_P0_Q0  89.8
    X_C7_P0   QMIN_P0_Q1  82.3
    X_C7_P0   QMIN_P0_Q2  97.3
    X_C7_P0   QMIN_P0_Q3  116.8
    X_C7_P0   QMIN_P0_Q4  111.6
    X_C7_P0   QMIN_P0_Q5  142.8
    X_C7_P0   QMAX_P0_Q0  89.8
    X_C7_P0   QMAX_P0_Q1  82.3
    X_C7_P0   QMAX_P0_Q2  97.3
    X_C7_P0   QMAX_P0_Q3  116.8
    X_C7_P0   QMAX_P0_Q4  111.6
    X_C7_P0   QMAX_P0_Q5  142.8
    X_C7_P1   PROFIT    78.1
    X_C7_P1   BAL_P1    1
    X_C7_P1   AVAIL_C7  1
    X_C7_P1   QMIN_P1_Q0  89.8
    X_C7_P1   QMIN_P1_Q1  82.3
    X_C7_P1   QMIN_P1_Q2  97.3
    X_C7_P1   QMIN_P1_Q3  116.8
    X_C7_P1   QMIN_P1_Q4  111.6
    X_C7_P1   QMIN_P1_Q5  142.8
    X_C7_P1   QMAX_P1_Q0  89.8
    X_C7_P1   QMAX_P1_Q1  82.3
    X_C7_P1   QMAX_P1_Q2  97.3
    X_C7_P1   QMAX_P1_Q3  116.8
    X_C7_P1   QMAX_P1_Q4  111.6
    X_C7_P1   QMAX_P1_Q5  142.8
    X_C7_P2   PROFIT    78.1
    X_C7_P2   BAL_P2    1
    X_C7_P2   AVAIL_C7  1
    X_C7_P2   QMIN_P2_Q0  89.8
    X_C7_P2   QMIN_P2_Q1  82.3
    X_C7_P2   QMIN_P2_Q2  97.3
    X_C7_P2   QMIN_P2_Q3  116.8
    X_C7_P2   QMIN_P2_Q4  111.6
    X_C7_P2   QMIN_P2_Q5  142.8
    X_C7_P2   QMAX_P2_Q0  89.8
    X_C7_P2   QMAX_P2_Q1  82.3
    X_C7_P2   QMAX_P2_Q2  97.3
    X_C7_P2   QMAX_P2_Q3  116.8
    X_C7_P2   QMAX_P2_Q4  111.6
    X_C7_P2   QMAX_P2_Q5  142.8
    X_C7_P3   PROFIT    78.1
    X_C7_P3   BAL_P3    1
    X_C7_P3   AVAIL_C7  1
    X_C7_P3   QMIN_P3_Q0  89.8
    X_C7_P3   QMIN_P3_Q1  82.3
    X_C7_P3   QMIN_P3_Q2  97.3
    X_C7_P3   QMIN_P3_Q3  116.8
    X_C7_P3   QMIN_P3_Q4  111.6
    X_C7_P3   QMIN_P3_Q5  142.8
    X_C7_P3   QMAX_P3_Q0  89.8
    X_C7_P3   QMAX_P3_Q1  82.3
    X_C7_P3   QMAX_P3_Q2  97.3
    X_C7_P3   QMAX_P3_Q3  116.8
    X_C7_P3   QMAX_P3_Q4  111.6
    X_C7_P3   QMAX_P3_Q5  142.8
    X_C7_P4   PROFIT    78.1
    X_C7_P4   BAL_P4    1
    X_C7_P4   AVAIL_C7  1
    X_C7_P4   QMIN_P4_Q0  89.8
    X_C7_P4   QMIN_P4_Q1  82.3
    X_C7_P4   QMIN_P4_Q2  97.3
    X_C7_P4   QMIN_P4_Q3  116.8
    X_C7_P4   QMIN_P4_Q4  111.6
    X_C7_P4   QMIN_P4_Q5  142.8
    X_C7_P4   QMAX_P4_Q0  89.8
    X_C7_P4   QMAX_P4_Q1  82.3
    X_C7_P4   QMAX_P4_Q2  97.3
    X_C7_P4   QMAX_P4_Q3  116.8
    X_C7_P4   QMAX_P4_Q4  111.6
    X_C7_P4   QMAX_P4_Q5  142.8
    X_C7_P5   PROFIT    78.1
    X_C7_P5   BAL_P5    1
    X_C7_P5   AVAIL_C7  1
    X_C7_P5   QMIN_P5_Q0  89.8
    X_C7_P5   QMIN_P5_Q1  82.3
    X_C7_P5   QMIN_P5_Q2  97.3
    X_C7_P5   QMIN_P5_Q3  116.8
    X_C7_P5   QMIN_P5_Q4  111.6
    X_C7_P5   QMIN_P5_Q5  142.8
    X_C7_P5   QMAX_P5_Q0  89.8
    X_C7_P5   QMAX_P5_Q1  82.3
    X_C7_P5   QMAX_P5_Q2  97.3
    X_C7_P5   QMAX_P5_Q3  116.8
    X_C7_P5   QMAX_P5_Q4  111.6
    X_C7_P5   QMAX_P5_Q5  142.8
    X_C7_P6   PROFIT    78.1
    X_C7_P6   BAL_P6    1
    X_C7_P6   AVAIL_C7  1
    X_C7_P6   QMIN_P6_Q0  89.8
    X_C7_P6   QMIN_P6_Q1  82.3
    X_C7_P6   QMIN_P6_Q2  97.3
    X_C7_P6   QMIN_P6_Q3  116.8
    X_C7_P6   QMIN_P6_Q4  111.6
    X_C7_P6   QMIN_P6_Q5  142.8
    X_C7_P6   QMAX_P6_Q0  89.8
    X_C7_P6   QMAX_P6_Q1  82.3
    X_C7_P6   QMAX_P6_Q2  97.3
    X_C7_P6   QMAX_P6_Q3  116.8
    X_C7_P6   QMAX_P6_Q4  111.6
    X_C7_P6   QMAX_P6_Q5  142.8
    X_C7_P7   PROFIT    78.1
    X_C7_P7   BAL_P7    1
    X_C7_P7   AVAIL_C7  1
    X_C7_P7   QMIN_P7_Q0  89.8
    X_C7_P7   QMIN_P7_Q1  82.3
    X_C7_P7   QMIN_P7_Q2  97.3
    X_C7_P7   QMIN_P7_Q3  116.8
    X_C7_P7   QMIN_P7_Q4  111.6
    X_C7_P7   QMIN_P7_Q5  142.8
    X_C7_P7   QMAX_P7_Q0  89.8
    X_C7_P7   QMAX_P7_Q1  82.3
    X_C7_P7   QMAX_P7_Q2  97.3
    X_C7_P7   QMAX_P7_Q3  116.8
    X_C7_P7   QMAX_P7_Q4  111.6
    X_C7_P7   QMAX_P7_Q5  142.8
    X_C7_P8   PROFIT    78.1
    X_C7_P8   BAL_P8    1
    X_C7_P8   AVAIL_C7  1
    X_C7_P8   QMIN_P8_Q0  89.8
    X_C7_P8   QMIN_P8_Q1  82.3
    X_C7_P8   QMIN_P8_Q2  97.3
    X_C7_P8   QMIN_P8_Q3  116.8
    X_C7_P8   QMIN_P8_Q4  111.6
    X_C7_P8   QMIN_P8_Q5  142.8
    X_C7_P8   QMAX_P8_Q0  89.8
    X_C7_P8   QMAX_P8_Q1  82.3
    X_C7_P8   QMAX_P8_Q2  97.3
    X_C7_P8   QMAX_P8_Q3  116.8
    X_C7_P8   QMAX_P8_Q4  111.6
    X_C7_P8   QMAX_P8_Q5  142.8
    X_C7_P9   PROFIT    78.1
    X_C7_P9   BAL_P9    1
    X_C7_P9   AVAIL_C7  1
    X_C7_P9   QMIN_P9_Q0  89.8
    X_C7_P9   QMIN_P9_Q1  82.3
    X_C7_P9   QMIN_P9_Q2  97.3
    X_C7_P9   QMIN_P9_Q3  116.8
    X_C7_P9   QMIN_P9_Q4  111.6
    X_C7_P9   QMIN_P9_Q5  142.8
    X_C7_P9   QMAX_P9_Q0  89.8
    X_C7_P9   QMAX_P9_Q1  82.3
    X_C7_P9   QMAX_P9_Q2  97.3
    X_C7_P9   QMAX_P9_Q3  116.8
    X_C7_P9   QMAX_P9_Q4  111.6
    X_C7_P9   QMAX_P9_Q5  142.8
    X_C8_P0   PROFIT    75.1
    X_C8_P0   BAL_P0    1
    X_C8_P0   AVAIL_C8  1
    X_C8_P0   QMIN_P0_Q0  80.1
    X_C8_P0   QMIN_P0_Q1  102.2
    X_C8_P0   QMIN_P0_Q2  110.5
    X_C8_P0   QMIN_P0_Q3  118
    X_C8_P0   QMIN_P0_Q4  122.8
    X_C8_P0   QMIN_P0_Q5  131.4
    X_C8_P0   QMAX_P0_Q0  80.1
    X_C8_P0   QMAX_P0_Q1  102.2
    X_C8_P0   QMAX_P0_Q2  110.5
    X_C8_P0   QMAX_P0_Q3  118
    X_C8_P0   QMAX_P0_Q4  122.8
    X_C8_P0   QMAX_P0_Q5  131.4
    X_C8_P1   PROFIT    75.1
    X_C8_P1   BAL_P1    1
    X_C8_P1   AVAIL_C8  1
    X_C8_P1   QMIN_P1_Q0  80.1
    X_C8_P1   QMIN_P1_Q1  102.2
    X_C8_P1   QMIN_P1_Q2  110.5
    X_C8_P1   QMIN_P1_Q3  118
    X_C8_P1   QMIN_P1_Q4  122.8
    X_C8_P1   QMIN_P1_Q5  131.4
    X_C8_P1   QMAX_P1_Q0  80.1
    X_C8_P1   QMAX_P1_Q1  102.2
    X_C8_P1   QMAX_P1_Q2  110.5
    X_C8_P1   QMAX_P1_Q3  118
    X_C8_P1   QMAX_P1_Q4  122.8
    X_C8_P1   QMAX_P1_Q5  131.4
    X_C8_P2   PROFIT    75.1
    X_C8_P2   BAL_P2    1
    X_C8_P2   AVAIL_C8  1
    X_C8_P2   QMIN_P2_Q0  80.1
    X_C8_P2   QMIN_P2_Q1  102.2
    X_C8_P2   QMIN_P2_Q2  110.5
    X_C8_P2   QMIN_P2_Q3  118
    X_C8_P2   QMIN_P2_Q4  122.8
    X_C8_P2   QMIN_P2_Q5  131.4
    X_C8_P2   QMAX_P2_Q0  80.1
    X_C8_P2   QMAX_P2_Q1  102.2
    X_C8_P2   QMAX_P2_Q2  110.5
    X_C8_P2   QMAX_P2_Q3  118
    X_C8_P2   QMAX_P2_Q4  122.8
    X_C8_P2   QMAX_P2_Q5  131.4
    X_C8_P3   PROFIT    75.1
    X_C8_P3   BAL_P3    1
    X_C8_P3   AVAIL_C8  1
    X_C8_P3   QMIN_P3_Q0  80.1
    X_C8_P3   QMIN_P3_Q1  102.2
    X_C8_P3   QMIN_P3_Q2  110.5
    X_C8_P3   QMIN_P3_Q3  118
    X_C8_P3   QMIN_P3_Q4  122.8
    X_C8_P3   QMIN_P3_Q5  131.4
    X_C8_P3   QMAX_P3_Q0  80.1
    X_C8_P3   QMAX_P3_Q1  102.2
    X_C8_P3   QMAX_P3_Q2  110.5
    X_C8_P3   QMAX_P3_Q3  118
    X_C8_P3   QMAX_P3_Q4  122.8
    X_C8_P3   QMAX_P3_Q5  131.4
    X_C8_P4   PROFIT    75.1
    X_C8_P4   BAL_P4    1
    X_C8_P4   AVAIL_C8  1
    X_C8_P4   QMIN_P4_Q0  80.1
    X_C8_P4   QMIN_P4_Q1  102.2
    X_C8_P4   QMIN_P4_Q2  110.5
    X_C8_P4   QMIN_P4_Q3  118
    X_C8_P4   QMIN_P4_Q4  122.8
    X_C8_P4   QMIN_P4_Q5  131.4
    X_C8_P4   QMAX_P4_Q0  80.1
    X_C8_P4   QMAX_P4_Q1  102.2
    X_C8_P4   QMAX_P4_Q2  110.5
    X_C8_P4   QMAX_P4_Q3  118
    X_C8_P4   QMAX_P4_Q4  122.8
    X_C8_P4   QMAX_P4_Q5  131.4
    X_C8_P5   PROFIT    75.1
    X_C8_P5   BAL_P5    1
    X_C8_P5   AVAIL_C8  1
    X_C8_P5   QMIN_P5_Q0  80.1
    X_C8_P5   QMIN_P5_Q1  102.2
    X_C8_P5   QMIN_P5_Q2  110.5
    X_C8_P5   QMIN_P5_Q3  118
    X_C8_P5   QMIN_P5_Q4  122.8
    X_C8_P5   QMIN_P5_Q5  131.4
    X_C8_P5   QMAX_P5_Q0  80.1
    X_C8_P5   QMAX_P5_Q1  102.2
    X_C8_P5   QMAX_P5_Q2  110.5
    X_C8_P5   QMAX_P5_Q3  118
    X_C8_P5   QMAX_P5_Q4  122.8
    X_C8_P5   QMAX_P5_Q5  131.4
    X_C8_P6   PROFIT    75.1
    X_C8_P6   BAL_P6    1
    X_C8_P6   AVAIL_C8  1
    X_C8_P6   QMIN_P6_Q0  80.1
    X_C8_P6   QMIN_P6_Q1  102.2
    X_C8_P6   QMIN_P6_Q2  110.5
    X_C8_P6   QMIN_P6_Q3  118
    X_C8_P6   QMIN_P6_Q4  122.8
    X_C8_P6   QMIN_P6_Q5  131.4
    X_C8_P6   QMAX_P6_Q0  80.1
    X_C8_P6   QMAX_P6_Q1  102.2
    X_C8_P6   QMAX_P6_Q2  110.5
    X_C8_P6   QMAX_P6_Q3  118
    X_C8_P6   QMAX_P6_Q4  122.8
    X_C8_P6   QMAX_P6_Q5  131.4
    X_C8_P7   PROFIT    75.1
    X_C8_P7   BAL_P7    1
    X_C8_P7   AVAIL_C8  1
    X_C8_P7   QMIN_P7_Q0  80.1
    X_C8_P7   QMIN_P7_Q1  102.2
    X_C8_P7   QMIN_P7_Q2  110.5
    X_C8_P7   QMIN_P7_Q3  118
    X_C8_P7   QMIN_P7_Q4  122.8
    X_C8_P7   QMIN_P7_Q5  131.4
    X_C8_P7   QMAX_P7_Q0  80.1
    X_C8_P7   QMAX_P7_Q1  102.2
    X_C8_P7   QMAX_P7_Q2  110.5
    X_C8_P7   QMAX_P7_Q3  118
    X_C8_P7   QMAX_P7_Q4  122.8
    X_C8_P7   QMAX_P7_Q5  131.4
    X_C8_P8   PROFIT    75.1
    X_C8_P8   BAL_P8    1
    X_C8_P8   AVAIL_C8  1
    X_C8_P8   QMIN_P8_Q0  80.1
    X_C8_P8   QMIN_P8_Q1  102.2
    X_C8_P8   QMIN_P8_Q2  110.5
    X_C8_P8   QMIN_P8_Q3  118
    X_C8_P8   QMIN_P8_Q4  122.8
    X_C8_P8   QMIN_P8_Q5  131.4
    X_C8_P8   QMAX_P8_Q0  80.1
    X_C8_P8   QMAX_P8_Q1  102.2
    X_C8_P8   QMAX_P8_Q2  110.5
    X_C8_P8   QMAX_P8_Q3  118
    X_C8_P8   QMAX_P8_Q4  122.8
    X_C8_P8   QMAX_P8_Q5  131.4
    X_C8_P9   PROFIT    75.1
    X_C8_P9   BAL_P9    1
    X_C8_P9   AVAIL_C8  1
    X_C8_P9   QMIN_P9_Q0  80.1
    X_C8_P9   QMIN_P9_Q1  102.2
    X_C8_P9   QMIN_P9_Q2  110.5
    X_C8_P9   QMIN_P9_Q3  118
    X_C8_P9   QMIN_P9_Q4  122.8
    X_C8_P9   QMIN_P9_Q5  131.4
    X_C8_P9   QMAX_P9_Q0  80.1
    X_C8_P9   QMAX_P9_Q1  102.2
    X_C8_P9   QMAX_P9_Q2  110.5
    X_C8_P9   QMAX_P9_Q3  118
    X_C8_P9   QMAX_P9_Q4  122.8
    X_C8_P9   QMAX_P9_Q5  131.4
    X_C9_P0   PROFIT    46.9
    X_C9_P0   BAL_P0    1
    X_C9_P0   AVAIL_C9  1
    X_C9_P0   QMIN_P0_Q0  93.4
    X_C9_P0   QMIN_P0_Q1  91.8
    X_C9_P0   QMIN_P0_Q2  100.7
    X_C9_P0   QMIN_P0_Q3  112.5
    X_C9_P0   QMIN_P0_Q4  118.8
    X_C9_P0   QMIN_P0_Q5  140.4
    X_C9_P0   QMAX_P0_Q0  93.4
    X_C9_P0   QMAX_P0_Q1  91.8
    X_C9_P0   QMAX_P0_Q2  100.7
    X_C9_P0   QMAX_P0_Q3  112.5
    X_C9_P0   QMAX_P0_Q4  118.8
    X_C9_P0   QMAX_P0_Q5  140.4
    X_C9_P1   PROFIT    46.9
    X_C9_P1   BAL_P1    1
    X_C9_P1   AVAIL_C9  1
    X_C9_P1   QMIN_P1_Q0  93.4
    X_C9_P1   QMIN_P1_Q1  91.8
    X_C9_P1   QMIN_P1_Q2  100.7
    X_C9_P1   QMIN_P1_Q3  112.5
    X_C9_P1   QMIN_P1_Q4  118.8
    X_C9_P1   QMIN_P1_Q5  140.4
    X_C9_P1   QMAX_P1_Q0  93.4
    X_C9_P1   QMAX_P1_Q1  91.8
    X_C9_P1   QMAX_P1_Q2  100.7
    X_C9_P1   QMAX_P1_Q3  112.5
    X_C9_P1   QMAX_P1_Q4  118.8
    X_C9_P1   QMAX_P1_Q5  140.4
    X_C9_P2   PROFIT    46.9
    X_C9_P2   BAL_P2    1
    X_C9_P2   AVAIL_C9  1
    X_C9_P2   QMIN_P2_Q0  93.4
    X_C9_P2   QMIN_P2_Q1  91.8
    X_C9_P2   QMIN_P2_Q2  100.7
    X_C9_P2   QMIN_P2_Q3  112.5
    X_C9_P2   QMIN_P2_Q4  118.8
    X_C9_P2   QMIN_P2_Q5  140.4
    X_C9_P2   QMAX_P2_Q0  93.4
    X_C9_P2   QMAX_P2_Q1  91.8
    X_C9_P2   QMAX_P2_Q2  100.7
    X_C9_P2   QMAX_P2_Q3  112.5
    X_C9_P2   QMAX_P2_Q4  118.8
    X_C9_P2   QMAX_P2_Q5  140.4
    X_C9_P3   PROFIT    46.9
    X_C9_P3   BAL_P3    1
    X_C9_P3   AVAIL_C9  1
    X_C9_P3   QMIN_P3_Q0  93.4
    X_C9_P3   QMIN_P3_Q1  91.8
    X_C9_P3   QMIN_P3_Q2  100.7
    X_C9_P3   QMIN_P3_Q3  112.5
    X_C9_P3   QMIN_P3_Q4  118.8
    X_C9_P3   QMIN_P3_Q5  140.4
    X_C9_P3   QMAX_P3_Q0  93.4
    X_C9_P3   QMAX_P3_Q1  91.8
    X_C9_P3   QMAX_P3_Q2  100.7
    X_C9_P3   QMAX_P3_Q3  112.5
    X_C9_P3   QMAX_P3_Q4  118.8
    X_C9_P3   QMAX_P3_Q5  140.4
    X_C9_P4   PROFIT    46.9
    X_C9_P4   BAL_P4    1
    X_C9_P4   AVAIL_C9  1
    X_C9_P4   QMIN_P4_Q0  93.4
    X_C9_P4   QMIN_P4_Q1  91.8
    X_C9_P4   QMIN_P4_Q2  100.7
    X_C9_P4   QMIN_P4_Q3  112.5
    X_C9_P4   QMIN_P4_Q4  118.8
    X_C9_P4   QMIN_P4_Q5  140.4
    X_C9_P4   QMAX_P4_Q0  93.4
    X_C9_P4   QMAX_P4_Q1  91.8
    X_C9_P4   QMAX_P4_Q2  100.7
    X_C9_P4   QMAX_P4_Q3  112.5
    X_C9_P4   QMAX_P4_Q4  118.8
    X_C9_P4   QMAX_P4_Q5  140.4
    X_C9_P5   PROFIT    46.9
    X_C9_P5   BAL_P5    1
    X_C9_P5   AVAIL_C9  1
    X_C9_P5   QMIN_P5_Q0  93.4
    X_C9_P5   QMIN_P5_Q1  91.8
    X_C9_P5   QMIN_P5_Q2  100.7
    X_C9_P5   QMIN_P5_Q3  112.5
    X_C9_P5   QMIN_P5_Q4  118.8
    X_C9_P5   QMIN_P5_Q5  140.4
    X_C9_P5   QMAX_P5_Q0  93.4
    X_C9_P5   QMAX_P5_Q1  91.8
    X_C9_P5   QMAX_P5_Q2  100.7
    X_C9_P5   QMAX_P5_Q3  112.5
    X_C9_P5   QMAX_P5_Q4  118.8
    X_C9_P5   QMAX_P5_Q5  140.4
    X_C9_P6   PROFIT    46.9
    X_C9_P6   BAL_P6    1
    X_C9_P6   AVAIL_C9  1
    X_C9_P6   QMIN_P6_Q0  93.4
    X_C9_P6   QMIN_P6_Q1  91.8
    X_C9_P6   QMIN_P6_Q2  100.7
    X_C9_P6   QMIN_P6_Q3  112.5
    X_C9_P6   QMIN_P6_Q4  118.8
    X_C9_P6   QMIN_P6_Q5  140.4
    X_C9_P6   QMAX_P6_Q0  93.4
    X_C9_P6   QMAX_P6_Q1  91.8
    X_C9_P6   QMAX_P6_Q2  100.7
    X_C9_P6   QMAX_P6_Q3  112.5
    X_C9_P6   QMAX_P6_Q4  118.8
    X_C9_P6   QMAX_P6_Q5  140.4
    X_C9_P7   PROFIT    46.9
    X_C9_P7   BAL_P7    1
    X_C9_P7   AVAIL_C9  1
    X_C9_P7   QMIN_P7_Q0  93.4
    X_C9_P7   QMIN_P7_Q1  91.8
    X_C9_P7   QMIN_P7_Q2  100.7
    X_C9_P7   QMIN_P7_Q3  112.5
    X_C9_P7   QMIN_P7_Q4  118.8
    X_C9_P7   QMIN_P7_Q5  140.4
    X_C9_P7   QMAX_P7_Q0  93.4
    X_C9_P7   QMAX_P7_Q1  91.8
    X_C9_P7   QMAX_P7_Q2  100.7
    X_C9_P7   QMAX_P7_Q3  112.5
    X_C9_P7   QMAX_P7_Q4  118.8
    X_C9_P7   QMAX_P7_Q5  140.4
    X_C9_P8   PROFIT    46.9
    X_C9_P8   BAL_P8    1
    X_C9_P8   AVAIL_C9  1
    X_C9_P8   QMIN_P8_Q0  93.4
    X_C9_P8   QMIN_P8_Q1  91.8
    X_C9_P8   QMIN_P8_Q2  100.7
    X_C9_P8   QMIN_P8_Q3  112.5
    X_C9_P8   QMIN_P8_Q4  118.8
    X_C9_P8   QMIN_P8_Q5  140.4
    X_C9_P8   QMAX_P8_Q0  93.4
    X_C9_P8   QMAX_P8_Q1  91.8
    X_C9_P8   QMAX_P8_Q2  100.7
    X_C9_P8   QMAX_P8_Q3  112.5
    X_C9_P8   QMAX_P8_Q4  118.8
    X_C9_P8   QMAX_P8_Q5  140.4
    X_C9_P9   PROFIT    46.9
    X_C9_P9   BAL_P9    1
    X_C9_P9   AVAIL_C9  1
    X_C9_P9   QMIN_P9_Q0  93.4
    X_C9_P9   QMIN_P9_Q1  91.8
    X_C9_P9   QMIN_P9_Q2  100.7
    X_C9_P9   QMIN_P9_Q3  112.5
    X_C9_P9   QMIN_P9_Q4  118.8
    X_C9_P9   QMIN_P9_Q5  140.4
    X_C9_P9   QMAX_P9_Q0  93.4
    X_C9_P9   QMAX_P9_Q1  91.8
    X_C9_P9   QMAX_P9_Q2  100.7
    X_C9_P9   QMAX_P9_Q3  112.5
    X_C9_P9   QMAX_P9_Q4  118.8
    X_C9_P9   QMAX_P9_Q5  140.4
    X_C10_P0  PROFIT    74.9
    X_C10_P0  BAL_P0    1
    X_C10_P0  AVAIL_C10  1
    X_C10_P0  QMIN_P0_Q0  78.7
    X_C10_P0  QMIN_P0_Q1  82.8
    X_C10_P0  QMIN_P0_Q2  92
    X_C10_P0  QMIN_P0_Q3  113.1
    X_C10_P0  QMIN_P0_Q4  129.1
    X_C10_P0  QMIN_P0_Q5  130.4
    X_C10_P0  QMAX_P0_Q0  78.7
    X_C10_P0  QMAX_P0_Q1  82.8
    X_C10_P0  QMAX_P0_Q2  92
    X_C10_P0  QMAX_P0_Q3  113.1
    X_C10_P0  QMAX_P0_Q4  129.1
    X_C10_P0  QMAX_P0_Q5  130.4
    X_C10_P1  PROFIT    74.9
    X_C10_P1  BAL_P1    1
    X_C10_P1  AVAIL_C10  1
    X_C10_P1  QMIN_P1_Q0  78.7
    X_C10_P1  QMIN_P1_Q1  82.8
    X_C10_P1  QMIN_P1_Q2  92
    X_C10_P1  QMIN_P1_Q3  113.1
    X_C10_P1  QMIN_P1_Q4  129.1
    X_C10_P1  QMIN_P1_Q5  130.4
    X_C10_P1  QMAX_P1_Q0  78.7
    X_C10_P1  QMAX_P1_Q1  82.8
    X_C10_P1  QMAX_P1_Q2  92
    X_C10_P1  QMAX_P1_Q3  113.1
    X_C10_P1  QMAX_P1_Q4  129.1
    X_C10_P1  QMAX_P1_Q5  130.4
    X_C10_P2  PROFIT    74.9
    X_C10_P2  BAL_P2    1
    X_C10_P2  AVAIL_C10  1
    X_C10_P2  QMIN_P2_Q0  78.7
    X_C10_P2  QMIN_P2_Q1  82.8
    X_C10_P2  QMIN_P2_Q2  92
    X_C10_P2  QMIN_P2_Q3  113.1
    X_C10_P2  QMIN_P2_Q4  129.1
    X_C10_P2  QMIN_P2_Q5  130.4
    X_C10_P2  QMAX_P2_Q0  78.7
    X_C10_P2  QMAX_P2_Q1  82.8
    X_C10_P2  QMAX_P2_Q2  92
    X_C10_P2  QMAX_P2_Q3  113.1
    X_C10_P2  QMAX_P2_Q4  129.1
    X_C10_P2  QMAX_P2_Q5  130.4
    X_C10_P3  PROFIT    74.9
    X_C10_P3  BAL_P3    1
    X_C10_P3  AVAIL_C10  1
    X_C10_P3  QMIN_P3_Q0  78.7
    X_C10_P3  QMIN_P3_Q1  82.8
    X_C10_P3  QMIN_P3_Q2  92
    X_C10_P3  QMIN_P3_Q3  113.1
    X_C10_P3  QMIN_P3_Q4  129.1
    X_C10_P3  QMIN_P3_Q5  130.4
    X_C10_P3  QMAX_P3_Q0  78.7
    X_C10_P3  QMAX_P3_Q1  82.8
    X_C10_P3  QMAX_P3_Q2  92
    X_C10_P3  QMAX_P3_Q3  113.1
    X_C10_P3  QMAX_P3_Q4  129.1
    X_C10_P3  QMAX_P3_Q5  130.4
    X_C10_P4  PROFIT    74.9
    X_C10_P4  BAL_P4    1
    X_C10_P4  AVAIL_C10  1
    X_C10_P4  QMIN_P4_Q0  78.7
    X_C10_P4  QMIN_P4_Q1  82.8
    X_C10_P4  QMIN_P4_Q2  92
    X_C10_P4  QMIN_P4_Q3  113.1
    X_C10_P4  QMIN_P4_Q4  129.1
    X_C10_P4  QMIN_P4_Q5  130.4
    X_C10_P4  QMAX_P4_Q0  78.7
    X_C10_P4  QMAX_P4_Q1  82.8
    X_C10_P4  QMAX_P4_Q2  92
    X_C10_P4  QMAX_P4_Q3  113.1
    X_C10_P4  QMAX_P4_Q4  129.1
    X_C10_P4  QMAX_P4_Q5  130.4
    X_C10_P5  PROFIT    74.9
    X_C10_P5  BAL_P5    1
    X_C10_P5  AVAIL_C10  1
    X_C10_P5  QMIN_P5_Q0  78.7
    X_C10_P5  QMIN_P5_Q1  82.8
    X_C10_P5  QMIN_P5_Q2  92
    X_C10_P5  QMIN_P5_Q3  113.1
    X_C10_P5  QMIN_P5_Q4  129.1
    X_C10_P5  QMIN_P5_Q5  130.4
    X_C10_P5  QMAX_P5_Q0  78.7
    X_C10_P5  QMAX_P5_Q1  82.8
    X_C10_P5  QMAX_P5_Q2  92
    X_C10_P5  QMAX_P5_Q3  113.1
    X_C10_P5  QMAX_P5_Q4  129.1
    X_C10_P5  QMAX_P5_Q5  130.4
    X_C10_P6  PROFIT    74.9
    X_C10_P6  BAL_P6    1
    X_C10_P6  AVAIL_C10  1
    X_C10_P6  QMIN_P6_Q0  78.7
    X_C10_P6  QMIN_P6_Q1  82.8
    X_C10_P6  QMIN_P6_Q2  92
    X_C10_P6  QMIN_P6_Q3  113.1
    X_C10_P6  QMIN_P6_Q4  129.1
    X_C10_P6  QMIN_P6_Q5  130.4
    X_C10_P6  QMAX_P6_Q0  78.7
    X_C10_P6  QMAX_P6_Q1  82.8
    X_C10_P6  QMAX_P6_Q2  92
    X_C10_P6  QMAX_P6_Q3  113.1
    X_C10_P6  QMAX_P6_Q4  129.1
    X_C10_P6  QMAX_P6_Q5  130.4
    X_C10_P7  PROFIT    74.9
    X_C10_P7  BAL_P7    1
    X_C10_P7  AVAIL_C10  1
    X_C10_P7  QMIN_P7_Q0  78.7
    X_C10_P7  QMIN_P7_Q1  82.8
    X_C10_P7  QMIN_P7_Q2  92
    X_C10_P7  QMIN_P7_Q3  113.1
    X_C10_P7  QMIN_P7_Q4  129.1
    X_C10_P7  QMIN_P7_Q5  130.4
    X_C10_P7  QMAX_P7_Q0  78.7
    X_C10_P7  QMAX_P7_Q1  82.8
    X_C10_P7  QMAX_P7_Q2  92
    X_C10_P7  QMAX_P7_Q3  113.1
    X_C10_P7  QMAX_P7_Q4  129.1
    X_C10_P7  QMAX_P7_Q5  130.4
    X_C10_P8  PROFIT    74.9
    X_C10_P8  BAL_P8    1
    X_C10_P8  AVAIL_C10  1
    X_C10_P8  QMIN_P8_Q0  78.7
    X_C10_P8  QMIN_P8_Q1  82.8
    X_C10_P8  QMIN_P8_Q2  92
    X_C10_P8  QMIN_P8_Q3  113.1
    X_C10_P8  QMIN_P8_Q4  129.1
    X_C10_P8  QMIN_P8_Q5  130.4
    X_C10_P8  QMAX_P8_Q0  78.7
    X_C10_P8  QMAX_P8_Q1  82.8
    X_C10_P8  QMAX_P8_Q2  92
    X_C10_P8  QMAX_P8_Q3  113.1
    X_C10_P8  QMAX_P8_Q4  129.1
    X_C10_P8  QMAX_P8_Q5  130.4
    X_C10_P9  PROFIT    74.9
    X_C10_P9  BAL_P9    1
    X_C10_P9  AVAIL_C10  1
    X_C10_P9  QMIN_P9_Q0  78.7
    X_C10_P9  QMIN_P9_Q1  82.8
    X_C10_P9  QMIN_P9_Q2  92
    X_C10_P9  QMIN_P9_Q3  113.1
    X_C10_P9  QMIN_P9_Q4  129.1
    X_C10_P9  QMIN_P9_Q5  130.4
    X_C10_P9  QMAX_P9_Q0  78.7
    X_C10_P9  QMAX_P9_Q1  82.8
    X_C10_P9  QMAX_P9_Q2  92
    X_C10_P9  QMAX_P9_Q3  113.1
    X_C10_P9  QMAX_P9_Q4  129.1
    X_C10_P9  QMAX_P9_Q5  130.4
    X_C11_P0  PROFIT    62
    X_C11_P0  BAL_P0    1
    X_C11_P0  AVAIL_C11  1
    X_C11_P0  QMIN_P0_Q0  77.5
    X_C11_P0  QMIN_P0_Q1  97.3
    X_C11_P0  QMIN_P0_Q2  111.9
    X_C11_P0  QMIN_P0_Q3  109.9
    X_C11_P0  QMIN_P0_Q4  120.7
    X_C11_P0  QMIN_P0_Q5  130.7
    X_C11_P0  QMAX_P0_Q0  77.5
    X_C11_P0  QMAX_P0_Q1  97.3
    X_C11_P0  QMAX_P0_Q2  111.9
    X_C11_P0  QMAX_P0_Q3  109.9
    X_C11_P0  QMAX_P0_Q4  120.7
    X_C11_P0  QMAX_P0_Q5  130.7
    X_C11_P1  PROFIT    62
    X_C11_P1  BAL_P1    1
    X_C11_P1  AVAIL_C11  1
    X_C11_P1  QMIN_P1_Q0  77.5
    X_C11_P1  QMIN_P1_Q1  97.3
    X_C11_P1  QMIN_P1_Q2  111.9
    X_C11_P1  QMIN_P1_Q3  109.9
    X_C11_P1  QMIN_P1_Q4  120.7
    X_C11_P1  QMIN_P1_Q5  130.7
    X_C11_P1  QMAX_P1_Q0  77.5
    X_C11_P1  QMAX_P1_Q1  97.3
    X_C11_P1  QMAX_P1_Q2  111.9
    X_C11_P1  QMAX_P1_Q3  109.9
    X_C11_P1  QMAX_P1_Q4  120.7
    X_C11_P1  QMAX_P1_Q5  130.7
    X_C11_P2  PROFIT    62
    X_C11_P2  BAL_P2    1
    X_C11_P2  AVAIL_C11  1
    X_C11_P2  QMIN_P2_Q0  77.5
    X_C11_P2  QMIN_P2_Q1  97.3
    X_C11_P2  QMIN_P2_Q2  111.9
    X_C11_P2  QMIN_P2_Q3  109.9
    X_C11_P2  QMIN_P2_Q4  120.7
    X_C11_P2  QMIN_P2_Q5  130.7
    X_C11_P2  QMAX_P2_Q0  77.5
    X_C11_P2  QMAX_P2_Q1  97.3
    X_C11_P2  QMAX_P2_Q2  111.9
    X_C11_P2  QMAX_P2_Q3  109.9
    X_C11_P2  QMAX_P2_Q4  120.7
    X_C11_P2  QMAX_P2_Q5  130.7
    X_C11_P3  PROFIT    62
    X_C11_P3  BAL_P3    1
    X_C11_P3  AVAIL_C11  1
    X_C11_P3  QMIN_P3_Q0  77.5
    X_C11_P3  QMIN_P3_Q1  97.3
    X_C11_P3  QMIN_P3_Q2  111.9
    X_C11_P3  QMIN_P3_Q3  109.9
    X_C11_P3  QMIN_P3_Q4  120.7
    X_C11_P3  QMIN_P3_Q5  130.7
    X_C11_P3  QMAX_P3_Q0  77.5
    X_C11_P3  QMAX_P3_Q1  97.3
    X_C11_P3  QMAX_P3_Q2  111.9
    X_C11_P3  QMAX_P3_Q3  109.9
    X_C11_P3  QMAX_P3_Q4  120.7
    X_C11_P3  QMAX_P3_Q5  130.7
    X_C11_P4  PROFIT    62
    X_C11_P4  BAL_P4    1
    X_C11_P4  AVAIL_C11  1
    X_C11_P4  QMIN_P4_Q0  77.5
    X_C11_P4  QMIN_P4_Q1  97.3
    X_C11_P4  QMIN_P4_Q2  111.9
    X_C11_P4  QMIN_P4_Q3  109.9
    X_C11_P4  QMIN_P4_Q4  120.7
    X_C11_P4  QMIN_P4_Q5  130.7
    X_C11_P4  QMAX_P4_Q0  77.5
    X_C11_P4  QMAX_P4_Q1  97.3
    X_C11_P4  QMAX_P4_Q2  111.9
    X_C11_P4  QMAX_P4_Q3  109.9
    X_C11_P4  QMAX_P4_Q4  120.7
    X_C11_P4  QMAX_P4_Q5  130.7
    X_C11_P5  PROFIT    62
    X_C11_P5  BAL_P5    1
    X_C11_P5  AVAIL_C11  1
    X_C11_P5  QMIN_P5_Q0  77.5
    X_C11_P5  QMIN_P5_Q1  97.3
    X_C11_P5  QMIN_P5_Q2  111.9
    X_C11_P5  QMIN_P5_Q3  109.9
    X_C11_P5  QMIN_P5_Q4  120.7
    X_C11_P5  QMIN_P5_Q5  130.7
    X_C11_P5  QMAX_P5_Q0  77.5
    X_C11_P5  QMAX_P5_Q1  97.3
    X_C11_P5  QMAX_P5_Q2  111.9
    X_C11_P5  QMAX_P5_Q3  109.9
    X_C11_P5  QMAX_P5_Q4  120.7
    X_C11_P5  QMAX_P5_Q5  130.7
    X_C11_P6  PROFIT    62
    X_C11_P6  BAL_P6    1
    X_C11_P6  AVAIL_C11  1
    X_C11_P6  QMIN_P6_Q0  77.5
    X_C11_P6  QMIN_P6_Q1  97.3
    X_C11_P6  QMIN_P6_Q2  111.9
    X_C11_P6  QMIN_P6_Q3  109.9
    X_C11_P6  QMIN_P6_Q4  120.7
    X_C11_P6  QMIN_P6_Q5  130.7
    X_C11_P6  QMAX_P6_Q0  77.5
    X_C11_P6  QMAX_P6_Q1  97.3
    X_C11_P6  QMAX_P6_Q2  111.9
    X_C11_P6  QMAX_P6_Q3  109.9
    X_C11_P6  QMAX_P6_Q4  120.7
    X_C11_P6  QMAX_P6_Q5  130.7
    X_C11_P7  PROFIT    62
    X_C11_P7  BAL_P7    1
    X_C11_P7  AVAIL_C11  1
    X_C11_P7  QMIN_P7_Q0  77.5
    X_C11_P7  QMIN_P7_Q1  97.3
    X_C11_P7  QMIN_P7_Q2  111.9
    X_C11_P7  QMIN_P7_Q3  109.9
    X_C11_P7  QMIN_P7_Q4  120.7
    X_C11_P7  QMIN_P7_Q5  130.7
    X_C11_P7  QMAX_P7_Q0  77.5
    X_C11_P7  QMAX_P7_Q1  97.3
    X_C11_P7  QMAX_P7_Q2  111.9
    X_C11_P7  QMAX_P7_Q3  109.9
    X_C11_P7  QMAX_P7_Q4  120.7
    X_C11_P7  QMAX_P7_Q5  130.7
    X_C11_P8  PROFIT    62
    X_C11_P8  BAL_P8    1
    X_C11_P8  AVAIL_C11  1
    X_C11_P8  QMIN_P8_Q0  77.5
    X_C11_P8  QMIN_P8_Q1  97.3
    X_C11_P8  QMIN_P8_Q2  111.9
    X_C11_P8  QMIN_P8_Q3  109.9
    X_C11_P8  QMIN_P8_Q4  120.7
    X_C11_P8  QMIN_P8_Q5  130.7
    X_C11_P8  QMAX_P8_Q0  77.5
    X_C11_P8  QMAX_P8_Q1  97.3
    X_C11_P8  QMAX_P8_Q2  111.9
    X_C11_P8  QMAX_P8_Q3  109.9
    X_C11_P8  QMAX_P8_Q4  120.7
    X_C11_P8  QMAX_P8_Q5  130.7
    X_C11_P9  PROFIT    62
    X_C11_P9  BAL_P9    1
    X_C11_P9  AVAIL_C11  1
    X_C11_P9  QMIN_P9_Q0  77.5
    X_C11_P9  QMIN_P9_Q1  97.3
    X_C11_P9  QMIN_P9_Q2  111.9
    X_C11_P9  QMIN_P9_Q3  109.9
    X_C11_P9  QMIN_P9_Q4  120.7
    X_C11_P9  QMIN_P9_Q5  130.7
    X_C11_P9  QMAX_P9_Q0  77.5
    X_C11_P9  QMAX_P9_Q1  97.3
    X_C11_P9  QMAX_P9_Q2  111.9
    X_C11_P9  QMAX_P9_Q3  109.9
    X_C11_P9  QMAX_P9_Q4  120.7
    X_C11_P9  QMAX_P9_Q5  130.7
    X_C12_P0  PROFIT    50.8
    X_C12_P0  BAL_P0    1
    X_C12_P0  AVAIL_C12  1
    X_C12_P0  QMIN_P0_Q0  88.5
    X_C12_P0  QMIN_P0_Q1  83.2
    X_C12_P0  QMIN_P0_Q2  109.8
    X_C12_P0  QMIN_P0_Q3  119.8
    X_C12_P0  QMIN_P0_Q4  115
    X_C12_P0  QMIN_P0_Q5  128.1
    X_C12_P0  QMAX_P0_Q0  88.5
    X_C12_P0  QMAX_P0_Q1  83.2
    X_C12_P0  QMAX_P0_Q2  109.8
    X_C12_P0  QMAX_P0_Q3  119.8
    X_C12_P0  QMAX_P0_Q4  115
    X_C12_P0  QMAX_P0_Q5  128.1
    X_C12_P1  PROFIT    50.8
    X_C12_P1  BAL_P1    1
    X_C12_P1  AVAIL_C12  1
    X_C12_P1  QMIN_P1_Q0  88.5
    X_C12_P1  QMIN_P1_Q1  83.2
    X_C12_P1  QMIN_P1_Q2  109.8
    X_C12_P1  QMIN_P1_Q3  119.8
    X_C12_P1  QMIN_P1_Q4  115
    X_C12_P1  QMIN_P1_Q5  128.1
    X_C12_P1  QMAX_P1_Q0  88.5
    X_C12_P1  QMAX_P1_Q1  83.2
    X_C12_P1  QMAX_P1_Q2  109.8
    X_C12_P1  QMAX_P1_Q3  119.8
    X_C12_P1  QMAX_P1_Q4  115
    X_C12_P1  QMAX_P1_Q5  128.1
    X_C12_P2  PROFIT    50.8
    X_C12_P2  BAL_P2    1
    X_C12_P2  AVAIL_C12  1
    X_C12_P2  QMIN_P2_Q0  88.5
    X_C12_P2  QMIN_P2_Q1  83.2
    X_C12_P2  QMIN_P2_Q2  109.8
    X_C12_P2  QMIN_P2_Q3  119.8
    X_C12_P2  QMIN_P2_Q4  115
    X_C12_P2  QMIN_P2_Q5  128.1
    X_C12_P2  QMAX_P2_Q0  88.5
    X_C12_P2  QMAX_P2_Q1  83.2
    X_C12_P2  QMAX_P2_Q2  109.8
    X_C12_P2  QMAX_P2_Q3  119.8
    X_C12_P2  QMAX_P2_Q4  115
    X_C12_P2  QMAX_P2_Q5  128.1
    X_C12_P3  PROFIT    50.8
    X_C12_P3  BAL_P3    1
    X_C12_P3  AVAIL_C12  1
    X_C12_P3  QMIN_P3_Q0  88.5
    X_C12_P3  QMIN_P3_Q1  83.2
    X_C12_P3  QMIN_P3_Q2  109.8
    X_C12_P3  QMIN_P3_Q3  119.8
    X_C12_P3  QMIN_P3_Q4  115
    X_C12_P3  QMIN_P3_Q5  128.1
    X_C12_P3  QMAX_P3_Q0  88.5
    X_C12_P3  QMAX_P3_Q1  83.2
    X_C12_P3  QMAX_P3_Q2  109.8
    X_C12_P3  QMAX_P3_Q3  119.8
    X_C12_P3  QMAX_P3_Q4  115
    X_C12_P3  QMAX_P3_Q5  128.1
    X_C12_P4  PROFIT    50.8
    X_C12_P4  BAL_P4    1
    X_C12_P4  AVAIL_C12  1
    X_C12_P4  QMIN_P4_Q0  88.5
    X_C12_P4  QMIN_P4_Q1  83.2
    X_C12_P4  QMIN_P4_Q2  109.8
    X_C12_P4  QMIN_P4_Q3  119.8
    X_C12_P4  QMIN_P4_Q4  115
    X_C12_P4  QMIN_P4_Q5  128.1
    X_C12_P4  QMAX_P4_Q0  88.5
    X_C12_P4  QMAX_P4_Q1  83.2
    X_C12_P4  QMAX_P4_Q2  109.8
    X_C12_P4  QMAX_P4_Q3  119.8
    X_C12_P4  QMAX_P4_Q4  115
    X_C12_P4  QMAX_P4_Q5  128.1
    X_C12_P5  PROFIT    50.8
    X_C12_P5  BAL_P5    1
    X_C12_P5  AVAIL_C12  1
    X_C12_P5  QMIN_P5_Q0  88.5
    X_C12_P5  QMIN_P5_Q1  83.2
    X_C12_P5  QMIN_P5_Q2  109.8
    X_C12_P5  QMIN_P5_Q3  119.8
    X_C12_P5  QMIN_P5_Q4  115
    X_C12_P5  QMIN_P5_Q5  128.1
    X_C12_P5  QMAX_P5_Q0  88.5
    X_C12_P5  QMAX_P5_Q1  83.2
    X_C12_P5  QMAX_P5_Q2  109.8
    X_C12_P5  QMAX_P5_Q3  119.8
    X_C12_P5  QMAX_P5_Q4  115
    X_C12_P5  QMAX_P5_Q5  128.1
    X_C12_P6  PROFIT    50.8
    X_C12_P6  BAL_P6    1
    X_C12_P6  AVAIL_C12  1
    X_C12_P6  QMIN_P6_Q0  88.5
    X_C12_P6  QMIN_P6_Q1  83.2
    X_C12_P6  QMIN_P6_Q2  109.8
    X_C12_P6  QMIN_P6_Q3  119.8
    X_C12_P6  QMIN_P6_Q4  115
    X_C12_P6  QMIN_P6_Q5  128.1
    X_C12_P6  QMAX_P6_Q0  88.5
    X_C12_P6  QMAX_P6_Q1  83.2
    X_C12_P6  QMAX_P6_Q2  109.8
    X_C12_P6  QMAX_P6_Q3  119.8
    X_C12_P6  QMAX_P6_Q4  115
    X_C12_P6  QMAX_P6_Q5  128.1
    X_C12_P7  PROFIT    50.8
    X_C12_P7  BAL_P7    1
    X_C12_P7  AVAIL_C12  1
    X_C12_P7  QMIN_P7_Q0  88.5
    X_C12_P7  QMIN_P7_Q1  83.2
    X_C12_P7  QMIN_P7_Q2  109.8
    X_C12_P7  QMIN_P7_Q3  119.8
    X_C12_P7  QMIN_P7_Q4  115
    X_C12_P7  QMIN_P7_Q5  128.1
    X_C12_P7  QMAX_P7_Q0  88.5
    X_C12_P7  QMAX_P7_Q1  83.2
    X_C12_P7  QMAX_P7_Q2  109.8
    X_C12_P7  QMAX_P7_Q3  119.8
    X_C12_P7  QMAX_P7_Q4  115
    X_C12_P7  QMAX_P7_Q5  128.1
    X_C12_P8  PROFIT    50.8
    X_C12_P8  BAL_P8    1
    X_C12_P8  AVAIL_C12  1
    X_C12_P8  QMIN_P8_Q0  88.5
    X_C12_P8  QMIN_P8_Q1  83.2
    X_C12_P8  QMIN_P8_Q2  109.8
    X_C12_P8  QMIN_P8_Q3  119.8
    X_C12_P8  QMIN_P8_Q4  115
    X_C12_P8  QMIN_P8_Q5  128.1
    X_C12_P8  QMAX_P8_Q0  88.5
    X_C12_P8  QMAX_P8_Q1  83.2
    X_C12_P8  QMAX_P8_Q2  109.8
    X_C12_P8  QMAX_P8_Q3  119.8
    X_C12_P8  QMAX_P8_Q4  115
    X_C12_P8  QMAX_P8_Q5  128.1
    X_C12_P9  PROFIT    50.8
    X_C12_P9  BAL_P9    1
    X_C12_P9  AVAIL_C12  1
    X_C12_P9  QMIN_P9_Q0  88.5
    X_C12_P9  QMIN_P9_Q1  83.2
    X_C12_P9  QMIN_P9_Q2  109.8
    X_C12_P9  QMIN_P9_Q3  119.8
    X_C12_P9  QMIN_P9_Q4  115
    X_C12_P9  QMIN_P9_Q5  128.1
    X_C12_P9  QMAX_P9_Q0  88.5
    X_C12_P9  QMAX_P9_Q1  83.2
    X_C12_P9  QMAX_P9_Q2  109.8
    X_C12_P9  QMAX_P9_Q3  119.8
    X_C12_P9  QMAX_P9_Q4  115
    X_C12_P9  QMAX_P9_Q5  128.1
    X_C13_P0  PROFIT    66.2
    X_C13_P0  BAL_P0    1
    X_C13_P0  AVAIL_C13  1
    X_C13_P0  QMIN_P0_Q0  84.8
    X_C13_P0  QMIN_P0_Q1  98
    X_C13_P0  QMIN_P0_Q2  112.6
    X_C13_P0  QMIN_P0_Q3  104.7
    X_C13_P0  QMIN_P0_Q4  110
    X_C13_P0  QMIN_P0_Q5  122.6
    X_C13_P0  QMAX_P0_Q0  84.8
    X_C13_P0  QMAX_P0_Q1  98
    X_C13_P0  QMAX_P0_Q2  112.6
    X_C13_P0  QMAX_P0_Q3  104.7
    X_C13_P0  QMAX_P0_Q4  110
    X_C13_P0  QMAX_P0_Q5  122.6
    X_C13_P1  PROFIT    66.2
    X_C13_P1  BAL_P1    1
    X_C13_P1  AVAIL_C13  1
    X_C13_P1  QMIN_P1_Q0  84.8
    X_C13_P1  QMIN_P1_Q1  98
    X_C13_P1  QMIN_P1_Q2  112.6
    X_C13_P1  QMIN_P1_Q3  104.7
    X_C13_P1  QMIN_P1_Q4  110
    X_C13_P1  QMIN_P1_Q5  122.6
    X_C13_P1  QMAX_P1_Q0  84.8
    X_C13_P1  QMAX_P1_Q1  98
    X_C13_P1  QMAX_P1_Q2  112.6
    X_C13_P1  QMAX_P1_Q3  104.7
    X_C13_P1  QMAX_P1_Q4  110
    X_C13_P1  QMAX_P1_Q5  122.6
    X_C13_P2  PROFIT    66.2
    X_C13_P2  BAL_P2    1
    X_C13_P2  AVAIL_C13  1
    X_C13_P2  QMIN_P2_Q0  84.8
    X_C13_P2  QMIN_P2_Q1  98
    X_C13_P2  QMIN_P2_Q2  112.6
    X_C13_P2  QMIN_P2_Q3  104.7
    X_C13_P2  QMIN_P2_Q4  110
    X_C13_P2  QMIN_P2_Q5  122.6
    X_C13_P2  QMAX_P2_Q0  84.8
    X_C13_P2  QMAX_P2_Q1  98
    X_C13_P2  QMAX_P2_Q2  112.6
    X_C13_P2  QMAX_P2_Q3  104.7
    X_C13_P2  QMAX_P2_Q4  110
    X_C13_P2  QMAX_P2_Q5  122.6
    X_C13_P3  PROFIT    66.2
    X_C13_P3  BAL_P3    1
    X_C13_P3  AVAIL_C13  1
    X_C13_P3  QMIN_P3_Q0  84.8
    X_C13_P3  QMIN_P3_Q1  98
    X_C13_P3  QMIN_P3_Q2  112.6
    X_C13_P3  QMIN_P3_Q3  104.7
    X_C13_P3  QMIN_P3_Q4  110
    X_C13_P3  QMIN_P3_Q5  122.6
    X_C13_P3  QMAX_P3_Q0  84.8
    X_C13_P3  QMAX_P3_Q1  98
    X_C13_P3  QMAX_P3_Q2  112.6
    X_C13_P3  QMAX_P3_Q3  104.7
    X_C13_P3  QMAX_P3_Q4  110
    X_C13_P3  QMAX_P3_Q5  122.6
    X_C13_P4  PROFIT    66.2
    X_C13_P4  BAL_P4    1
    X_C13_P4  AVAIL_C13  1
    X_C13_P4  QMIN_P4_Q0  84.8
    X_C13_P4  QMIN_P4_Q1  98
    X_C13_P4  QMIN_P4_Q2  112.6
    X_C13_P4  QMIN_P4_Q3  104.7
    X_C13_P4  QMIN_P4_Q4  110
    X_C13_P4  QMIN_P4_Q5  122.6
    X_C13_P4  QMAX_P4_Q0  84.8
    X_C13_P4  QMAX_P4_Q1  98
    X_C13_P4  QMAX_P4_Q2  112.6
    X_C13_P4  QMAX_P4_Q3  104.7
    X_C13_P4  QMAX_P4_Q4  110
    X_C13_P4  QMAX_P4_Q5  122.6
    X_C13_P5  PROFIT    66.2
    X_C13_P5  BAL_P5    1
    X_C13_P5  AVAIL_C13  1
    X_C13_P5  QMIN_P5_Q0  84.8
    X_C13_P5  QMIN_P5_Q1  98
    X_C13_P5  QMIN_P5_Q2  112.6
    X_C13_P5  QMIN_P5_Q3  104.7
    X_C13_P5  QMIN_P5_Q4  110
    X_C13_P5  QMIN_P5_Q5  122.6
    X_C13_P5  QMAX_P5_Q0  84.8
    X_C13_P5  QMAX_P5_Q1  98
    X_C13_P5  QMAX_P5_Q2  112.6
    X_C13_P5  QMAX_P5_Q3  104.7
    X_C13_P5  QMAX_P5_Q4  110
    X_C13_P5  QMAX_P5_Q5  122.6
    X_C13_P6  PROFIT    66.2
    X_C13_P6  BAL_P6    1
    X_C13_P6  AVAIL_C13  1
    X_C13_P6  QMIN_P6_Q0  84.8
    X_C13_P6  QMIN_P6_Q1  98
    X_C13_P6  QMIN_P6_Q2  112.6
    X_C13_P6  QMIN_P6_Q3  104.7
    X_C13_P6  QMIN_P6_Q4  110
    X_C13_P6  QMIN_P6_Q5  122.6
    X_C13_P6  QMAX_P6_Q0  84.8
    X_C13_P6  QMAX_P6_Q1  98
    X_C13_P6  QMAX_P6_Q2  112.6
    X_C13_P6  QMAX_P6_Q3  104.7
    X_C13_P6  QMAX_P6_Q4  110
    X_C13_P6  QMAX_P6_Q5  122.6
    X_C13_P7  PROFIT    66.2
    X_C13_P7  BAL_P7    1
    X_C13_P7  AVAIL_C13  1
    X_C13_P7  QMIN_P7_Q0  84.8
    X_C13_P7  QMIN_P7_Q1  98
    X_C13_P7  QMIN_P7_Q2  112.6
    X_C13_P7  QMIN_P7_Q3  104.7
    X_C13_P7  QMIN_P7_Q4  110
    X_C13_P7  QMIN_P7_Q5  122.6
    X_C13_P7  QMAX_P7_Q0  84.8
    X_C13_P7  QMAX_P7_Q1  98
    X_C13_P7  QMAX_P7_Q2  112.6
    X_C13_P7  QMAX_P7_Q3  104.7
    X_C13_P7  QMAX_P7_Q4  110
    X_C13_P7  QMAX_P7_Q5  122.6
    X_C13_P8  PROFIT    66.2
    X_C13_P8  BAL_P8    1
    X_C13_P8  AVAIL_C13  1
    X_C13_P8  QMIN_P8_Q0  84.8
    X_C13_P8  QMIN_P8_Q1  98
    X_C13_P8  QMIN_P8_Q2  112.6
    X_C13_P8  QMIN_P8_Q3  104.7
    X_C13_P8  QMIN_P8_Q4  110
    X_C13_P8  QMIN_P8_Q5  122.6
    X_C13_P8  QMAX_P8_Q0  84.8
    X_C13_P8  QMAX_P8_Q1  98
    X_C13_P8  QMAX_P8_Q2  112.6
    X_C13_P8  QMAX_P8_Q3  104.7
    X_C13_P8  QMAX_P8_Q4  110
    X_C13_P8  QMAX_P8_Q5  122.6
    X_C13_P9  PROFIT    66.2
    X_C13_P9  BAL_P9    1
    X_C13_P9  AVAIL_C13  1
    X_C13_P9  QMIN_P9_Q0  84.8
    X_C13_P9  QMIN_P9_Q1  98
    X_C13_P9  QMIN_P9_Q2  112.6
    X_C13_P9  QMIN_P9_Q3  104.7
    X_C13_P9  QMIN_P9_Q4  110
    X_C13_P9  QMIN_P9_Q5  122.6
    X_C13_P9  QMAX_P9_Q0  84.8
    X_C13_P9  QMAX_P9_Q1  98
    X_C13_P9  QMAX_P9_Q2  112.6
    X_C13_P9  QMAX_P9_Q3  104.7
    X_C13_P9  QMAX_P9_Q4  110
    X_C13_P9  QMAX_P9_Q5  122.6
    X_C14_P0  PROFIT    75.9
    X_C14_P0  BAL_P0    1
    X_C14_P0  AVAIL_C14  1
    X_C14_P0  QMIN_P0_Q0  78.8
    X_C14_P0  QMIN_P0_Q1  95.1
    X_C14_P0  QMIN_P0_Q2  111.4
    X_C14_P0  QMIN_P0_Q3  108.7
    X_C14_P0  QMIN_P0_Q4  126
    X_C14_P0  QMIN_P0_Q5  124.9
    X_C14_P0  QMAX_P0_Q0  78.8
    X_C14_P0  QMAX_P0_Q1  95.1
    X_C14_P0  QMAX_P0_Q2  111.4
    X_C14_P0  QMAX_P0_Q3  108.7
    X_C14_P0  QMAX_P0_Q4  126
    X_C14_P0  QMAX_P0_Q5  124.9
    X_C14_P1  PROFIT    75.9
    X_C14_P1  BAL_P1    1
    X_C14_P1  AVAIL_C14  1
    X_C14_P1  QMIN_P1_Q0  78.8
    X_C14_P1  QMIN_P1_Q1  95.1
    X_C14_P1  QMIN_P1_Q2  111.4
    X_C14_P1  QMIN_P1_Q3  108.7
    X_C14_P1  QMIN_P1_Q4  126
    X_C14_P1  QMIN_P1_Q5  124.9
    X_C14_P1  QMAX_P1_Q0  78.8
    X_C14_P1  QMAX_P1_Q1  95.1
    X_C14_P1  QMAX_P1_Q2  111.4
    X_C14_P1  QMAX_P1_Q3  108.7
    X_C14_P1  QMAX_P1_Q4  126
    X_C14_P1  QMAX_P1_Q5  124.9
    X_C14_P2  PROFIT    75.9
    X_C14_P2  BAL_P2    1
    X_C14_P2  AVAIL_C14  1
    X_C14_P2  QMIN_P2_Q0  78.8
    X_C14_P2  QMIN_P2_Q1  95.1
    X_C14_P2  QMIN_P2_Q2  111.4
    X_C14_P2  QMIN_P2_Q3  108.7
    X_C14_P2  QMIN_P2_Q4  126
    X_C14_P2  QMIN_P2_Q5  124.9
    X_C14_P2  QMAX_P2_Q0  78.8
    X_C14_P2  QMAX_P2_Q1  95.1
    X_C14_P2  QMAX_P2_Q2  111.4
    X_C14_P2  QMAX_P2_Q3  108.7
    X_C14_P2  QMAX_P2_Q4  126
    X_C14_P2  QMAX_P2_Q5  124.9
    X_C14_P3  PROFIT    75.9
    X_C14_P3  BAL_P3    1
    X_C14_P3  AVAIL_C14  1
    X_C14_P3  QMIN_P3_Q0  78.8
    X_C14_P3  QMIN_P3_Q1  95.1
    X_C14_P3  QMIN_P3_Q2  111.4
    X_C14_P3  QMIN_P3_Q3  108.7
    X_C14_P3  QMIN_P3_Q4  126
    X_C14_P3  QMIN_P3_Q5  124.9
    X_C14_P3  QMAX_P3_Q0  78.8
    X_C14_P3  QMAX_P3_Q1  95.1
    X_C14_P3  QMAX_P3_Q2  111.4
    X_C14_P3  QMAX_P3_Q3  108.7
    X_C14_P3  QMAX_P3_Q4  126
    X_C14_P3  QMAX_P3_Q5  124.9
    X_C14_P4  PROFIT    75.9
    X_C14_P4  BAL_P4    1
    X_C14_P4  AVAIL_C14  1
    X_C14_P4  QMIN_P4_Q0  78.8
    X_C14_P4  QMIN_P4_Q1  95.1
    X_C14_P4  QMIN_P4_Q2  111.4
    X_C14_P4  QMIN_P4_Q3  108.7
    X_C14_P4  QMIN_P4_Q4  126
    X_C14_P4  QMIN_P4_Q5  124.9
    X_C14_P4  QMAX_P4_Q0  78.8
    X_C14_P4  QMAX_P4_Q1  95.1
    X_C14_P4  QMAX_P4_Q2  111.4
    X_C14_P4  QMAX_P4_Q3  108.7
    X_C14_P4  QMAX_P4_Q4  126
    X_C14_P4  QMAX_P4_Q5  124.9
    X_C14_P5  PROFIT    75.9
    X_C14_P5  BAL_P5    1
    X_C14_P5  AVAIL_C14  1
    X_C14_P5  QMIN_P5_Q0  78.8
    X_C14_P5  QMIN_P5_Q1  95.1
    X_C14_P5  QMIN_P5_Q2  111.4
    X_C14_P5  QMIN_P5_Q3  108.7
    X_C14_P5  QMIN_P5_Q4  126
    X_C14_P5  QMIN_P5_Q5  124.9
    X_C14_P5  QMAX_P5_Q0  78.8
    X_C14_P5  QMAX_P5_Q1  95.1
    X_C14_P5  QMAX_P5_Q2  111.4
    X_C14_P5  QMAX_P5_Q3  108.7
    X_C14_P5  QMAX_P5_Q4  126
    X_C14_P5  QMAX_P5_Q5  124.9
    X_C14_P6  PROFIT    75.9
    X_C14_P6  BAL_P6    1
    X_C14_P6  AVAIL_C14  1
    X_C14_P6  QMIN_P6_Q0  78.8
    X_C14_P6  QMIN_P6_Q1  95.1
    X_C14_P6  QMIN_P6_Q2  111.4
    X_C14_P6  QMIN_P6_Q3  108.7
    X_C14_P6  QMIN_P6_Q4  126
    X_C14_P6  QMIN_P6_Q5  124.9
    X_C14_P6  QMAX_P6_Q0  78.8
    X_C14_P6  QMAX_P6_Q1  95.1
    X_C14_P6  QMAX_P6_Q2  111.4
    X_C14_P6  QMAX_P6_Q3  108.7
    X_C14_P6  QMAX_P6_Q4  126
    X_C14_P6  QMAX_P6_Q5  124.9
    X_C14_P7  PROFIT    75.9
    X_C14_P7  BAL_P7    1
    X_C14_P7  AVAIL_C14  1
    X_C14_P7  QMIN_P7_Q0  78.8
    X_C14_P7  QMIN_P7_Q1  95.1
    X_C14_P7  QMIN_P7_Q2  111.4
    X_C14_P7  QMIN_P7_Q3  108.7
    X_C14_P7  QMIN_P7_Q4  126
    X_C14_P7  QMIN_P7_Q5  124.9
    X_C14_P7  QMAX_P7_Q0  78.8
    X_C14_P7  QMAX_P7_Q1  95.1
    X_C14_P7  QMAX_P7_Q2  111.4
    X_C14_P7  QMAX_P7_Q3  108.7
    X_C14_P7  QMAX_P7_Q4  126
    X_C14_P7  QMAX_P7_Q5  124.9
    X_C14_P8  PROFIT    75.9
    X_C14_P8  BAL_P8    1
    X_C14_P8  AVAIL_C14  1
    X_C14_P8  QMIN_P8_Q0  78.8
    X_C14_P8  QMIN_P8_Q1  95.1
    X_C14_P8  QMIN_P8_Q2  111.4
    X_C14_P8  QMIN_P8_Q3  108.7
    X_C14_P8  QMIN_P8_Q4  126
    X_C14_P8  QMIN_P8_Q5  124.9
    X_C14_P8  QMAX_P8_Q0  78.8
    X_C14_P8  QMAX_P8_Q1  95.1
    X_C14_P8  QMAX_P8_Q2  111.4
    X_C14_P8  QMAX_P8_Q3  108.7
    X_C14_P8  QMAX_P8_Q4  126
    X_C14_P8  QMAX_P8_Q5  124.9
    X_C14_P9  PROFIT    75.9
    X_C14_P9  BAL_P9    1
    X_C14_P9  AVAIL_C14  1
    X_C14_P9  QMIN_P9_Q0  78.8
    X_C14_P9  QMIN_P9_Q1  95.1
    X_C14_P9  QMIN_P9_Q2  111.4
    X_C14_P9  QMIN_P9_Q3  108.7
    X_C14_P9  QMIN_P9_Q4  126
    X_C14_P9  QMIN_P9_Q5  124.9
    X_C14_P9  QMAX_P9_Q0  78.8
    X_C14_P9  QMAX_P9_Q1  95.1
    X_C14_P9  QMAX_P9_Q2  111.4
    X_C14_P9  QMAX_P9_Q3  108.7
    X_C14_P9  QMAX_P9_Q4  126
    X_C14_P9  QMAX_P9_Q5  124.9
    X_C15_P0  PROFIT    74.8
    X_C15_P0  BAL_P0    1
    X_C15_P0  AVAIL_C15  1
    X_C15_P0  QMIN_P0_Q0  73.5
    X_C15_P0  QMIN_P0_Q1  88.9
    X_C15_P0  QMIN_P0_Q2  90.7
    X_C15_P0  QMIN_P0_Q3  113.9
    X_C15_P0  QMIN_P0_Q4  116.8
    X_C15_P0  QMIN_P0_Q5  126
    X_C15_P0  QMAX_P0_Q0  73.5
    X_C15_P0  QMAX_P0_Q1  88.9
    X_C15_P0  QMAX_P0_Q2  90.7
    X_C15_P0  QMAX_P0_Q3  113.9
    X_C15_P0  QMAX_P0_Q4  116.8
    X_C15_P0  QMAX_P0_Q5  126
    X_C15_P1  PROFIT    74.8
    X_C15_P1  BAL_P1    1
    X_C15_P1  AVAIL_C15  1
    X_C15_P1  QMIN_P1_Q0  73.5
    X_C15_P1  QMIN_P1_Q1  88.9
    X_C15_P1  QMIN_P1_Q2  90.7
    X_C15_P1  QMIN_P1_Q3  113.9
    X_C15_P1  QMIN_P1_Q4  116.8
    X_C15_P1  QMIN_P1_Q5  126
    X_C15_P1  QMAX_P1_Q0  73.5
    X_C15_P1  QMAX_P1_Q1  88.9
    X_C15_P1  QMAX_P1_Q2  90.7
    X_C15_P1  QMAX_P1_Q3  113.9
    X_C15_P1  QMAX_P1_Q4  116.8
    X_C15_P1  QMAX_P1_Q5  126
    X_C15_P2  PROFIT    74.8
    X_C15_P2  BAL_P2    1
    X_C15_P2  AVAIL_C15  1
    X_C15_P2  QMIN_P2_Q0  73.5
    X_C15_P2  QMIN_P2_Q1  88.9
    X_C15_P2  QMIN_P2_Q2  90.7
    X_C15_P2  QMIN_P2_Q3  113.9
    X_C15_P2  QMIN_P2_Q4  116.8
    X_C15_P2  QMIN_P2_Q5  126
    X_C15_P2  QMAX_P2_Q0  73.5
    X_C15_P2  QMAX_P2_Q1  88.9
    X_C15_P2  QMAX_P2_Q2  90.7
    X_C15_P2  QMAX_P2_Q3  113.9
    X_C15_P2  QMAX_P2_Q4  116.8
    X_C15_P2  QMAX_P2_Q5  126
    X_C15_P3  PROFIT    74.8
    X_C15_P3  BAL_P3    1
    X_C15_P3  AVAIL_C15  1
    X_C15_P3  QMIN_P3_Q0  73.5
    X_C15_P3  QMIN_P3_Q1  88.9
    X_C15_P3  QMIN_P3_Q2  90.7
    X_C15_P3  QMIN_P3_Q3  113.9
    X_C15_P3  QMIN_P3_Q4  116.8
    X_C15_P3  QMIN_P3_Q5  126
    X_C15_P3  QMAX_P3_Q0  73.5
    X_C15_P3  QMAX_P3_Q1  88.9
    X_C15_P3  QMAX_P3_Q2  90.7
    X_C15_P3  QMAX_P3_Q3  113.9
    X_C15_P3  QMAX_P3_Q4  116.8
    X_C15_P3  QMAX_P3_Q5  126
    X_C15_P4  PROFIT    74.8
    X_C15_P4  BAL_P4    1
    X_C15_P4  AVAIL_C15  1
    X_C15_P4  QMIN_P4_Q0  73.5
    X_C15_P4  QMIN_P4_Q1  88.9
    X_C15_P4  QMIN_P4_Q2  90.7
    X_C15_P4  QMIN_P4_Q3  113.9
    X_C15_P4  QMIN_P4_Q4  116.8
    X_C15_P4  QMIN_P4_Q5  126
    X_C15_P4  QMAX_P4_Q0  73.5
    X_C15_P4  QMAX_P4_Q1  88.9
    X_C15_P4  QMAX_P4_Q2  90.7
    X_C15_P4  QMAX_P4_Q3  113.9
    X_C15_P4  QMAX_P4_Q4  116.8
    X_C15_P4  QMAX_P4_Q5  126
    X_C15_P5  PROFIT    74.8
    X_C15_P5  BAL_P5    1
    X_C15_P5  AVAIL_C15  1
    X_C15_P5  QMIN_P5_Q0  73.5
    X_C15_P5  QMIN_P5_Q1  88.9
    X_C15_P5  QMIN_P5_Q2  90.7
    X_C15_P5  QMIN_P5_Q3  113.9
    X_C15_P5  QMIN_P5_Q4  116.8
    X_C15_P5  QMIN_P5_Q5  126
    X_C15_P5  QMAX_P5_Q0  73.5
    X_C15_P5  QMAX_P5_Q1  88.9
    X_C15_P5  QMAX_P5_Q2  90.7
    X_C15_P5  QMAX_P5_Q3  113.9
    X_C15_P5  QMAX_P5_Q4  116.8
    X_C15_P5  QMAX_P5_Q5  126
    X_C15_P6  PROFIT    74.8
    X_C15_P6  BAL_P6    1
    X_C15_P6  AVAIL_C15  1
    X_C15_P6  QMIN_P6_Q0  73.5
    X_C15_P6  QMIN_P6_Q1  88.9
    X_C15_P6  QMIN_P6_Q2  90.7
    X_C15_P6  QMIN_P6_Q3  113.9
    X_C15_P6  QMIN_P6_Q4  116.8
    X_C15_P6  QMIN_P6_Q5  126
    X_C15_P6  QMAX_P6_Q0  73.5
    X_C15_P6  QMAX_P6_Q1  88.9
    X_C15_P6  QMAX_P6_Q2  90.7
    X_C15_P6  QMAX_P6_Q3  113.9
    X_C15_P6  QMAX_P6_Q4  116.8
    X_C15_P6  QMAX_P6_Q5  126
    X_C15_P7  PROFIT    74.8
    X_C15_P7  BAL_P7    1
    X_C15_P7  AVAIL_C15  1
    X_C15_P7  QMIN_P7_Q0  73.5
    X_C15_P7  QMIN_P7_Q1  88.9
    X_C15_P7  QMIN_P7_Q2  90.7
    X_C15_P7  QMIN_P7_Q3  113.9
    X_C15_P7  QMIN_P7_Q4  116.8
    X_C15_P7  QMIN_P7_Q5  126
    X_C15_P7  QMAX_P7_Q0  73.5
    X_C15_P7  QMAX_P7_Q1  88.9
    X_C15_P7  QMAX_P7_Q2  90.7
    X_C15_P7  QMAX_P7_Q3  113.9
    X_C15_P7  QMAX_P7_Q4  116.8
    X_C15_P7  QMAX_P7_Q5  126
    X_C15_P8  PROFIT    74.8
    X_C15_P8  BAL_P8    1
    X_C15_P8  AVAIL_C15  1
    X_C15_P8  QMIN_P8_Q0  73.5
    X_C15_P8  QMIN_P8_Q1  88.9
    X_C15_P8  QMIN_P8_Q2  90.7
    X_C15_P8  QMIN_P8_Q3  113.9
    X_C15_P8  QMIN_P8_Q4  116.8
    X_C15_P8  QMIN_P8_Q5  126
    X_C15_P8  QMAX_P8_Q0  73.5
    X_C15_P8  QMAX_P8_Q1  88.9
    X_C15_P8  QMAX_P8_Q2  90.7
    X_C15_P8  QMAX_P8_Q3  113.9
    X_C15_P8  QMAX_P8_Q4  116.8
    X_C15_P8  QMAX_P8_Q5  126
    X_C15_P9  PROFIT    74.8
    X_C15_P9  BAL_P9    1
    X_C15_P9  AVAIL_C15  1
    X_C15_P9  QMIN_P9_Q0  73.5
    X_C15_P9  QMIN_P9_Q1  88.9
    X_C15_P9  QMIN_P9_Q2  90.7
    X_C15_P9  QMIN_P9_Q3  113.9
    X_C15_P9  QMIN_P9_Q4  116.8
    X_C15_P9  QMIN_P9_Q5  126
    X_C15_P9  QMAX_P9_Q0  73.5
    X_C15_P9  QMAX_P9_Q1  88.9
    X_C15_P9  QMAX_P9_Q2  90.7
    X_C15_P9  QMAX_P9_Q3  113.9
    X_C15_P9  QMAX_P9_Q4  116.8
    X_C15_P9  QMAX_P9_Q5  126
    X_C16_P0  PROFIT    75
    X_C16_P0  BAL_P0    1
    X_C16_P0  AVAIL_C16  1
    X_C16_P0  QMIN_P0_Q0  85.6
    X_C16_P0  QMIN_P0_Q1  99.2
    X_C16_P0  QMIN_P0_Q2  108.6
    X_C16_P0  QMIN_P0_Q3  102
    X_C16_P0  QMIN_P0_Q4  114.5
    X_C16_P0  QMIN_P0_Q5  142
    X_C16_P0  QMAX_P0_Q0  85.6
    X_C16_P0  QMAX_P0_Q1  99.2
    X_C16_P0  QMAX_P0_Q2  108.6
    X_C16_P0  QMAX_P0_Q3  102
    X_C16_P0  QMAX_P0_Q4  114.5
    X_C16_P0  QMAX_P0_Q5  142
    X_C16_P1  PROFIT    75
    X_C16_P1  BAL_P1    1
    X_C16_P1  AVAIL_C16  1
    X_C16_P1  QMIN_P1_Q0  85.6
    X_C16_P1  QMIN_P1_Q1  99.2
    X_C16_P1  QMIN_P1_Q2  108.6
    X_C16_P1  QMIN_P1_Q3  102
    X_C16_P1  QMIN_P1_Q4  114.5
    X_C16_P1  QMIN_P1_Q5  142
    X_C16_P1  QMAX_P1_Q0  85.6
    X_C16_P1  QMAX_P1_Q1  99.2
    X_C16_P1  QMAX_P1_Q2  108.6
    X_C16_P1  QMAX_P1_Q3  102
    X_C16_P1  QMAX_P1_Q4  114.5
    X_C16_P1  QMAX_P1_Q5  142
    X_C16_P2  PROFIT    75
    X_C16_P2  BAL_P2    1
    X_C16_P2  AVAIL_C16  1
    X_C16_P2  QMIN_P2_Q0  85.6
    X_C16_P2  QMIN_P2_Q1  99.2
    X_C16_P2  QMIN_P2_Q2  108.6
    X_C16_P2  QMIN_P2_Q3  102
    X_C16_P2  QMIN_P2_Q4  114.5
    X_C16_P2  QMIN_P2_Q5  142
    X_C16_P2  QMAX_P2_Q0  85.6
    X_C16_P2  QMAX_P2_Q1  99.2
    X_C16_P2  QMAX_P2_Q2  108.6
    X_C16_P2  QMAX_P2_Q3  102
    X_C16_P2  QMAX_P2_Q4  114.5
    X_C16_P2  QMAX_P2_Q5  142
    X_C16_P3  PROFIT    75
    X_C16_P3  BAL_P3    1
    X_C16_P3  AVAIL_C16  1
    X_C16_P3  QMIN_P3_Q0  85.6
    X_C16_P3  QMIN_P3_Q1  99.2
    X_C16_P3  QMIN_P3_Q2  108.6
    X_C16_P3  QMIN_P3_Q3  102
    X_C16_P3  QMIN_P3_Q4  114.5
    X_C16_P3  QMIN_P3_Q5  142
    X_C16_P3  QMAX_P3_Q0  85.6
    X_C16_P3  QMAX_P3_Q1  99.2
    X_C16_P3  QMAX_P3_Q2  108.6
    X_C16_P3  QMAX_P3_Q3  102
    X_C16_P3  QMAX_P3_Q4  114.5
    X_C16_P3  QMAX_P3_Q5  142
    X_C16_P4  PROFIT    75
    X_C16_P4  BAL_P4    1
    X_C16_P4  AVAIL_C16  1
    X_C16_P4  QMIN_P4_Q0  85.6
    X_C16_P4  QMIN_P4_Q1  99.2
    X_C16_P4  QMIN_P4_Q2  108.6
    X_C16_P4  QMIN_P4_Q3  102
    X_C16_P4  QMIN_P4_Q4  114.5
    X_C16_P4  QMIN_P4_Q5  142
    X_C16_P4  QMAX_P4_Q0  85.6
    X_C16_P4  QMAX_P4_Q1  99.2
    X_C16_P4  QMAX_P4_Q2  108.6
    X_C16_P4  QMAX_P4_Q3  102
    X_C16_P4  QMAX_P4_Q4  114.5
    X_C16_P4  QMAX_P4_Q5  142
    X_C16_P5  PROFIT    75
    X_C16_P5  BAL_P5    1
    X_C16_P5  AVAIL_C16  1
    X_C16_P5  QMIN_P5_Q0  85.6
    X_C16_P5  QMIN_P5_Q1  99.2
    X_C16_P5  QMIN_P5_Q2  108.6
    X_C16_P5  QMIN_P5_Q3  102
    X_C16_P5  QMIN_P5_Q4  114.5
    X_C16_P5  QMIN_P5_Q5  142
    X_C16_P5  QMAX_P5_Q0  85.6
    X_C16_P5  QMAX_P5_Q1  99.2
    X_C16_P5  QMAX_P5_Q2  108.6
    X_C16_P5  QMAX_P5_Q3  102
    X_C16_P5  QMAX_P5_Q4  114.5
    X_C16_P5  QMAX_P5_Q5  142
    X_C16_P6  PROFIT    75
    X_C16_P6  BAL_P6    1
    X_C16_P6  AVAIL_C16  1
    X_C16_P6  QMIN_P6_Q0  85.6
    X_C16_P6  QMIN_P6_Q1  99.2
    X_C16_P6  QMIN_P6_Q2  108.6
    X_C16_P6  QMIN_P6_Q3  102
    X_C16_P6  QMIN_P6_Q4  114.5
    X_C16_P6  QMIN_P6_Q5  142
    X_C16_P6  QMAX_P6_Q0  85.6
    X_C16_P6  QMAX_P6_Q1  99.2
    X_C16_P6  QMAX_P6_Q2  108.6
    X_C16_P6  QMAX_P6_Q3  102
    X_C16_P6  QMAX_P6_Q4  114.5
    X_C16_P6  QMAX_P6_Q5  142
    X_C16_P7  PROFIT    75
    X_C16_P7  BAL_P7    1
    X_C16_P7  AVAIL_C16  1
    X_C16_P7  QMIN_P7_Q0  85.6
    X_C16_P7  QMIN_P7_Q1  99.2
    X_C16_P7  QMIN_P7_Q2  108.6
    X_C16_P7  QMIN_P7_Q3  102
    X_C16_P7  QMIN_P7_Q4  114.5
    X_C16_P7  QMIN_P7_Q5  142
    X_C16_P7  QMAX_P7_Q0  85.6
    X_C16_P7  QMAX_P7_Q1  99.2
    X_C16_P7  QMAX_P7_Q2  108.6
    X_C16_P7  QMAX_P7_Q3  102
    X_C16_P7  QMAX_P7_Q4  114.5
    X_C16_P7  QMAX_P7_Q5  142
    X_C16_P8  PROFIT    75
    X_C16_P8  BAL_P8    1
    X_C16_P8  AVAIL_C16  1
    X_C16_P8  QMIN_P8_Q0  85.6
    X_C16_P8  QMIN_P8_Q1  99.2
    X_C16_P8  QMIN_P8_Q2  108.6
    X_C16_P8  QMIN_P8_Q3  102
    X_C16_P8  QMIN_P8_Q4  114.5
    X_C16_P8  QMIN_P8_Q5  142
    X_C16_P8  QMAX_P8_Q0  85.6
    X_C16_P8  QMAX_P8_Q1  99.2
    X_C16_P8  QMAX_P8_Q2  108.6
    X_C16_P8  QMAX_P8_Q3  102
    X_C16_P8  QMAX_P8_Q4  114.5
    X_C16_P8  QMAX_P8_Q5  142
    X_C16_P9  PROFIT    75
    X_C16_P9  BAL_P9    1
    X_C16_P9  AVAIL_C16  1
    X_C16_P9  QMIN_P9_Q0  85.6
    X_C16_P9  QMIN_P9_Q1  99.2
    X_C16_P9  QMIN_P9_Q2  108.6
    X_C16_P9  QMIN_P9_Q3  102
    X_C16_P9  QMIN_P9_Q4  114.5
    X_C16_P9  QMIN_P9_Q5  142
    X_C16_P9  QMAX_P9_Q0  85.6
    X_C16_P9  QMAX_P9_Q1  99.2
    X_C16_P9  QMAX_P9_Q2  108.6
    X_C16_P9  QMAX_P9_Q3  102
    X_C16_P9  QMAX_P9_Q4  114.5
    X_C16_P9  QMAX_P9_Q5  142
    X_C17_P0  PROFIT    46.7
    X_C17_P0  BAL_P0    1
    X_C17_P0  AVAIL_C17  1
    X_C17_P0  QMIN_P0_Q0  84.8
    X_C17_P0  QMIN_P0_Q1  103.2
    X_C17_P0  QMIN_P0_Q2  91.8
    X_C17_P0  QMIN_P0_Q3  105.8
    X_C17_P0  QMIN_P0_Q4  132.5
    X_C17_P0  QMIN_P0_Q5  131.1
    X_C17_P0  QMAX_P0_Q0  84.8
    X_C17_P0  QMAX_P0_Q1  103.2
    X_C17_P0  QMAX_P0_Q2  91.8
    X_C17_P0  QMAX_P0_Q3  105.8
    X_C17_P0  QMAX_P0_Q4  132.5
    X_C17_P0  QMAX_P0_Q5  131.1
    X_C17_P1  PROFIT    46.7
    X_C17_P1  BAL_P1    1
    X_C17_P1  AVAIL_C17  1
    X_C17_P1  QMIN_P1_Q0  84.8
    X_C17_P1  QMIN_P1_Q1  103.2
    X_C17_P1  QMIN_P1_Q2  91.8
    X_C17_P1  QMIN_P1_Q3  105.8
    X_C17_P1  QMIN_P1_Q4  132.5
    X_C17_P1  QMIN_P1_Q5  131.1
    X_C17_P1  QMAX_P1_Q0  84.8
    X_C17_P1  QMAX_P1_Q1  103.2
    X_C17_P1  QMAX_P1_Q2  91.8
    X_C17_P1  QMAX_P1_Q3  105.8
    X_C17_P1  QMAX_P1_Q4  132.5
    X_C17_P1  QMAX_P1_Q5  131.1
    X_C17_P2  PROFIT    46.7
    X_C17_P2  BAL_P2    1
    X_C17_P2  AVAIL_C17  1
    X_C17_P2  QMIN_P2_Q0  84.8
    X_C17_P2  QMIN_P2_Q1  103.2
    X_C17_P2  QMIN_P2_Q2  91.8
    X_C17_P2  QMIN_P2_Q3  105.8
    X_C17_P2  QMIN_P2_Q4  132.5
    X_C17_P2  QMIN_P2_Q5  131.1
    X_C17_P2  QMAX_P2_Q0  84.8
    X_C17_P2  QMAX_P2_Q1  103.2
    X_C17_P2  QMAX_P2_Q2  91.8
    X_C17_P2  QMAX_P2_Q3  105.8
    X_C17_P2  QMAX_P2_Q4  132.5
    X_C17_P2  QMAX_P2_Q5  131.1
    X_C17_P3  PROFIT    46.7
    X_C17_P3  BAL_P3    1
    X_C17_P3  AVAIL_C17  1
    X_C17_P3  QMIN_P3_Q0  84.8
    X_C17_P3  QMIN_P3_Q1  103.2
    X_C17_P3  QMIN_P3_Q2  91.8
    X_C17_P3  QMIN_P3_Q3  105.8
    X_C17_P3  QMIN_P3_Q4  132.5
    X_C17_P3  QMIN_P3_Q5  131.1
    X_C17_P3  QMAX_P3_Q0  84.8
    X_C17_P3  QMAX_P3_Q1  103.2
    X_C17_P3  QMAX_P3_Q2  91.8
    X_C17_P3  QMAX_P3_Q3  105.8
    X_C17_P3  QMAX_P3_Q4  132.5
    X_C17_P3  QMAX_P3_Q5  131.1
    X_C17_P4  PROFIT    46.7
    X_C17_P4  BAL_P4    1
    X_C17_P4  AVAIL_C17  1
    X_C17_P4  QMIN_P4_Q0  84.8
    X_C17_P4  QMIN_P4_Q1  103.2
    X_C17_P4  QMIN_P4_Q2  91.8
    X_C17_P4  QMIN_P4_Q3  105.8
    X_C17_P4  QMIN_P4_Q4  132.5
    X_C17_P4  QMIN_P4_Q5  131.1
    X_C17_P4  QMAX_P4_Q0  84.8
    X_C17_P4  QMAX_P4_Q1  103.2
    X_C17_P4  QMAX_P4_Q2  91.8
    X_C17_P4  QMAX_P4_Q3  105.8
    X_C17_P4  QMAX_P4_Q4  132.5
    X_C17_P4  QMAX_P4_Q5  131.1
    X_C17_P5  PROFIT    46.7
    X_C17_P5  BAL_P5    1
    X_C17_P5  AVAIL_C17  1
    X_C17_P5  QMIN_P5_Q0  84.8
    X_C17_P5  QMIN_P5_Q1  103.2
    X_C17_P5  QMIN_P5_Q2  91.8
    X_C17_P5  QMIN_P5_Q3  105.8
    X_C17_P5  QMIN_P5_Q4  132.5
    X_C17_P5  QMIN_P5_Q5  131.1
    X_C17_P5  QMAX_P5_Q0  84.8
    X_C17_P5  QMAX_P5_Q1  103.2
    X_C17_P5  QMAX_P5_Q2  91.8
    X_C17_P5  QMAX_P5_Q3  105.8
    X_C17_P5  QMAX_P5_Q4  132.5
    X_C17_P5  QMAX_P5_Q5  131.1
    X_C17_P6  PROFIT    46.7
    X_C17_P6  BAL_P6    1
    X_C17_P6  AVAIL_C17  1
    X_C17_P6  QMIN_P6_Q0  84.8
    X_C17_P6  QMIN_P6_Q1  103.2
    X_C17_P6  QMIN_P6_Q2  91.8
    X_C17_P6  QMIN_P6_Q3  105.8
    X_C17_P6  QMIN_P6_Q4  132.5
    X_C17_P6  QMIN_P6_Q5  131.1
    X_C17_P6  QMAX_P6_Q0  84.8
    X_C17_P6  QMAX_P6_Q1  103.2
    X_C17_P6  QMAX_P6_Q2  91.8
    X_C17_P6  QMAX_P6_Q3  105.8
    X_C17_P6  QMAX_P6_Q4  132.5
    X_C17_P6  QMAX_P6_Q5  131.1
    X_C17_P7  PROFIT    46.7
    X_C17_P7  BAL_P7    1
    X_C17_P7  AVAIL_C17  1
    X_C17_P7  QMIN_P7_Q0  84.8
    X_C17_P7  QMIN_P7_Q1  103.2
    X_C17_P7  QMIN_P7_Q2  91.8
    X_C17_P7  QMIN_P7_Q3  105.8
    X_C17_P7  QMIN_P7_Q4  132.5
    X_C17_P7  QMIN_P7_Q5  131.1
    X_C17_P7  QMAX_P7_Q0  84.8
    X_C17_P7  QMAX_P7_Q1  103.2
    X_C17_P7  QMAX_P7_Q2  91.8
    X_C17_P7  QMAX_P7_Q3  105.8
    X_C17_P7  QMAX_P7_Q4  132.5
    X_C17_P7  QMAX_P7_Q5  131.1
    X_C17_P8  PROFIT    46.7
    X_C17_P8  BAL_P8    1
    X_C17_P8  AVAIL_C17  1
    X_C17_P8  QMIN_P8_Q0  84.8
    X_C17_P8  QMIN_P8_Q1  103.2
    X_C17_P8  QMIN_P8_Q2  91.8
    X_C17_P8  QMIN_P8_Q3  105.8
    X_C17_P8  QMIN_P8_Q4  132.5
    X_C17_P8  QMIN_P8_Q5  131.1
    X_C17_P8  QMAX_P8_Q0  84.8
    X_C17_P8  QMAX_P8_Q1  103.2
    X_C17_P8  QMAX_P8_Q2  91.8
    X_C17_P8  QMAX_P8_Q3  105.8
    X_C17_P8  QMAX_P8_Q4  132.5
    X_C17_P8  QMAX_P8_Q5  131.1
    X_C17_P9  PROFIT    46.7
    X_C17_P9  BAL_P9    1
    X_C17_P9  AVAIL_C17  1
    X_C17_P9  QMIN_P9_Q0  84.8
    X_C17_P9  QMIN_P9_Q1  103.2
    X_C17_P9  QMIN_P9_Q2  91.8
    X_C17_P9  QMIN_P9_Q3  105.8
    X_C17_P9  QMIN_P9_Q4  132.5
    X_C17_P9  QMIN_P9_Q5  131.1
    X_C17_P9  QMAX_P9_Q0  84.8
    X_C17_P9  QMAX_P9_Q1  103.2
    X_C17_P9  QMAX_P9_Q2  91.8
    X_C17_P9  QMAX_P9_Q3  105.8
    X_C17_P9  QMAX_P9_Q4  132.5
    X_C17_P9  QMAX_P9_Q5  131.1
    X_C18_P0  PROFIT    74.7
    X_C18_P0  BAL_P0    1
    X_C18_P0  AVAIL_C18  1
    X_C18_P0  QMIN_P0_Q0  83
    X_C18_P0  QMIN_P0_Q1  104.9
    X_C18_P0  QMIN_P0_Q2  95.2
    X_C18_P0  QMIN_P0_Q3  110.8
    X_C18_P0  QMIN_P0_Q4  129.9
    X_C18_P0  QMIN_P0_Q5  125.2
    X_C18_P0  QMAX_P0_Q0  83
    X_C18_P0  QMAX_P0_Q1  104.9
    X_C18_P0  QMAX_P0_Q2  95.2
    X_C18_P0  QMAX_P0_Q3  110.8
    X_C18_P0  QMAX_P0_Q4  129.9
    X_C18_P0  QMAX_P0_Q5  125.2
    X_C18_P1  PROFIT    74.7
    X_C18_P1  BAL_P1    1
    X_C18_P1  AVAIL_C18  1
    X_C18_P1  QMIN_P1_Q0  83
    X_C18_P1  QMIN_P1_Q1  104.9
    X_C18_P1  QMIN_P1_Q2  95.2
    X_C18_P1  QMIN_P1_Q3  110.8
    X_C18_P1  QMIN_P1_Q4  129.9
    X_C18_P1  QMIN_P1_Q5  125.2
    X_C18_P1  QMAX_P1_Q0  83
    X_C18_P1  QMAX_P1_Q1  104.9
    X_C18_P1  QMAX_P1_Q2  95.2
    X_C18_P1  QMAX_P1_Q3  110.8
    X_C18_P1  QMAX_P1_Q4  129.9
    X_C18_P1  QMAX_P1_Q5  125.2
    X_C18_P2  PROFIT    74.7
    X_C18_P2  BAL_P2    1
    X_C18_P2  AVAIL_C18  1
    X_C18_P2  QMIN_P2_Q0  83
    X_C18_P2  QMIN_P2_Q1  104.9
    X_C18_P2  QMIN_P2_Q2  95.2
    X_C18_P2  QMIN_P2_Q3  110.8
    X_C18_P2  QMIN_P2_Q4  129.9
    X_C18_P2  QMIN_P2_Q5  125.2
    X_C18_P2  QMAX_P2_Q0  83
    X_C18_P2  QMAX_P2_Q1  104.9
    X_C18_P2  QMAX_P2_Q2  95.2
    X_C18_P2  QMAX_P2_Q3  110.8
    X_C18_P2  QMAX_P2_Q4  129.9
    X_C18_P2  QMAX_P2_Q5  125.2
    X_C18_P3  PROFIT    74.7
    X_C18_P3  BAL_P3    1
    X_C18_P3  AVAIL_C18  1
    X_C18_P3  QMIN_P3_Q0  83
    X_C18_P3  QMIN_P3_Q1  104.9
    X_C18_P3  QMIN_P3_Q2  95.2
    X_C18_P3  QMIN_P3_Q3  110.8
    X_C18_P3  QMIN_P3_Q4  129.9
    X_C18_P3  QMIN_P3_Q5  125.2
    X_C18_P3  QMAX_P3_Q0  83
    X_C18_P3  QMAX_P3_Q1  104.9
    X_C18_P3  QMAX_P3_Q2  95.2
    X_C18_P3  QMAX_P3_Q3  110.8
    X_C18_P3  QMAX_P3_Q4  129.9
    X_C18_P3  QMAX_P3_Q5  125.2
    X_C18_P4  PROFIT    74.7
    X_C18_P4  BAL_P4    1
    X_C18_P4  AVAIL_C18  1
    X_C18_P4  QMIN_P4_Q0  83
    X_C18_P4  QMIN_P4_Q1  104.9
    X_C18_P4  QMIN_P4_Q2  95.2
    X_C18_P4  QMIN_P4_Q3  110.8
    X_C18_P4  QMIN_P4_Q4  129.9
    X_C18_P4  QMIN_P4_Q5  125.2
    X_C18_P4  QMAX_P4_Q0  83
    X_C18_P4  QMAX_P4_Q1  104.9
    X_C18_P4  QMAX_P4_Q2  95.2
    X_C18_P4  QMAX_P4_Q3  110.8
    X_C18_P4  QMAX_P4_Q4  129.9
    X_C18_P4  QMAX_P4_Q5  125.2
    X_C18_P5  PROFIT    74.7
    X_C18_P5  BAL_P5    1
    X_C18_P5  AVAIL_C18  1
    X_C18_P5  QMIN_P5_Q0  83
    X_C18_P5  QMIN_P5_Q1  104.9
    X_C18_P5  QMIN_P5_Q2  95.2
    X_C18_P5  QMIN_P5_Q3  110.8
    X_C18_P5  QMIN_P5_Q4  129.9
    X_C18_P5  QMIN_P5_Q5  125.2
    X_C18_P5  QMAX_P5_Q0  83
    X_C18_P5  QMAX_P5_Q1  104.9
    X_C18_P5  QMAX_P5_Q2  95.2
    X_C18_P5  QMAX_P5_Q3  110.8
    X_C18_P5  QMAX_P5_Q4  129.9
    X_C18_P5  QMAX_P5_Q5  125.2
    X_C18_P6  PROFIT    74.7
    X_C18_P6  BAL_P6    1
    X_C18_P6  AVAIL_C18  1
    X_C18_P6  QMIN_P6_Q0  83
    X_C18_P6  QMIN_P6_Q1  104.9
    X_C18_P6  QMIN_P6_Q2  95.2
    X_C18_P6  QMIN_P6_Q3  110.8
    X_C18_P6  QMIN_P6_Q4  129.9
    X_C18_P6  QMIN_P6_Q5  125.2
    X_C18_P6  QMAX_P6_Q0  83
    X_C18_P6  QMAX_P6_Q1  104.9
    X_C18_P6  QMAX_P6_Q2  95.2
    X_C18_P6  QMAX_P6_Q3  110.8
    X_C18_P6  QMAX_P6_Q4  129.9
    X_C18_P6  QMAX_P6_Q5  125.2
    X_C18_P7  PROFIT    74.7
    X_C18_P7  BAL_P7    1
    X_C18_P7  AVAIL_C18  1
    X_C18_P7  QMIN_P7_Q0  83
    X_C18_P7  QMIN_P7_Q1  104.9
    X_C18_P7  QMIN_P7_Q2  95.2
    X_C18_P7  QMIN_P7_Q3  110.8
    X_C18_P7  QMIN_P7_Q4  129.9
    X_C18_P7  QMIN_P7_Q5  125.2
    X_C18_P7  QMAX_P7_Q0  83
    X_C18_P7  QMAX_P7_Q1  104.9
    X_C18_P7  QMAX_P7_Q2  95.2
    X_C18_P7  QMAX_P7_Q3  110.8
    X_C18_P7  QMAX_P7_Q4  129.9
    X_C18_P7  QMAX_P7_Q5  125.2
    X_C18_P8  PROFIT    74.7
    X_C18_P8  BAL_P8    1
    X_C18_P8  AVAIL_C18  1
    X_C18_P8  QMIN_P8_Q0  83
    X_C18_P8  QMIN_P8_Q1  104.9
    X_C18_P8  QMIN_P8_Q2  95.2
    X_C18_P8  QMIN_P8_Q3  110.8
    X_C18_P8  QMIN_P8_Q4  129.9
    X_C18_P8  QMIN_P8_Q5  125.2
    X_C18_P8  QMAX_P8_Q0  83
    X_C18_P8  QMAX_P8_Q1  104.9
    X_C18_P8  QMAX_P8_Q2  95.2
    X_C18_P8  QMAX_P8_Q3  110.8
    X_C18_P8  QMAX_P8_Q4  129.9
    X_C18_P8  QMAX_P8_Q5  125.2
    X_C18_P9  PROFIT    74.7
    X_C18_P9  BAL_P9    1
    X_C18_P9  AVAIL_C18  1
    X_C18_P9  QMIN_P9_Q0  83
    X_C18_P9  QMIN_P9_Q1  104.9
    X_C18_P9  QMIN_P9_Q2  95.2
    X_C18_P9  QMIN_P9_Q3  110.8
    X_C18_P9  QMIN_P9_Q4  129.9
    X_C18_P9  QMIN_P9_Q5  125.2
    X_C18_P9  QMAX_P9_Q0  83
    X_C18_P9  QMAX_P9_Q1  104.9
    X_C18_P9  QMAX_P9_Q2  95.2
    X_C18_P9  QMAX_P9_Q3  110.8
    X_C18_P9  QMAX_P9_Q4  129.9
    X_C18_P9  QMAX_P9_Q5  125.2
    X_C19_P0  PROFIT    56.9
    X_C19_P0  BAL_P0    1
    X_C19_P0  AVAIL_C19  1
    X_C19_P0  QMIN_P0_Q0  85.3
    X_C19_P0  QMIN_P0_Q1  89.8
    X_C19_P0  QMIN_P0_Q2  105.8
    X_C19_P0  QMIN_P0_Q3  111.8
    X_C19_P0  QMIN_P0_Q4  120.2
    X_C19_P0  QMIN_P0_Q5  124.1
    X_C19_P0  QMAX_P0_Q0  85.3
    X_C19_P0  QMAX_P0_Q1  89.8
    X_C19_P0  QMAX_P0_Q2  105.8
    X_C19_P0  QMAX_P0_Q3  111.8
    X_C19_P0  QMAX_P0_Q4  120.2
    X_C19_P0  QMAX_P0_Q5  124.1
    X_C19_P1  PROFIT    56.9
    X_C19_P1  BAL_P1    1
    X_C19_P1  AVAIL_C19  1
    X_C19_P1  QMIN_P1_Q0  85.3
    X_C19_P1  QMIN_P1_Q1  89.8
    X_C19_P1  QMIN_P1_Q2  105.8
    X_C19_P1  QMIN_P1_Q3  111.8
    X_C19_P1  QMIN_P1_Q4  120.2
    X_C19_P1  QMIN_P1_Q5  124.1
    X_C19_P1  QMAX_P1_Q0  85.3
    X_C19_P1  QMAX_P1_Q1  89.8
    X_C19_P1  QMAX_P1_Q2  105.8
    X_C19_P1  QMAX_P1_Q3  111.8
    X_C19_P1  QMAX_P1_Q4  120.2
    X_C19_P1  QMAX_P1_Q5  124.1
    X_C19_P2  PROFIT    56.9
    X_C19_P2  BAL_P2    1
    X_C19_P2  AVAIL_C19  1
    X_C19_P2  QMIN_P2_Q0  85.3
    X_C19_P2  QMIN_P2_Q1  89.8
    X_C19_P2  QMIN_P2_Q2  105.8
    X_C19_P2  QMIN_P2_Q3  111.8
    X_C19_P2  QMIN_P2_Q4  120.2
    X_C19_P2  QMIN_P2_Q5  124.1
    X_C19_P2  QMAX_P2_Q0  85.3
    X_C19_P2  QMAX_P2_Q1  89.8
    X_C19_P2  QMAX_P2_Q2  105.8
    X_C19_P2  QMAX_P2_Q3  111.8
    X_C19_P2  QMAX_P2_Q4  120.2
    X_C19_P2  QMAX_P2_Q5  124.1
    X_C19_P3  PROFIT    56.9
    X_C19_P3  BAL_P3    1
    X_C19_P3  AVAIL_C19  1
    X_C19_P3  QMIN_P3_Q0  85.3
    X_C19_P3  QMIN_P3_Q1  89.8
    X_C19_P3  QMIN_P3_Q2  105.8
    X_C19_P3  QMIN_P3_Q3  111.8
    X_C19_P3  QMIN_P3_Q4  120.2
    X_C19_P3  QMIN_P3_Q5  124.1
    X_C19_P3  QMAX_P3_Q0  85.3
    X_C19_P3  QMAX_P3_Q1  89.8
    X_C19_P3  QMAX_P3_Q2  105.8
    X_C19_P3  QMAX_P3_Q3  111.8
    X_C19_P3  QMAX_P3_Q4  120.2
    X_C19_P3  QMAX_P3_Q5  124.1
    X_C19_P4  PROFIT    56.9
    X_C19_P4  BAL_P4    1
    X_C19_P4  AVAIL_C19  1
    X_C19_P4  QMIN_P4_Q0  85.3
    X_C19_P4  QMIN_P4_Q1  89.8
    X_C19_P4  QMIN_P4_Q2  105.8
    X_C19_P4  QMIN_P4_Q3  111.8
    X_C19_P4  QMIN_P4_Q4  120.2
    X_C19_P4  QMIN_P4_Q5  124.1
    X_C19_P4  QMAX_P4_Q0  85.3
    X_C19_P4  QMAX_P4_Q1  89.8
    X_C19_P4  QMAX_P4_Q2  105.8
    X_C19_P4  QMAX_P4_Q3  111.8
    X_C19_P4  QMAX_P4_Q4  120.2
    X_C19_P4  QMAX_P4_Q5  124.1
    X_C19_P5  PROFIT    56.9
    X_C19_P5  BAL_P5    1
    X_C19_P5  AVAIL_C19  1
    X_C19_P5  QMIN_P5_Q0  85.3
    X_C19_P5  QMIN_P5_Q1  89.8
    X_C19_P5  QMIN_P5_Q2  105.8
    X_C19_P5  QMIN_P5_Q3  111.8
    X_C19_P5  QMIN_P5_Q4  120.2
    X_C19_P5  QMIN_P5_Q5  124.1
    X_C19_P5  QMAX_P5_Q0  85.3
    X_C19_P5  QMAX_P5_Q1  89.8
    X_C19_P5  QMAX_P5_Q2  105.8
    X_C19_P5  QMAX_P5_Q3  111.8
    X_C19_P5  QMAX_P5_Q4  120.2
    X_C19_P5  QMAX_P5_Q5  124.1
    X_C19_P6  PROFIT    56.9
    X_C19_P6  BAL_P6    1
    X_C19_P6  AVAIL_C19  1
    X_C19_P6  QMIN_P6_Q0  85.3
    X_C19_P6  QMIN_P6_Q1  89.8
    X_C19_P6  QMIN_P6_Q2  105.8
    X_C19_P6  QMIN_P6_Q3  111.8
    X_C19_P6  QMIN_P6_Q4  120.2
    X_C19_P6  QMIN_P6_Q5  124.1
    X_C19_P6  QMAX_P6_Q0  85.3
    X_C19_P6  QMAX_P6_Q1  89.8
    X_C19_P6  QMAX_P6_Q2  105.8
    X_C19_P6  QMAX_P6_Q3  111.8
    X_C19_P6  QMAX_P6_Q4  120.2
    X_C19_P6  QMAX_P6_Q5  124.1
    X_C19_P7  PROFIT    56.9
    X_C19_P7  BAL_P7    1
    X_C19_P7  AVAIL_C19  1
    X_C19_P7  QMIN_P7_Q0  85.3
    X_C19_P7  QMIN_P7_Q1  89.8
    X_C19_P7  QMIN_P7_Q2  105.8
    X_C19_P7  QMIN_P7_Q3  111.8
    X_C19_P7  QMIN_P7_Q4  120.2
    X_C19_P7  QMIN_P7_Q5  124.1
    X_C19_P7  QMAX_P7_Q0  85.3
    X_C19_P7  QMAX_P7_Q1  89.8
    X_C19_P7  QMAX_P7_Q2  105.8
    X_C19_P7  QMAX_P7_Q3  111.8
    X_C19_P7  QMAX_P7_Q4  120.2
    X_C19_P7  QMAX_P7_Q5  124.1
    X_C19_P8  PROFIT    56.9
    X_C19_P8  BAL_P8    1
    X_C19_P8  AVAIL_C19  1
    X_C19_P8  QMIN_P8_Q0  85.3
    X_C19_P8  QMIN_P8_Q1  89.8
    X_C19_P8  QMIN_P8_Q2  105.8
    X_C19_P8  QMIN_P8_Q3  111.8
    X_C19_P8  QMIN_P8_Q4  120.2
    X_C19_P8  QMIN_P8_Q5  124.1
    X_C19_P8  QMAX_P8_Q0  85.3
    X_C19_P8  QMAX_P8_Q1  89.8
    X_C19_P8  QMAX_P8_Q2  105.8
    X_C19_P8  QMAX_P8_Q3  111.8
    X_C19_P8  QMAX_P8_Q4  120.2
    X_C19_P8  QMAX_P8_Q5  124.1
    X_C19_P9  PROFIT    56.9
    X_C19_P9  BAL_P9    1
    X_C19_P9  AVAIL_C19  1
    X_C19_P9  QMIN_P9_Q0  85.3
    X_C19_P9  QMIN_P9_Q1  89.8
    X_C19_P9  QMIN_P9_Q2  105.8
    X_C19_P9  QMIN_P9_Q3  111.8
    X_C19_P9  QMIN_P9_Q4  120.2
    X_C19_P9  QMIN_P9_Q5  124.1
    X_C19_P9  QMAX_P9_Q0  85.3
    X_C19_P9  QMAX_P9_Q1  89.8
    X_C19_P9  QMAX_P9_Q2  105.8
    X_C19_P9  QMAX_P9_Q3  111.8
    X_C19_P9  QMAX_P9_Q4  120.2
    X_C19_P9  QMAX_P9_Q5  124.1
    X_C20_P0  PROFIT    73
    X_C20_P0  BAL_P0    1
    X_C20_P0  AVAIL_C20  1
    X_C20_P0  QMIN_P0_Q0  71.5
    X_C20_P0  QMIN_P0_Q1  89.3
    X_C20_P0  QMIN_P0_Q2  101.1
    X_C20_P0  QMIN_P0_Q3  105.4
    X_C20_P0  QMIN_P0_Q4  112.5
    X_C20_P0  QMIN_P0_Q5  124.3
    X_C20_P0  QMAX_P0_Q0  71.5
    X_C20_P0  QMAX_P0_Q1  89.3
    X_C20_P0  QMAX_P0_Q2  101.1
    X_C20_P0  QMAX_P0_Q3  105.4
    X_C20_P0  QMAX_P0_Q4  112.5
    X_C20_P0  QMAX_P0_Q5  124.3
    X_C20_P1  PROFIT    73
    X_C20_P1  BAL_P1    1
    X_C20_P1  AVAIL_C20  1
    X_C20_P1  QMIN_P1_Q0  71.5
    X_C20_P1  QMIN_P1_Q1  89.3
    X_C20_P1  QMIN_P1_Q2  101.1
    X_C20_P1  QMIN_P1_Q3  105.4
    X_C20_P1  QMIN_P1_Q4  112.5
    X_C20_P1  QMIN_P1_Q5  124.3
    X_C20_P1  QMAX_P1_Q0  71.5
    X_C20_P1  QMAX_P1_Q1  89.3
    X_C20_P1  QMAX_P1_Q2  101.1
    X_C20_P1  QMAX_P1_Q3  105.4
    X_C20_P1  QMAX_P1_Q4  112.5
    X_C20_P1  QMAX_P1_Q5  124.3
    X_C20_P2  PROFIT    73
    X_C20_P2  BAL_P2    1
    X_C20_P2  AVAIL_C20  1
    X_C20_P2  QMIN_P2_Q0  71.5
    X_C20_P2  QMIN_P2_Q1  89.3
    X_C20_P2  QMIN_P2_Q2  101.1
    X_C20_P2  QMIN_P2_Q3  105.4
    X_C20_P2  QMIN_P2_Q4  112.5
    X_C20_P2  QMIN_P2_Q5  124.3
    X_C20_P2  QMAX_P2_Q0  71.5
    X_C20_P2  QMAX_P2_Q1  89.3
    X_C20_P2  QMAX_P2_Q2  101.1
    X_C20_P2  QMAX_P2_Q3  105.4
    X_C20_P2  QMAX_P2_Q4  112.5
    X_C20_P2  QMAX_P2_Q5  124.3
    X_C20_P3  PROFIT    73
    X_C20_P3  BAL_P3    1
    X_C20_P3  AVAIL_C20  1
    X_C20_P3  QMIN_P3_Q0  71.5
    X_C20_P3  QMIN_P3_Q1  89.3
    X_C20_P3  QMIN_P3_Q2  101.1
    X_C20_P3  QMIN_P3_Q3  105.4
    X_C20_P3  QMIN_P3_Q4  112.5
    X_C20_P3  QMIN_P3_Q5  124.3
    X_C20_P3  QMAX_P3_Q0  71.5
    X_C20_P3  QMAX_P3_Q1  89.3
    X_C20_P3  QMAX_P3_Q2  101.1
    X_C20_P3  QMAX_P3_Q3  105.4
    X_C20_P3  QMAX_P3_Q4  112.5
    X_C20_P3  QMAX_P3_Q5  124.3
    X_C20_P4  PROFIT    73
    X_C20_P4  BAL_P4    1
    X_C20_P4  AVAIL_C20  1
    X_C20_P4  QMIN_P4_Q0  71.5
    X_C20_P4  QMIN_P4_Q1  89.3
    X_C20_P4  QMIN_P4_Q2  101.1
    X_C20_P4  QMIN_P4_Q3  105.4
    X_C20_P4  QMIN_P4_Q4  112.5
    X_C20_P4  QMIN_P4_Q5  124.3
    X_C20_P4  QMAX_P4_Q0  71.5
    X_C20_P4  QMAX_P4_Q1  89.3
    X_C20_P4  QMAX_P4_Q2  101.1
    X_C20_P4  QMAX_P4_Q3  105.4
    X_C20_P4  QMAX_P4_Q4  112.5
    X_C20_P4  QMAX_P4_Q5  124.3
    X_C20_P5  PROFIT    73
    X_C20_P5  BAL_P5    1
    X_C20_P5  AVAIL_C20  1
    X_C20_P5  QMIN_P5_Q0  71.5
    X_C20_P5  QMIN_P5_Q1  89.3
    X_C20_P5  QMIN_P5_Q2  101.1
    X_C20_P5  QMIN_P5_Q3  105.4
    X_C20_P5  QMIN_P5_Q4  112.5
    X_C20_P5  QMIN_P5_Q5  124.3
    X_C20_P5  QMAX_P5_Q0  71.5
    X_C20_P5  QMAX_P5_Q1  89.3
    X_C20_P5  QMAX_P5_Q2  101.1
    X_C20_P5  QMAX_P5_Q3  105.4
    X_C20_P5  QMAX_P5_Q4  112.5
    X_C20_P5  QMAX_P5_Q5  124.3
    X_C20_P6  PROFIT    73
    X_C20_P6  BAL_P6    1
    X_C20_P6  AVAIL_C20  1
    X_C20_P6  QMIN_P6_Q0  71.5
    X_C20_P6  QMIN_P6_Q1  89.3
    X_C20_P6  QMIN_P6_Q2  101.1
    X_C20_P6  QMIN_P6_Q3  105.4
    X_C20_P6  QMIN_P6_Q4  112.5
    X_C20_P6  QMIN_P6_Q5  124.3
    X_C20_P6  QMAX_P6_Q0  71.5
    X_C20_P6  QMAX_P6_Q1  89.3
    X_C20_P6  QMAX_P6_Q2  101.1
    X_C20_P6  QMAX_P6_Q3  105.4
    X_C20_P6  QMAX_P6_Q4  112.5
    X_C20_P6  QMAX_P6_Q5  124.3
    X_C20_P7  PROFIT    73
    X_C20_P7  BAL_P7    1
    X_C20_P7  AVAIL_C20  1
    X_C20_P7  QMIN_P7_Q0  71.5
    X_C20_P7  QMIN_P7_Q1  89.3
    X_C20_P7  QMIN_P7_Q2  101.1
    X_C20_P7  QMIN_P7_Q3  105.4
    X_C20_P7  QMIN_P7_Q4  112.5
    X_C20_P7  QMIN_P7_Q5  124.3
    X_C20_P7  QMAX_P7_Q0  71.5
    X_C20_P7  QMAX_P7_Q1  89.3
    X_C20_P7  QMAX_P7_Q2  101.1
    X_C20_P7  QMAX_P7_Q3  105.4
    X_C20_P7  QMAX_P7_Q4  112.5
    X_C20_P7  QMAX_P7_Q5  124.3
    X_C20_P8  PROFIT    73
    X_C20_P8  BAL_P8    1
    X_C20_P8  AVAIL_C20  1
    X_C20_P8  QMIN_P8_Q0  71.5
    X_C20_P8  QMIN_P8_Q1  89.3
    X_C20_P8  QMIN_P8_Q2  101.1
    X_C20_P8  QMIN_P8_Q3  105.4
    X_C20_P8  QMIN_P8_Q4  112.5
    X_C20_P8  QMIN_P8_Q5  124.3
    X_C20_P8  QMAX_P8_Q0  71.5
    X_C20_P8  QMAX_P8_Q1  89.3
    X_C20_P8  QMAX_P8_Q2  101.1
    X_C20_P8  QMAX_P8_Q3  105.4
    X_C20_P8  QMAX_P8_Q4  112.5
    X_C20_P8  QMAX_P8_Q5  124.3
    X_C20_P9  PROFIT    73
    X_C20_P9  BAL_P9    1
    X_C20_P9  AVAIL_C20  1
    X_C20_P9  QMIN_P9_Q0  71.5
    X_C20_P9  QMIN_P9_Q1  89.3
    X_C20_P9  QMIN_P9_Q2  101.1
    X_C20_P9  QMIN_P9_Q3  105.4
    X_C20_P9  QMIN_P9_Q4  112.5
    X_C20_P9  QMIN_P9_Q5  124.3
    X_C20_P9  QMAX_P9_Q0  71.5
    X_C20_P9  QMAX_P9_Q1  89.3
    X_C20_P9  QMAX_P9_Q2  101.1
    X_C20_P9  QMAX_P9_Q3  105.4
    X_C20_P9  QMAX_P9_Q4  112.5
    X_C20_P9  QMAX_P9_Q5  124.3
    X_C21_P0  PROFIT    66.5
    X_C21_P0  BAL_P0    1
    X_C21_P0  AVAIL_C21  1
    X_C21_P0  QMIN_P0_Q0  79.2
    X_C21_P0  QMIN_P0_Q1  100.8
    X_C21_P0  QMIN_P0_Q2  98.3
    X_C21_P0  QMIN_P0_Q3  115
    X_C21_P0  QMIN_P0_Q4  126.9
    X_C21_P0  QMIN_P0_Q5  124
    X_C21_P0  QMAX_P0_Q0  79.2
    X_C21_P0  QMAX_P0_Q1  100.8
    X_C21_P0  QMAX_P0_Q2  98.3
    X_C21_P0  QMAX_P0_Q3  115
    X_C21_P0  QMAX_P0_Q4  126.9
    X_C21_P0  QMAX_P0_Q5  124
    X_C21_P1  PROFIT    66.5
    X_C21_P1  BAL_P1    1
    X_C21_P1  AVAIL_C21  1
    X_C21_P1  QMIN_P1_Q0  79.2
    X_C21_P1  QMIN_P1_Q1  100.8
    X_C21_P1  QMIN_P1_Q2  98.3
    X_C21_P1  QMIN_P1_Q3  115
    X_C21_P1  QMIN_P1_Q4  126.9
    X_C21_P1  QMIN_P1_Q5  124
    X_C21_P1  QMAX_P1_Q0  79.2
    X_C21_P1  QMAX_P1_Q1  100.8
    X_C21_P1  QMAX_P1_Q2  98.3
    X_C21_P1  QMAX_P1_Q3  115
    X_C21_P1  QMAX_P1_Q4  126.9
    X_C21_P1  QMAX_P1_Q5  124
    X_C21_P2  PROFIT    66.5
    X_C21_P2  BAL_P2    1
    X_C21_P2  AVAIL_C21  1
    X_C21_P2  QMIN_P2_Q0  79.2
    X_C21_P2  QMIN_P2_Q1  100.8
    X_C21_P2  QMIN_P2_Q2  98.3
    X_C21_P2  QMIN_P2_Q3  115
    X_C21_P2  QMIN_P2_Q4  126.9
    X_C21_P2  QMIN_P2_Q5  124
    X_C21_P2  QMAX_P2_Q0  79.2
    X_C21_P2  QMAX_P2_Q1  100.8
    X_C21_P2  QMAX_P2_Q2  98.3
    X_C21_P2  QMAX_P2_Q3  115
    X_C21_P2  QMAX_P2_Q4  126.9
    X_C21_P2  QMAX_P2_Q5  124
    X_C21_P3  PROFIT    66.5
    X_C21_P3  BAL_P3    1
    X_C21_P3  AVAIL_C21  1
    X_C21_P3  QMIN_P3_Q0  79.2
    X_C21_P3  QMIN_P3_Q1  100.8
    X_C21_P3  QMIN_P3_Q2  98.3
    X_C21_P3  QMIN_P3_Q3  115
    X_C21_P3  QMIN_P3_Q4  126.9
    X_C21_P3  QMIN_P3_Q5  124
    X_C21_P3  QMAX_P3_Q0  79.2
    X_C21_P3  QMAX_P3_Q1  100.8
    X_C21_P3  QMAX_P3_Q2  98.3
    X_C21_P3  QMAX_P3_Q3  115
    X_C21_P3  QMAX_P3_Q4  126.9
    X_C21_P3  QMAX_P3_Q5  124
    X_C21_P4  PROFIT    66.5
    X_C21_P4  BAL_P4    1
    X_C21_P4  AVAIL_C21  1
    X_C21_P4  QMIN_P4_Q0  79.2
    X_C21_P4  QMIN_P4_Q1  100.8
    X_C21_P4  QMIN_P4_Q2  98.3
    X_C21_P4  QMIN_P4_Q3  115
    X_C21_P4  QMIN_P4_Q4  126.9
    X_C21_P4  QMIN_P4_Q5  124
    X_C21_P4  QMAX_P4_Q0  79.2
    X_C21_P4  QMAX_P4_Q1  100.8
    X_C21_P4  QMAX_P4_Q2  98.3
    X_C21_P4  QMAX_P4_Q3  115
    X_C21_P4  QMAX_P4_Q4  126.9
    X_C21_P4  QMAX_P4_Q5  124
    X_C21_P5  PROFIT    66.5
    X_C21_P5  BAL_P5    1
    X_C21_P5  AVAIL_C21  1
    X_C21_P5  QMIN_P5_Q0  79.2
    X_C21_P5  QMIN_P5_Q1  100.8
    X_C21_P5  QMIN_P5_Q2  98.3
    X_C21_P5  QMIN_P5_Q3  115
    X_C21_P5  QMIN_P5_Q4  126.9
    X_C21_P5  QMIN_P5_Q5  124
    X_C21_P5  QMAX_P5_Q0  79.2
    X_C21_P5  QMAX_P5_Q1  100.8
    X_C21_P5  QMAX_P5_Q2  98.3
    X_C21_P5  QMAX_P5_Q3  115
    X_C21_P5  QMAX_P5_Q4  126.9
    X_C21_P5  QMAX_P5_Q5  124
    X_C21_P6  PROFIT    66.5
    X_C21_P6  BAL_P6    1
    X_C21_P6  AVAIL_C21  1
    X_C21_P6  QMIN_P6_Q0  79.2
    X_C21_P6  QMIN_P6_Q1  100.8
    X_C21_P6  QMIN_P6_Q2  98.3
    X_C21_P6  QMIN_P6_Q3  115
    X_C21_P6  QMIN_P6_Q4  126.9
    X_C21_P6  QMIN_P6_Q5  124
    X_C21_P6  QMAX_P6_Q0  79.2
    X_C21_P6  QMAX_P6_Q1  100.8
    X_C21_P6  QMAX_P6_Q2  98.3
    X_C21_P6  QMAX_P6_Q3  115
    X_C21_P6  QMAX_P6_Q4  126.9
    X_C21_P6  QMAX_P6_Q5  124
    X_C21_P7  PROFIT    66.5
    X_C21_P7  BAL_P7    1
    X_C21_P7  AVAIL_C21  1
    X_C21_P7  QMIN_P7_Q0  79.2
    X_C21_P7  QMIN_P7_Q1  100.8
    X_C21_P7  QMIN_P7_Q2  98.3
    X_C21_P7  QMIN_P7_Q3  115
    X_C21_P7  QMIN_P7_Q4  126.9
    X_C21_P7  QMIN_P7_Q5  124
    X_C21_P7  QMAX_P7_Q0  79.2
    X_C21_P7  QMAX_P7_Q1  100.8
    X_C21_P7  QMAX_P7_Q2  98.3
    X_C21_P7  QMAX_P7_Q3  115
    X_C21_P7  QMAX_P7_Q4  126.9
    X_C21_P7  QMAX_P7_Q5  124
    X_C21_P8  PROFIT    66.5
    X_C21_P8  BAL_P8    1
    X_C21_P8  AVAIL_C21  1
    X_C21_P8  QMIN_P8_Q0  79.2
    X_C21_P8  QMIN_P8_Q1  100.8
    X_C21_P8  QMIN_P8_Q2  98.3
    X_C21_P8  QMIN_P8_Q3  115
    X_C21_P8  QMIN_P8_Q4  126.9
    X_C21_P8  QMIN_P8_Q5  124
    X_C21_P8  QMAX_P8_Q0  79.2
    X_C21_P8  QMAX_P8_Q1  100.8
    X_C21_P8  QMAX_P8_Q2  98.3
    X_C21_P8  QMAX_P8_Q3  115
    X_C21_P8  QMAX_P8_Q4  126.9
    X_C21_P8  QMAX_P8_Q5  124
    X_C21_P9  PROFIT    66.5
    X_C21_P9  BAL_P9    1
    X_C21_P9  AVAIL_C21  1
    X_C21_P9  QMIN_P9_Q0  79.2
    X_C21_P9  QMIN_P9_Q1  100.8
    X_C21_P9  QMIN_P9_Q2  98.3
    X_C21_P9  QMIN_P9_Q3  115
    X_C21_P9  QMIN_P9_Q4  126.9
    X_C21_P9  QMIN_P9_Q5  124
    X_C21_P9  QMAX_P9_Q0  79.2
    X_C21_P9  QMAX_P9_Q1  100.8
    X_C21_P9  QMAX_P9_Q2  98.3
    X_C21_P9  QMAX_P9_Q3  115
    X_C21_P9  QMAX_P9_Q4  126.9
    X_C21_P9  QMAX_P9_Q5  124
    X_C22_P0  PROFIT    53.5
    X_C22_P0  BAL_P0    1
    X_C22_P0  AVAIL_C22  1
    X_C22_P0  QMIN_P0_Q0  88.4
    X_C22_P0  QMIN_P0_Q1  99.1
    X_C22_P0  QMIN_P0_Q2  98.9
    X_C22_P0  QMIN_P0_Q3  124.8
    X_C22_P0  QMIN_P0_Q4  134.1
    X_C22_P0  QMIN_P0_Q5  123.1
    X_C22_P0  QMAX_P0_Q0  88.4
    X_C22_P0  QMAX_P0_Q1  99.1
    X_C22_P0  QMAX_P0_Q2  98.9
    X_C22_P0  QMAX_P0_Q3  124.8
    X_C22_P0  QMAX_P0_Q4  134.1
    X_C22_P0  QMAX_P0_Q5  123.1
    X_C22_P1  PROFIT    53.5
    X_C22_P1  BAL_P1    1
    X_C22_P1  AVAIL_C22  1
    X_C22_P1  QMIN_P1_Q0  88.4
    X_C22_P1  QMIN_P1_Q1  99.1
    X_C22_P1  QMIN_P1_Q2  98.9
    X_C22_P1  QMIN_P1_Q3  124.8
    X_C22_P1  QMIN_P1_Q4  134.1
    X_C22_P1  QMIN_P1_Q5  123.1
    X_C22_P1  QMAX_P1_Q0  88.4
    X_C22_P1  QMAX_P1_Q1  99.1
    X_C22_P1  QMAX_P1_Q2  98.9
    X_C22_P1  QMAX_P1_Q3  124.8
    X_C22_P1  QMAX_P1_Q4  134.1
    X_C22_P1  QMAX_P1_Q5  123.1
    X_C22_P2  PROFIT    53.5
    X_C22_P2  BAL_P2    1
    X_C22_P2  AVAIL_C22  1
    X_C22_P2  QMIN_P2_Q0  88.4
    X_C22_P2  QMIN_P2_Q1  99.1
    X_C22_P2  QMIN_P2_Q2  98.9
    X_C22_P2  QMIN_P2_Q3  124.8
    X_C22_P2  QMIN_P2_Q4  134.1
    X_C22_P2  QMIN_P2_Q5  123.1
    X_C22_P2  QMAX_P2_Q0  88.4
    X_C22_P2  QMAX_P2_Q1  99.1
    X_C22_P2  QMAX_P2_Q2  98.9
    X_C22_P2  QMAX_P2_Q3  124.8
    X_C22_P2  QMAX_P2_Q4  134.1
    X_C22_P2  QMAX_P2_Q5  123.1
    X_C22_P3  PROFIT    53.5
    X_C22_P3  BAL_P3    1
    X_C22_P3  AVAIL_C22  1
    X_C22_P3  QMIN_P3_Q0  88.4
    X_C22_P3  QMIN_P3_Q1  99.1
    X_C22_P3  QMIN_P3_Q2  98.9
    X_C22_P3  QMIN_P3_Q3  124.8
    X_C22_P3  QMIN_P3_Q4  134.1
    X_C22_P3  QMIN_P3_Q5  123.1
    X_C22_P3  QMAX_P3_Q0  88.4
    X_C22_P3  QMAX_P3_Q1  99.1
    X_C22_P3  QMAX_P3_Q2  98.9
    X_C22_P3  QMAX_P3_Q3  124.8
    X_C22_P3  QMAX_P3_Q4  134.1
    X_C22_P3  QMAX_P3_Q5  123.1
    X_C22_P4  PROFIT    53.5
    X_C22_P4  BAL_P4    1
    X_C22_P4  AVAIL_C22  1
    X_C22_P4  QMIN_P4_Q0  88.4
    X_C22_P4  QMIN_P4_Q1  99.1
    X_C22_P4  QMIN_P4_Q2  98.9
    X_C22_P4  QMIN_P4_Q3  124.8
    X_C22_P4  QMIN_P4_Q4  134.1
    X_C22_P4  QMIN_P4_Q5  123.1
    X_C22_P4  QMAX_P4_Q0  88.4
    X_C22_P4  QMAX_P4_Q1  99.1
    X_C22_P4  QMAX_P4_Q2  98.9
    X_C22_P4  QMAX_P4_Q3  124.8
    X_C22_P4  QMAX_P4_Q4  134.1
    X_C22_P4  QMAX_P4_Q5  123.1
    X_C22_P5  PROFIT    53.5
    X_C22_P5  BAL_P5    1
    X_C22_P5  AVAIL_C22  1
    X_C22_P5  QMIN_P5_Q0  88.4
    X_C22_P5  QMIN_P5_Q1  99.1
    X_C22_P5  QMIN_P5_Q2  98.9
    X_C22_P5  QMIN_P5_Q3  124.8
    X_C22_P5  QMIN_P5_Q4  134.1
    X_C22_P5  QMIN_P5_Q5  123.1
    X_C22_P5  QMAX_P5_Q0  88.4
    X_C22_P5  QMAX_P5_Q1  99.1
    X_C22_P5  QMAX_P5_Q2  98.9
    X_C22_P5  QMAX_P5_Q3  124.8
    X_C22_P5  QMAX_P5_Q4  134.1
    X_C22_P5  QMAX_P5_Q5  123.1
    X_C22_P6  PROFIT    53.5
    X_C22_P6  BAL_P6    1
    X_C22_P6  AVAIL_C22  1
    X_C22_P6  QMIN_P6_Q0  88.4
    X_C22_P6  QMIN_P6_Q1  99.1
    X_C22_P6  QMIN_P6_Q2  98.9
    X_C22_P6  QMIN_P6_Q3  124.8
    X_C22_P6  QMIN_P6_Q4  134.1
    X_C22_P6  QMIN_P6_Q5  123.1
    X_C22_P6  QMAX_P6_Q0  88.4
    X_C22_P6  QMAX_P6_Q1  99.1
    X_C22_P6  QMAX_P6_Q2  98.9
    X_C22_P6  QMAX_P6_Q3  124.8
    X_C22_P6  QMAX_P6_Q4  134.1
    X_C22_P6  QMAX_P6_Q5  123.1
    X_C22_P7  PROFIT    53.5
    X_C22_P7  BAL_P7    1
    X_C22_P7  AVAIL_C22  1
    X_C22_P7  QMIN_P7_Q0  88.4
    X_C22_P7  QMIN_P7_Q1  99.1
    X_C22_P7  QMIN_P7_Q2  98.9
    X_C22_P7  QMIN_P7_Q3  124.8
    X_C22_P7  QMIN_P7_Q4  134.1
    X_C22_P7  QMIN_P7_Q5  123.1
    X_C22_P7  QMAX_P7_Q0  88.4
    X_C22_P7  QMAX_P7_Q1  99.1
    X_C22_P7  QMAX_P7_Q2  98.9
    X_C22_P7  QMAX_P7_Q3  124.8
    X_C22_P7  QMAX_P7_Q4  134.1
    X_C22_P7  QMAX_P7_Q5  123.1
    X_C22_P8  PROFIT    53.5
    X_C22_P8  BAL_P8    1
    X_C22_P8  AVAIL_C22  1
    X_C22_P8  QMIN_P8_Q0  88.4
    X_C22_P8  QMIN_P8_Q1  99.1
    X_C22_P8  QMIN_P8_Q2  98.9
    X_C22_P8  QMIN_P8_Q3  124.8
    X_C22_P8  QMIN_P8_Q4  134.1
    X_C22_P8  QMIN_P8_Q5  123.1
    X_C22_P8  QMAX_P8_Q0  88.4
    X_C22_P8  QMAX_P8_Q1  99.1
    X_C22_P8  QMAX_P8_Q2  98.9
    X_C22_P8  QMAX_P8_Q3  124.8
    X_C22_P8  QMAX_P8_Q4  134.1
    X_C22_P8  QMAX_P8_Q5  123.1
    X_C22_P9  PROFIT    53.5
    X_C22_P9  BAL_P9    1
    X_C22_P9  AVAIL_C22  1
    X_C22_P9  QMIN_P9_Q0  88.4
    X_C22_P9  QMIN_P9_Q1  99.1
    X_C22_P9  QMIN_P9_Q2  98.9
    X_C22_P9  QMIN_P9_Q3  124.8
    X_C22_P9  QMIN_P9_Q4  134.1
    X_C22_P9  QMIN_P9_Q5  123.1
    X_C22_P9  QMAX_P9_Q0  88.4
    X_C22_P9  QMAX_P9_Q1  99.1
    X_C22_P9  QMAX_P9_Q2  98.9
    X_C22_P9  QMAX_P9_Q3  124.8
    X_C22_P9  QMAX_P9_Q4  134.1
    X_C22_P9  QMAX_P9_Q5  123.1
    X_C23_P0  PROFIT    64.7
    X_C23_P0  BAL_P0    1
    X_C23_P0  AVAIL_C23  1
    X_C23_P0  QMIN_P0_Q0  85.3
    X_C23_P0  QMIN_P0_Q1  96.5
    X_C23_P0  QMIN_P0_Q2  107.6
    X_C23_P0  QMIN_P0_Q3  122.6
    X_C23_P0  QMIN_P0_Q4  116.8
    X_C23_P0  QMIN_P0_Q5  125.3
    X_C23_P0  QMAX_P0_Q0  85.3
    X_C23_P0  QMAX_P0_Q1  96.5
    X_C23_P0  QMAX_P0_Q2  107.6
    X_C23_P0  QMAX_P0_Q3  122.6
    X_C23_P0  QMAX_P0_Q4  116.8
    X_C23_P0  QMAX_P0_Q5  125.3
    X_C23_P1  PROFIT    64.7
    X_C23_P1  BAL_P1    1
    X_C23_P1  AVAIL_C23  1
    X_C23_P1  QMIN_P1_Q0  85.3
    X_C23_P1  QMIN_P1_Q1  96.5
    X_C23_P1  QMIN_P1_Q2  107.6
    X_C23_P1  QMIN_P1_Q3  122.6
    X_C23_P1  QMIN_P1_Q4  116.8
    X_C23_P1  QMIN_P1_Q5  125.3
    X_C23_P1  QMAX_P1_Q0  85.3
    X_C23_P1  QMAX_P1_Q1  96.5
    X_C23_P1  QMAX_P1_Q2  107.6
    X_C23_P1  QMAX_P1_Q3  122.6
    X_C23_P1  QMAX_P1_Q4  116.8
    X_C23_P1  QMAX_P1_Q5  125.3
    X_C23_P2  PROFIT    64.7
    X_C23_P2  BAL_P2    1
    X_C23_P2  AVAIL_C23  1
    X_C23_P2  QMIN_P2_Q0  85.3
    X_C23_P2  QMIN_P2_Q1  96.5
    X_C23_P2  QMIN_P2_Q2  107.6
    X_C23_P2  QMIN_P2_Q3  122.6
    X_C23_P2  QMIN_P2_Q4  116.8
    X_C23_P2  QMIN_P2_Q5  125.3
    X_C23_P2  QMAX_P2_Q0  85.3
    X_C23_P2  QMAX_P2_Q1  96.5
    X_C23_P2  QMAX_P2_Q2  107.6
    X_C23_P2  QMAX_P2_Q3  122.6
    X_C23_P2  QMAX_P2_Q4  116.8
    X_C23_P2  QMAX_P2_Q5  125.3
    X_C23_P3  PROFIT    64.7
    X_C23_P3  BAL_P3    1
    X_C23_P3  AVAIL_C23  1
    X_C23_P3  QMIN_P3_Q0  85.3
    X_C23_P3  QMIN_P3_Q1  96.5
    X_C23_P3  QMIN_P3_Q2  107.6
    X_C23_P3  QMIN_P3_Q3  122.6
    X_C23_P3  QMIN_P3_Q4  116.8
    X_C23_P3  QMIN_P3_Q5  125.3
    X_C23_P3  QMAX_P3_Q0  85.3
    X_C23_P3  QMAX_P3_Q1  96.5
    X_C23_P3  QMAX_P3_Q2  107.6
    X_C23_P3  QMAX_P3_Q3  122.6
    X_C23_P3  QMAX_P3_Q4  116.8
    X_C23_P3  QMAX_P3_Q5  125.3
    X_C23_P4  PROFIT    64.7
    X_C23_P4  BAL_P4    1
    X_C23_P4  AVAIL_C23  1
    X_C23_P4  QMIN_P4_Q0  85.3
    X_C23_P4  QMIN_P4_Q1  96.5
    X_C23_P4  QMIN_P4_Q2  107.6
    X_C23_P4  QMIN_P4_Q3  122.6
    X_C23_P4  QMIN_P4_Q4  116.8
    X_C23_P4  QMIN_P4_Q5  125.3
    X_C23_P4  QMAX_P4_Q0  85.3
    X_C23_P4  QMAX_P4_Q1  96.5
    X_C23_P4  QMAX_P4_Q2  107.6
    X_C23_P4  QMAX_P4_Q3  122.6
    X_C23_P4  QMAX_P4_Q4  116.8
    X_C23_P4  QMAX_P4_Q5  125.3
    X_C23_P5  PROFIT    64.7
    X_C23_P5  BAL_P5    1
    X_C23_P5  AVAIL_C23  1
    X_C23_P5  QMIN_P5_Q0  85.3
    X_C23_P5  QMIN_P5_Q1  96.5
    X_C23_P5  QMIN_P5_Q2  107.6
    X_C23_P5  QMIN_P5_Q3  122.6
    X_C23_P5  QMIN_P5_Q4  116.8
    X_C23_P5  QMIN_P5_Q5  125.3
    X_C23_P5  QMAX_P5_Q0  85.3
    X_C23_P5  QMAX_P5_Q1  96.5
    X_C23_P5  QMAX_P5_Q2  107.6
    X_C23_P5  QMAX_P5_Q3  122.6
    X_C23_P5  QMAX_P5_Q4  116.8
    X_C23_P5  QMAX_P5_Q5  125.3
    X_C23_P6  PROFIT    64.7
    X_C23_P6  BAL_P6    1
    X_C23_P6  AVAIL_C23  1
    X_C23_P6  QMIN_P6_Q0  85.3
    X_C23_P6  QMIN_P6_Q1  96.5
    X_C23_P6  QMIN_P6_Q2  107.6
    X_C23_P6  QMIN_P6_Q3  122.6
    X_C23_P6  QMIN_P6_Q4  116.8
    X_C23_P6  QMIN_P6_Q5  125.3
    X_C23_P6  QMAX_P6_Q0  85.3
    X_C23_P6  QMAX_P6_Q1  96.5
    X_C23_P6  QMAX_P6_Q2  107.6
    X_C23_P6  QMAX_P6_Q3  122.6
    X_C23_P6  QMAX_P6_Q4  116.8
    X_C23_P6  QMAX_P6_Q5  125.3
    X_C23_P7  PROFIT    64.7
    X_C23_P7  BAL_P7    1
    X_C23_P7  AVAIL_C23  1
    X_C23_P7  QMIN_P7_Q0  85.3
    X_C23_P7  QMIN_P7_Q1  96.5
    X_C23_P7  QMIN_P7_Q2  107.6
    X_C23_P7  QMIN_P7_Q3  122.6
    X_C23_P7  QMIN_P7_Q4  116.8
    X_C23_P7  QMIN_P7_Q5  125.3
    X_C23_P7  QMAX_P7_Q0  85.3
    X_C23_P7  QMAX_P7_Q1  96.5
    X_C23_P7  QMAX_P7_Q2  107.6
    X_C23_P7  QMAX_P7_Q3  122.6
    X_C23_P7  QMAX_P7_Q4  116.8
    X_C23_P7  QMAX_P7_Q5  125.3
    X_C23_P8  PROFIT    64.7
    X_C23_P8  BAL_P8    1
    X_C23_P8  AVAIL_C23  1
    X_C23_P8  QMIN_P8_Q0  85.3
    X_C23_P8  QMIN_P8_Q1  96.5
    X_C23_P8  QMIN_P8_Q2  107.6
    X_C23_P8  QMIN_P8_Q3  122.6
    X_C23_P8  QMIN_P8_Q4  116.8
    X_C23_P8  QMIN_P8_Q5  125.3
    X_C23_P8  QMAX_P8_Q0  85.3
    X_C23_P8  QMAX_P8_Q1  96.5
    X_C23_P8  QMAX_P8_Q2  107.6
    X_C23_P8  QMAX_P8_Q3  122.6
    X_C23_P8  QMAX_P8_Q4  116.8
    X_C23_P8  QMAX_P8_Q5  125.3
    X_C23_P9  PROFIT    64.7
    X_C23_P9  BAL_P9    1
    X_C23_P9  AVAIL_C23  1
    X_C23_P9  QMIN_P9_Q0  85.3
    X_C23_P9  QMIN_P9_Q1  96.5
    X_C23_P9  QMIN_P9_Q2  107.6
    X_C23_P9  QMIN_P9_Q3  122.6
    X_C23_P9  QMIN_P9_Q4  116.8
    X_C23_P9  QMIN_P9_Q5  125.3
    X_C23_P9  QMAX_P9_Q0  85.3
    X_C23_P9  QMAX_P9_Q1  96.5
    X_C23_P9  QMAX_P9_Q2  107.6
    X_C23_P9  QMAX_P9_Q3  122.6
    X_C23_P9  QMAX_P9_Q4  116.8
    X_C23_P9  QMAX_P9_Q5  125.3
    X_C24_P0  PROFIT    71.7
    X_C24_P0  BAL_P0    1
    X_C24_P0  AVAIL_C24  1
    X_C24_P0  QMIN_P0_Q0  100
    X_C24_P0  QMIN_P0_Q1  110
    X_C24_P0  QMIN_P0_Q2  120
    X_C24_P0  QMIN_P0_Q3  130
    X_C24_P0  QMIN_P0_Q4  140
    X_C24_P0  QMIN_P0_Q5  150
    X_C24_P0  QMAX_P0_Q0  100
    X_C24_P0  QMAX_P0_Q1  110
    X_C24_P0  QMAX_P0_Q2  120
    X_C24_P0  QMAX_P0_Q3  130
    X_C24_P0  QMAX_P0_Q4  140
    X_C24_P0  QMAX_P0_Q5  150
    X_C24_P1  PROFIT    71.7
    X_C24_P1  BAL_P1    1
    X_C24_P1  AVAIL_C24  1
    X_C24_P1  QMIN_P1_Q0  100
    X_C24_P1  QMIN_P1_Q1  110
    X_C24_P1  QMIN_P1_Q2  120
    X_C24_P1  QMIN_P1_Q3  130
    X_C24_P1  QMIN_P1_Q4  140
    X_C24_P1  QMIN_P1_Q5  150
    X_C24_P1  QMAX_P1_Q0  100
    X_C24_P1  QMAX_P1_Q1  110
    X_C24_P1  QMAX_P1_Q2  120
    X_C24_P1  QMAX_P1_Q3  130
    X_C24_P1  QMAX_P1_Q4  140
    X_C24_P1  QMAX_P1_Q5  150
    X_C24_P2  PROFIT    71.7
    X_C24_P2  BAL_P2    1
    X_C24_P2  AVAIL_C24  1
    X_C24_P2  QMIN_P2_Q0  100
    X_C24_P2  QMIN_P2_Q1  110
    X_C24_P2  QMIN_P2_Q2  120
    X_C24_P2  QMIN_P2_Q3  130
    X_C24_P2  QMIN_P2_Q4  140
    X_C24_P2  QMIN_P2_Q5  150
    X_C24_P2  QMAX_P2_Q0  100
    X_C24_P2  QMAX_P2_Q1  110
    X_C24_P2  QMAX_P2_Q2  120
    X_C24_P2  QMAX_P2_Q3  130
    X_C24_P2  QMAX_P2_Q4  140
    X_C24_P2  QMAX_P2_Q5  150
    X_C24_P3  PROFIT    71.7
    X_C24_P3  BAL_P3    1
    X_C24_P3  AVAIL_C24  1
    X_C24_P3  QMIN_P3_Q0  100
    X_C24_P3  QMIN_P3_Q1  110
    X_C24_P3  QMIN_P3_Q2  120
    X_C24_P3  QMIN_P3_Q3  130
    X_C24_P3  QMIN_P3_Q4  140
    X_C24_P3  QMIN_P3_Q5  150
    X_C24_P3  QMAX_P3_Q0  100
    X_C24_P3  QMAX_P3_Q1  110
    X_C24_P3  QMAX_P3_Q2  120
    X_C24_P3  QMAX_P3_Q3  130
    X_C24_P3  QMAX_P3_Q4  140
    X_C24_P3  QMAX_P3_Q5  150
    X_C24_P4  PROFIT    71.7
    X_C24_P4  BAL_P4    1
    X_C24_P4  AVAIL_C24  1
    X_C24_P4  QMIN_P4_Q0  100
    X_C24_P4  QMIN_P4_Q1  110
    X_C24_P4  QMIN_P4_Q2  120
    X_C24_P4  QMIN_P4_Q3  130
    X_C24_P4  QMIN_P4_Q4  140
    X_C24_P4  QMIN_P4_Q5  150
    X_C24_P4  QMAX_P4_Q0  100
    X_C24_P4  QMAX_P4_Q1  110
    X_C24_P4  QMAX_P4_Q2  120
    X_C24_P4  QMAX_P4_Q3  130
    X_C24_P4  QMAX_P4_Q4  140
    X_C24_P4  QMAX_P4_Q5  150
    X_C24_P5  PROFIT    71.7
    X_C24_P5  BAL_P5    1
    X_C24_P5  AVAIL_C24  1
    X_C24_P5  QMIN_P5_Q0  100
    X_C24_P5  QMIN_P5_Q1  110
    X_C24_P5  QMIN_P5_Q2  120
    X_C24_P5  QMIN_P5_Q3  130
    X_C24_P5  QMIN_P5_Q4  140
    X_C24_P5  QMIN_P5_Q5  150
    X_C24_P5  QMAX_P5_Q0  100
    X_C24_P5  QMAX_P5_Q1  110
    X_C24_P5  QMAX_P5_Q2  120
    X_C24_P5  QMAX_P5_Q3  130
    X_C24_P5  QMAX_P5_Q4  140
    X_C24_P5  QMAX_P5_Q5  150
    X_C24_P6  PROFIT    71.7
    X_C24_P6  BAL_P6    1
    X_C24_P6  AVAIL_C24  1
    X_C24_P6  QMIN_P6_Q0  100
    X_C24_P6  QMIN_P6_Q1  110
    X_C24_P6  QMIN_P6_Q2  120
    X_C24_P6  QMIN_P6_Q3  130
    X_C24_P6  QMIN_P6_Q4  140
    X_C24_P6  QMIN_P6_Q5  150
    X_C24_P6  QMAX_P6_Q0  100
    X_C24_P6  QMAX_P6_Q1  110
    X_C24_P6  QMAX_P6_Q2  120
    X_C24_P6  QMAX_P6_Q3  130
    X_C24_P6  QMAX_P6_Q4  140
    X_C24_P6  QMAX_P6_Q5  150
    X_C24_P7  PROFIT    71.7
    X_C24_P7  BAL_P7    1
    X_C24_P7  AVAIL_C24  1
    X_C24_P7  QMIN_P7_Q0  100
    X_C24_P7  QMIN_P7_Q1  110
    X_C24_P7  QMIN_P7_Q2  120
    X_C24_P7  QMIN_P7_Q3  130
    X_C24_P7  QMIN_P7_Q4  140
    X_C24_P7  QMIN_P7_Q5  150
    X_C24_P7  QMAX_P7_Q0  100
    X_C24_P7  QMAX_P7_Q1  110
    X_C24_P7  QMAX_P7_Q2  120
    X_C24_P7  QMAX_P7_Q3  130
    X_C24_P7  QMAX_P7_Q4  140
    X_C24_P7  QMAX_P7_Q5  150
    X_C24_P8  PROFIT    71.7
    X_C24_P8  BAL_P8    1
    X_C24_P8  AVAIL_C24  1
    X_C24_P8  QMIN_P8_Q0  100
    X_C24_P8  QMIN_P8_Q1  110
    X_C24_P8  QMIN_P8_Q2  120
    X_C24_P8  QMIN_P8_Q3  130
    X_C24_P8  QMIN_P8_Q4  140
    X_C24_P8  QMIN_P8_Q5  150
    X_C24_P8  QMAX_P8_Q0  100
    X_C24_P8  QMAX_P8_Q1  110
    X_C24_P8  QMAX_P8_Q2  120
    X_C24_P8  QMAX_P8_Q3  130
    X_C24_P8  QMAX_P8_Q4  140
    X_C24_P8  QMAX_P8_Q5  150
    X_C24_P9  PROFIT    71.7
    X_C24_P9  BAL_P9    1
    X_C24_P9  AVAIL_C24  1
    X_C24_P9  QMIN_P9_Q0  100
    X_C24_P9  QMIN_P9_Q1  110
    X_C24_P9  QMIN_P9_Q2  120
    X_C24_P9  QMIN_P9_Q3  130
    X_C24_P9  QMIN_P9_Q4  140
    X_C24_P9  QMIN_P9_Q5  150
    X_C24_P9  QMAX_P9_Q0  100
    X_C24_P9  QMAX_P9_Q1  110
    X_C24_P9  QMAX_P9_Q2  120
    X_C24_P9  QMAX_P9_Q3  130
    X_C24_P9  QMAX_P9_Q4  140
    X_C24_P9  QMAX_P9_Q5  150
    Y_P0      PROFIT    -109.6
    Y_P0      BAL_P0    -1
    Y_P0      QMIN_P0_Q0  -72
    Y_P0      QMIN_P0_Q1  -82
    Y_P0      QMIN_P0_Q2  -92
    Y_P0      QMIN_P0_Q3  -102
    Y_P0      QMIN_P0_Q4  -112
    Y_P0      QMIN_P0_Q5  -122
    Y_P0      QMAX_P0_Q0  -88
    Y_P0      QMAX_P0_Q1  -98
    Y_P0      QMAX_P0_Q2  -108
    Y_P0      QMAX_P0_Q3  -118
    Y_P0      QMAX_P0_Q4  -128
    Y_P0      QMAX_P0_Q5  -138
    Y_P1      PROFIT    -93.3
    Y_P1      BAL_P1    -1
    Y_P1      QMIN_P1_Q0  -74
    Y_P1      QMIN_P1_Q1  -84
    Y_P1      QMIN_P1_Q2  -94
    Y_P1      QMIN_P1_Q3  -104
    Y_P1      QMIN_P1_Q4  -114
    Y_P1      QMIN_P1_Q5  -124
    Y_P1      QMAX_P1_Q0  -90
    Y_P1      QMAX_P1_Q1  -100
    Y_P1      QMAX_P1_Q2  -110
    Y_P1      QMAX_P1_Q3  -120
    Y_P1      QMAX_P1_Q4  -130
    Y_P1      QMAX_P1_Q5  -140
    Y_P2      PROFIT    -111.5
    Y_P2      BAL_P2    -1
    Y_P2      QMIN_P2_Q0  -76
    Y_P2      QMIN_P2_Q1  -86
    Y_P2      QMIN_P2_Q2  -96
    Y_P2      QMIN_P2_Q3  -106
    Y_P2      QMIN_P2_Q4  -116
    Y_P2      QMIN_P2_Q5  -126
    Y_P2      QMAX_P2_Q0  -92
    Y_P2      QMAX_P2_Q1  -102
    Y_P2      QMAX_P2_Q2  -112
    Y_P2      QMAX_P2_Q3  -122
    Y_P2      QMAX_P2_Q4  -132
    Y_P2      QMAX_P2_Q5  -142
    Y_P3      PROFIT    -134.8
    Y_P3      BAL_P3    -1
    Y_P3      QMIN_P3_Q0  -78
    Y_P3      QMIN_P3_Q1  -88
    Y_P3      QMIN_P3_Q2  -98
    Y_P3      QMIN_P3_Q3  -108
    Y_P3      QMIN_P3_Q4  -118
    Y_P3      QMIN_P3_Q5  -128
    Y_P3      QMAX_P3_Q0  -94
    Y_P3      QMAX_P3_Q1  -104
    Y_P3      QMAX_P3_Q2  -114
    Y_P3      QMAX_P3_Q3  -124
    Y_P3      QMAX_P3_Q4  -134
    Y_P3      QMAX_P3_Q5  -144
    Y_P4      PROFIT    -117.9
    Y_P4      BAL_P4    -1
    Y_P4      QMIN_P4_Q0  -80
    Y_P4      QMIN_P4_Q1  -90
    Y_P4      QMIN_P4_Q2  -100
    Y_P4      QMIN_P4_Q3  -110
    Y_P4      QMIN_P4_Q4  -120
    Y_P4      QMIN_P4_Q5  -130
    Y_P4      QMAX_P4_Q0  -96
    Y_P4      QMAX_P4_Q1  -106
    Y_P4      QMAX_P4_Q2  -116
    Y_P4      QMAX_P4_Q3  -126
    Y_P4      QMAX_P4_Q4  -136
    Y_P4      QMAX_P4_Q5  -146
    Y_P5      PROFIT    -128.8
    Y_P5      BAL_P5    -1
    Y_P5      QMIN_P5_Q0  -82
    Y_P5      QMIN_P5_Q1  -92
    Y_P5      QMIN_P5_Q2  -102
    Y_P5      QMIN_P5_Q3  -112
    Y_P5      QMIN_P5_Q4  -122
    Y_P5      QMIN_P5_Q5  -132
    Y_P5      QMAX_P5_Q0  -98
    Y_P5      QMAX_P5_Q1  -108
    Y_P5      QMAX_P5_Q2  -118
    Y_P5      QMAX_P5_Q3  -128
    Y_P5      QMAX_P5_Q4  -138
    Y_P5      QMAX_P5_Q5  -148
    Y_P6      PROFIT    -127.1
    Y_P6      BAL_P6    -1
    Y_P6      QMIN_P6_Q0  -84
    Y_P6      QMIN_P6_Q1  -94
    Y_P6      QMIN_P6_Q2  -104
    Y_P6      QMIN_P6_Q3  -114
    Y_P6      QMIN_P6_Q4  -124
    Y_P6      QMIN_P6_Q5  -134
    Y_P6      QMAX_P6_Q0  -100
    Y_P6      QMAX_P6_Q1  -110
    Y_P6      QMAX_P6_Q2  -120
    Y_P6      QMAX_P6_Q3  -130
    Y_P6      QMAX_P6_Q4  -140
    Y_P6      QMAX_P6_Q5  -150
    Y_P7      PROFIT    -110
    Y_P7      BAL_P7    -1
    Y_P7      QMIN_P7_Q0  -86
    Y_P7      QMIN_P7_Q1  -96
    Y_P7      QMIN_P7_Q2  -106
    Y_P7      QMIN_P7_Q3  -116
    Y_P7      QMIN_P7_Q4  -126
    Y_P7      QMIN_P7_Q5  -136
    Y_P7      QMAX_P7_Q0  -102
    Y_P7      QMAX_P7_Q1  -112
    Y_P7      QMAX_P7_Q2  -122
    Y_P7      QMAX_P7_Q3  -132
    Y_P7      QMAX_P7_Q4  -142
    Y_P7      QMAX_P7_Q5  -152
    Y_P8      PROFIT    -103.4
    Y_P8      BAL_P8    -1
    Y_P8      QMIN_P8_Q0  -88
    Y_P8      QMIN_P8_Q1  -98
    Y_P8      QMIN_P8_Q2  -108
    Y_P8      QMIN_P8_Q3  -118
    Y_P8      QMIN_P8_Q4  -128
    Y_P8      QMIN_P8_Q5  -138
    Y_P8      QMAX_P8_Q0  -104
    Y_P8      QMAX_P8_Q1  -114
    Y_P8      QMAX_P8_Q2  -124
    Y_P8      QMAX_P8_Q3  -134
    Y_P8      QMAX_P8_Q4  -144
    Y_P8      QMAX_P8_Q5  -154
    Y_P9      PROFIT    -106.4
    Y_P9      BAL_P9    -1
    Y_P9      QMIN_P9_Q0  -90
    Y_P9      QMIN_P9_Q1  -100
    Y_P9      QMIN_P9_Q2  -110
    Y_P9      QMIN_P9_Q3  -120
    Y_P9      QMIN_P9_Q4  -130
    Y_P9      QMIN_P9_Q5  -140
    Y_P9      QMAX_P9_Q0  -106
    Y_P9      QMAX_P9_Q1  -116
    Y_P9      QMAX_P9_Q2  -126
    Y_P9      QMAX_P9_Q3  -136
    Y_P9      QMAX_P9_Q4  -146
    Y_P9      QMAX_P9_Q5  -156
RHS
    RHS1      AVAIL_C0  17781
    RHS1      AVAIL_C1  7725
    RHS1      AVAIL_C2  6881
    RHS1      AVAIL_C3  12458
    RHS1      AVAIL_C4  12805
    RHS1      AVAIL_C5  15474
    RHS1      AVAIL_C6  17747
    RHS1      AVAIL_C7  23914
    RHS1      AVAIL_C8  13978
    RHS1      AVAIL_C9  6292
    RHS1      AVAIL_C10  7986
    RHS1      AVAIL_C11  7001
    RHS1      AVAIL_C12  6883
    RHS1      AVAIL_C13  13924
    RHS1      AVAIL_C14  7450
    RHS1      AVAIL_C15  11475
    RHS1      AVAIL_C16  21087
    RHS1      AVAIL_C17  23522
    RHS1      AVAIL_C18  13321
    RHS1      AVAIL_C19  5386
    RHS1      AVAIL_C20  14189
    RHS1      AVAIL_C21  14777
    RHS1      AVAIL_C22  17144
    RHS1      AVAIL_C23  12679
    RHS1      AVAIL_C24  13320
BOUNDS
 UP BND1      Y_P0      4099
 UP BND1      Y_P1      12846
 UP BND1      Y_P2      8321
 UP BND1      Y_P3      10139
 UP BND1      Y_P4      9922
 UP BND1      Y_P5      8709
 UP BND1      Y_P6      8901
 UP BND1      Y_P7      6720
 UP BND1      Y_P8      9274
 UP BND1      Y_P9      12166
ENDATA
