NAME          BLENDING_Medium
OBJSENSE
  MIN
ROWS
 N  PROFIT
 E  BAL_P0
 E  BAL_P1
 E  BAL_P2
 E  BAL_P3
 E  BAL_P4
 E  BAL_P5
 L  AVAIL_C0
 L  AVAIL_C1
 L  AVAIL_C2
 L  AVAIL_C3
 L  AVAIL_C4
 L  AVAIL_C5
 L  AVAIL_C6
 L  AVAIL_C7
 L  AVAIL_C8
 L  AVAIL_C9
 L  AVAIL_C10
 L  AVAIL_C11
 G  QMIN_P0_Q0
 G  QMIN_P0_Q1
 G  QMIN_P0_Q2
 G  QMIN_P0_Q3
 G  QMIN_P1_Q0
 G  QMIN_P1_Q1
 G  QMIN_P1_Q2
 G  QMIN_P1_Q3
 G  QMIN_P2_Q0
 G  QMIN_P2_Q1
 G  QMIN_P2_Q2
 G  QMIN_P2_Q3
 G  QMIN_P3_Q0
 G  QMIN_P3_Q1
 G  QMIN_P3_Q2
 G  QMIN_P3_Q3
 G  QMIN_P4_Q0
 G  QMIN_P4_Q1
 G  QMIN_P4_Q2
 G  QMIN_P4_Q3
 G  QMIN_P5_Q0
 G  QMIN_P5_Q1
 G  QMIN_P5_Q2
 G  QMIN_P5_Q3
 L  QMAX_P0_Q0
 L  QMAX_P0_Q1
 L  QMAX_P0_Q2
 L  QMAX_P0_Q3
 L  QMAX_P1_Q0
 L  QMAX_P1_Q1
 L  QMAX_P1_Q2
 L  QMAX_P1_Q3
 L  QMAX_P2_Q0
 L  QMAX_P2_Q1
 L  QMAX_P2_Q2
 L  QMAX_P2_Q3
 L  QMAX_P3_Q0
 L  QMAX_P3_Q1
 L  QMAX_P3_Q2
 L  QMAX_P3_Q3
 L  QMAX_P4_Q0
 L  QMAX_P4_Q1
 L  QMAX_P4_Q2
 L  QMAX_P4_Q3
 L  QMAX_P5_Q0
 L  QMAX_P5_Q1
 L  QMAX_P5_Q2
 L  QMAX_P5_Q3
COLUMNS
    X_C0_P0   PROFIT    75.2
    X_C0_P0   BAL_P0    1
    X_C0_P0   AVAIL_C0  1
    X_C0_P0   QMIN_P0_Q0  65
    X_C0_P0   QMIN_P0_Q1  75
    X_C0_P0   QMIN_P0_Q2  85
    X_C0_P0   QMIN_P0_Q3  95
    X_C0_P0   QMAX_P0_Q0  65
    X_C0_P0   QMAX_P0_Q1  75
    X_C0_P0   QMAX_P0_Q2  85
    X_C0_P0   QMAX_P0_Q3  95
    X_C0_P1   PROFIT    75.2
    X_C0_P1   BAL_P1    1
    X_C0_P1   AVAIL_C0  1
    X_C0_P1   QMIN_P1_Q0  65
    X_C0_P1   QMIN_P1_Q1  75
    X_C0_P1   QMIN_P1_Q2  85
    X_C0_P1   QMIN_P1_Q3  95
    X_C0_P1   QMAX_P1_Q0  65
    X_C0_P1   QMAX_P1_Q1  75
    X_C0_P1   QMAX_P1_Q2  85
    X_C0_P1   QMAX_P1_Q3  95
    X_C0_P2   PROFIT    75.2
    X_C0_P2   BAL_P2    1
    X_C0_P2   AVAIL_C0  1
    X_C0_P2   QMIN_P2_Q0  65
    X_C0_P2   QMIN_P2_Q1  75
    X_C0_P2   QMIN_P2_Q2  85
    X_C0_P2   QMIN_P2_Q3  95
    X_C0_P2   QMAX_P2_Q0  65
    X_C0_P2   QMAX_P2_Q1  75
    X_C0_P2   QMAX_P2_Q2  85
    X_C0_P2   QMAX_P2_Q3  95
    X_C0_P3   PROFIT    75.2
    X_C0_P3   BAL_P3    1
    X_C0_P3   AVAIL_C0  1
    X_C0_P3   QMIN_P3_Q0  65
    X_C0_P3   QMIN_P3_Q1  75
    X_C0_P3   QMIN_P3_Q2  85
    X_C0_P3   QMIN_P3_Q3  95
    X_C0_P3   QMAX_P3_Q0  65
    X_C0_P3   QMAX_P3_Q1  75
    X_C0_P3   QMAX_P3_Q2  85
    X_C0_P3   QMAX_P3_Q3  95
    X_C0_P4   PROFIT    75.2
    X_C0_P4   BAL_P4    1
    X_C0_P4   AVAIL_C0  1
    X_C0_P4   QMIN_P4_Q0  65
    X_C0_P4   QMIN_P4_Q1  75
    X_C0_P4   QMIN_P4_Q2  85
    X_C0_P4   QMIN_P4_Q3  95
    X_C0_P4   QMAX_P4_Q0  65
    X_C0_P4   QMAX_P4_Q1  75
    X_C0_P4   QMAX_P4_Q2  85
    X_C0_P4   QMAX_P4_Q3  95
    X_C0_P5   PROFIT    75.2
    X_C0_P5   BAL_P5    1
    X_C0_P5   AVAIL_C0  1
    X_C0_P5   QMIN_P5_Q0  65
    X_C0_P5   QMIN_P5_Q1  75
    X_C0_P5   QMIN_P5_Q2  85
    X_C0_P5   QMIN_P5_Q3  95
    X_C0_P5   QMAX_P5_Q0  65
    X_C0_P5   QMAX_P5_Q1  75
    X_C0_P5   QMAX_P5_Q2  85
    X_C0_P5   QMAX_P5_Q3  95
    X_C1_P0   PROFIT    75.1
    X_C1_P0   BAL_P0    1
    X_C1_P0   AVAIL_C1  1
    X_C1_P0   QMIN_P0_Q0  80.4
    X_C1_P0   QMIN_P0_Q1  90.4
    X_C1_P0   QMIN_P0_Q2  101.9
    X_C1_P0   QMIN_P0_Q3  116.3
    X_C1_P0   QMAX_P0_Q0  80.4
    X_C1_P0   QMAX_P0_Q1  90.4
    X_C1_P0   QMAX_P0_Q2  101.9
    X_C1_P0   QMAX_P0_Q3  116.3
    X_C1_P1   PROFIT    75.1
    X_C1_P1   BAL_P1    1
    X_C1_P1   AVAIL_C1  1
    X_C1_P1   QMIN_P1_Q0  80.4
    X_C1_P1   QMIN_P1_Q1  90.4
    X_C1_P1   QMIN_P1_Q2  101.9
    X_C1_P1   QMIN_P1_Q3  116.3
    X_C1_P1   QMAX_P1_Q0  80.4
    X_C1_P1   QMAX_P1_Q1  90.4
    X_C1_P1   QMAX_P1_Q2  101.9
    X_C1_P1   QMAX_P1_Q3  116.3
    X_C1_P2   PROFIT    75.1
    X_C1_P2   BAL_P2    1
    X_C1_P2   AVAIL_C1  1
    X_C1_P2   QMIN_P2_Q0  80.4
    X_C1_P2   QMIN_P2_Q1  90.4
    X_C1_P2   QMIN_P2_Q2  101.9
    X_C1_P2   QMIN_P2_Q3  116.3
    X_C1_P2   QMAX_P2_Q0  80.4
    X_C1_P2   QMAX_P2_Q1  90.4
    X_C1_P2   QMAX_P2_Q2  101.9
    X_C1_P2   QMAX_P2_Q3  116.3
    X_C1_P3   PROFIT    75.1
    X_C1_P3   BAL_P3    1
    X_C1_P3   AVAIL_C1  1
    X_C1_P3   QMIN_P3_Q0  80.4
    X_C1_P3   QMIN_P3_Q1  90.4
    X_C1_P3   QMIN_P3_Q2  101.9
    X_C1_P3   QMIN_P3_Q3  116.3
    X_C1_P3   QMAX_P3_Q0  80.4
    X_C1_P3   QMAX_P3_Q1  90.4
    X_C1_P3   QMAX_P3_Q2  101.9
    X_C1_P3   QMAX_P3_Q3  116.3
    X_C1_P4   PROFIT    75.1
    X_C1_P4   BAL_P4    1
    X_C1_P4   AVAIL_C1  1
    X_C1_P4   QMIN_P4_Q0  80.4
    X_C1_P4   QMIN_P4_Q1  90.4
    X_C1_P4   QMIN_P4_Q2  101.9
    X_C1_P4   QMIN_P4_Q3  116.3
    X_C1_P4   QMAX_P4_Q0  80.4
    X_C1_P4   QMAX_P4_Q1  90.4
    X_C1_P4   QMAX_P4_Q2  101.9
    X_C1_P4   QMAX_P4_Q3  116.3
    X_C1_P5   PROFIT    75.1
    X_C1_P5   BAL_P5    1
    X_C1_P5   AVAIL_C1  1
    X_C1_P5   QMIN_P5_Q0  80.4
    X_C1_P5   QMIN_P5_Q1  90.4
    X_C1_P5   QMIN_P5_Q2  101.9
    X_C1_P5   QMIN_P5_Q3  116.3
    X_C1_P5   QMAX_P5_Q0  80.4
    X_C1_P5   QMAX_P5_Q1  90.4
    X_C1_P5   QMAX_P5_Q2  101.9
    X_C1_P5   QMAX_P5_Q3  116.3
    X_C2_P0   PROFIT    81.1
    X_C2_P0   BAL_P0    1
    X_C2_P0   AVAIL_C2  1
    X_C2_P0   QMIN_P0_Q0  77.4
    X_C2_P0   QMIN_P0_Q1  90.9
    X_C2_P0   QMIN_P0_Q2  110.6
    X_C2_P0   QMIN_P0_Q3  120.4
    X_C2_P0   QMAX_P0_Q0  77.4
    X_C2_P0   QMAX_P0_Q1  90.9
    X_C2_P0   QMAX_P0_Q2  110.6
    X_C2_P0   QMAX_P0_Q3  120.4
    X_C2_P1   PROFIT    81.1
    X_C2_P1   BAL_P1    1
    X_C2_P1   AVAIL_C2  1
    X_C2_P1   QMIN_P1_Q0  77.4
    X_C2_P1   QMIN_P1_Q1  90.9
    X_C2_P1   QMIN_P1_Q2  110.6
    X_C2_P1   QMIN_P1_Q3  120.4
    X_C2_P1   QMAX_P1_Q0  77.4
    X_C2_P1   QMAX_P1_Q1  90.9
    X_C2_P1   QMAX_P1_Q2  110.6
    X_C2_P1   QMAX_P1_Q3  120.4
    X_C2_P2   PROFIT    81.1
    X_C2_P2   BAL_P2    1
    X_C2_P2   AVAIL_C2  1
    X_C2_P2   QMIN_P2_Q0  77.4
    X_C2_P2   QMIN_P2_Q1  90.9
    X_C2_P2   QMIN_P2_Q2  110.6
    X_C2_P2   QMIN_P2_Q3  120.4
    X_C2_P2   QMAX_P2_Q0  77.4
    X_C2_P2   QMAX_P2_Q1  90.9
    X_C2_P2   QMAX_P2_Q2  110.6
    X_C2_P2   QMAX_P2_Q3  120.4
    X_C2_P3   PROFIT    81.1
    X_C2_P3   BAL_P3    1
    X_C2_P3   AVAIL_C2  1
    X_C2_P3   QMIN_P3_Q0  77.4
    X_C2_P3   QMIN_P3_Q1  90.9
    X_C2_P3   QMIN_P3_Q2  110.6
    X_C2_P3   QMIN_P3_Q3  120.4
    X_C2_P3   QMAX_P3_Q0  77.4
    X_C2_P3   QMAX_P3_Q1  90.9
    X_C2_P3   QMAX_P3_Q2  110.6
    X_C2_P3   QMAX_P3_Q3  120.4
    X_C2_P4   PROFIT    81.1
    X_C2_P4   BAL_P4    1
    X_C2_P4   AVAIL_C2  1
    X_C2_P4   QMIN_P4_Q0  77.4
    X_C2_P4   QMIN_P4_Q1  90.9
    X_C2_P4   QMIN_P4_Q2  110.6
    X_C2_P4   QMIN_P4_Q3  120.4
    X_C2_P4   QMAX_P4_Q0  77.4
    X_C2_P4   QMAX_P4_Q1  90.9
    X_C2_P4   QMAX_P4_Q2  110.6
    X_C2_P4   QMAX_P4_Q3  120.4
    X_C2_P5   PROFIT    81.1
    X_C2_P5   BAL_P5    1
    X_C2_P5   AVAIL_C2  1
    X_C2_P5   QMIN_P5_Q0  77.4
    X_C2_P5   QMIN_P5_Q1  90.9
    X_C2_P5   QMIN_P5_Q2  110.6
    X_C2_P5   QMIN_P5_Q3  120.4
    X_C2_P5   QMAX_P5_Q0  77.4
    X_C2_P5   QMAX_P5_Q1  90.9
    X_C2_P5   QMAX_P5_Q2  110.6
    X_C2_P5   QMAX_P5_Q3  120.4
    X_C3_P0   PROFIT    68
    X_C3_P0   BAL_P0    1
    X_C3_P0   AVAIL_C3  1
    X_C3_P0   QMIN_P0_Q0  70.5
    X_C3_P0   QMIN_P0_Q1  82.3
    X_C3_P0   QMIN_P0_Q2  102.3
    X_C3_P0   QMIN_P0_Q3  119.7
    X_C3_P0   QMAX_P0_Q0  70.5
    X_C3_P0   QMAX_P0_Q1  82.3
    X_C3_P0   QMAX_P0_Q2  102.3
    X_C3_P0   QMAX_P0_Q3  119.7
    X_C3_P1   PROFIT    68
    X_C3_P1   BAL_P1    1
    X_C3_P1   AVAIL_C3  1
    X_C3_P1   QMIN_P1_Q0  70.5
    X_C3_P1   QMIN_P1_Q1  82.3
    X_C3_P1   QMIN_P1_Q2  102.3
    X_C3_P1   QMIN_P1_Q3  119.7
    X_C3_P1   QMAX_P1_Q0  70.5
    X_C3_P1   QMAX_P1_Q1  82.3
    X_C3_P1   QMAX_P1_Q2  102.3
    X_C3_P1   QMAX_P1_Q3  119.7
    X_C3_P2   PROFIT    68
    X_C3_P2   BAL_P2    1
    X_C3_P2   AVAIL_C3  1
    X_C3_P2   QMIN_P2_Q0  70.5
    X_C3_P2   QMIN_P2_Q1  82.3
    X_C3_P2   QMIN_P2_Q2  102.3
    X_C3_P2   QMIN_P2_Q3  119.7
    X_C3_P2   QMAX_P2_Q0  70.5
    X_C3_P2   QMAX_P2_Q1  82.3
    X_C3_P2   QMAX_P2_Q2  102.3
    X_C3_P2   QMAX_P2_Q3  119.7
    X_C3_P3   PROFIT    68
    X_C3_P3   BAL_P3    1
    X_C3_P3   AVAIL_C3  1
    X_C3_P3   QMIN_P3_Q0  70.5
    X_C3_P3   QMIN_P3_Q1  82.3
    X_C3_P3   QMIN_P3_Q2  102.3
    X_C3_P3   QMIN_P3_Q3  119.7
    X_C3_P3   QMAX_P3_Q0  70.5
    X_C3_P3   QMAX_P3_Q1  82.3
    X_C3_P3   QMAX_P3_Q2  102.3
    X_C3_P3   QMAX_P3_Q3  119.7
    X_C3_P4   PROFIT    68
    X_C3_P4   BAL_P4    1
    X_C3_P4   AVAIL_C3  1
    X_C3_P4   QMIN_P4_Q0  70.5
    X_C3_P4   QMIN_P4_Q1  82.3
    X_C3_P4   QMIN_P4_Q2  102.3
    X_C3_P4   QMIN_P4_Q3  119.7
    X_C3_P4   QMAX_P4_Q0  70.5
    X_C3_P4   QMAX_P4_Q1  82.3
    X_C3_P4   QMAX_P4_Q2  102.3
    X_C3_P4   QMAX_P4_Q3  119.7
    X_C3_P5   PROFIT    68
    X_C3_P5   BAL_P5    1
    X_C3_P5   AVAIL_C3  1
    X_C3_P5   QMIN_P5_Q0  70.5
    X_C3_P5   QMIN_P5_Q1  82.3
    X_C3_P5   QMIN_P5_Q2  102.3
    X_C3_P5   QMIN_P5_Q3  119.7
    X_C3_P5   QMAX_P5_Q0  70.5
    X_C3_P5   QMAX_P5_Q1  82.3
    X_C3_P5   QMAX_P5_Q2  102.3
    X_C3_P5   QMAX_P5_Q3  119.7
    X_C4_P0   PROFIT    56
    X_C4_P0   BAL_P0    1
    X_C4_P0   AVAIL_C4  1
    X_C4_P0   QMIN_P0_Q0  87.5
    X_C4_P0   QMIN_P0_Q1  81.9
    X_C4_P0   QMIN_P0_Q2  101.1
    X_C4_P0   QMIN_P0_Q3  116.3
    X_C4_P0   QMAX_P0_Q0  87.5
    X_C4_P0   QMAX_P0_Q1  81.9
    X_C4_P0   QMAX_P0_Q2  101.1
    X_C4_P0   QMAX_P0_Q3  116.3
    X_C4_P1   PROFIT    56
    X_C4_P1   BAL_P1    1
    X_C4_P1   AVAIL_C4  1
    X_C4_P1   QMIN_P1_Q0  87.5
    X_C4_P1   QMIN_P1_Q1  81.9
    X_C4_P1   QMIN_P1_Q2  101.1
    X_C4_P1   QMIN_P1_Q3  116.3
    X_C4_P1   QMAX_P1_Q0  87.5
    X_C4_P1   QMAX_P1_Q1  81.9
    X_C4_P1   QMAX_P1_Q2  101.1
    X_C4_P1   QMAX_P1_Q3  116.3
    X_C4_P2   PROFIT    56
    X_C4_P2   BAL_P2    1
    X_C4_P2   AVAIL_C4  1
    X_C4_P2   QMIN_P2_Q0  87.5
    X_C4_P2   QMIN_P2_Q1  81.9
    X_C4_P2   QMIN_P2_Q2  101.1
    X_C4_P2   QMIN_P2_Q3  116.3
    X_C4_P2   QMAX_P2_Q0  87.5
    X_C4_P2   QMAX_P2_Q1  81.9
    X_C4_P2   QMAX_P2_Q2  101.1
    X_C4_P2   QMAX_P2_Q3  116.3
    X_C4_P3   PROFIT    56
    X_C4_P3   BAL_P3    1
    X_C4_P3   AVAIL_C4  1
    X_C4_P3   QMIN_P3_Q0  87.5
    X_C4_P3   QMIN_P3_Q1  81.9
    X_C4_P3   QMIN_P3_Q2  101.1
    X_C4_P3   QMIN_P3_Q3  116.3
    X_C4_P3   QMAX_P3_Q0  87.5
    X_C4_P3   QMAX_P3_Q1  81.9
    X_C4_P3   QMAX_P3_Q2  101.1
    X_C4_P3   QMAX_P3_Q3  116.3
    X_C4_P4   PROFIT    56
    X_C4_P4   BAL_P4    1
    X_C4_P4   AVAIL_C4  1
    X_C4_P4   QMIN_P4_Q0  87.5
    X_C4_P4   QMIN_P4_Q1  81.9
    X_C4_P4   QMIN_P4_Q2  101.1
    X_C4_P4   QMIN_P4_Q3  116.3
    X_C4_P4   QMAX_P4_Q0  87.5
    X_C4_P4   QMAX_P4_Q1  81.9
    X_C4_P4   QMAX_P4_Q2  101.1
    X_C4_P4   QMAX_P4_Q3  116.3
    X_C4_P5   PROFIT    56
    X_C4_P5   BAL_P5    1
    X_C4_P5   AVAIL_C4  1
    X_C4_P5   QMIN_P5_Q0  87.5
    X_C4_P5   QMIN_P5_Q1  81.9
    X_C4_P5   QMIN_P5_Q2  101.1
    X_C4_P5   QMIN_P5_Q3  116.3
    X_C4_P5   QMAX_P5_Q0  87.5
    X_C4_P5   QMAX_P5_Q1  81.9
    X_C4_P5   QMAX_P5_Q2  101.1
    X_C4_P5   QMAX_P5_Q3  116.3
    X_C5_P0   PROFIT    45.5
    X_C5_P0   BAL_P0    1
    X_C5_P0   AVAIL_C5  1
    X_C5_P0   QMIN_P0_Q0  81.5
    X_C5_P0   QMIN_P0_Q1  100.5
    X_C5_P0   QMIN_P0_Q2  97.8
    X_C5_P0   QMIN_P0_Q3  119.8
    X_C5_P0   QMAX_P0_Q0  81.5
    X_C5_P0   QMAX_P0_Q1  100.5
    X_C5_P0   QMAX_P0_Q2  97.8
    X_C5_P0   QMAX_P0_Q3  119.8
    X_C5_P1   PROFIT    45.5
    X_C5_P1   BAL_P1    1
    X_C5_P1   AVAIL_C5  1
    X_C5_P1   QMIN_P1_Q0  81.5
    X_C5_P1   QMIN_P1_Q1  100.5
    X_C5_P1   QMIN_P1_Q2  97.8
    X_C5_P1   QMIN_P1_Q3  119.8
    X_C5_P1   QMAX_P1_Q0  81.5
    X_C5_P1   QMAX_P1_Q1  100.5
    X_C5_P1   QMAX_P1_Q2  97.8
    X_C5_P1   QMAX_P1_Q3  119.8
    X_C5_P2   PROFIT    45.5
    X_C5_P2   BAL_P2    1
    X_C5_P2   AVAIL_C5  1
    X_C5_P2   QMIN_P2_Q0  81.5
    X_C5_P2   QMIN_P2_Q1  100.5
    X_C5_P2   QMIN_P2_Q2  97.8
    X_C5_P2   QMIN_P2_Q3  119.8
    X_C5_P2   QMAX_P2_Q0  81.5
    X_C5_P2   QMAX_P2_Q1  100.5
    X_C5_P2   QMAX_P2_Q2  97.8
    X_C5_P2   QMAX_P2_Q3  119.8
    X_C5_P3   PROFIT    45.5
    X_C5_P3   BAL_P3    1
    X_C5_P3   AVAIL_C5  1
    X_C5_P3   QMIN_P3_Q0  81.5
    X_C5_P3   QMIN_P3_Q1  100.5
    X_C5_P3   QMIN_P3_Q2  97.8
    X_C5_P3   QMIN_P3_Q3  119.8
    X_C5_P3   QMAX_P3_Q0  81.5
    X_C5_P3   QMAX_P3_Q1  100.5
    X_C5_P3   QMAX_P3_Q2  97.8
    X_C5_P3   QMAX_P3_Q3  119.8
    X_C5_P4   PROFIT    45.5
    X_C5_P4   BAL_P4    1
    X_C5_P4   AVAIL_C5  1
    X_C5_P4   QMIN_P4_Q0  81.5
    X_C5_P4   QMIN_P4_Q1  100.5
    X_C5_P4   QMIN_P4_Q2  97.8
    X_C5_P4   QMIN_P4_Q3  119.8
    X_C5_P4   QMAX_P4_Q0  81.5
    X_C5_P4   QMAX_P4_Q1  100.5
    X_C5_P4   QMAX_P4_Q2  97.8
    X_C5_P4   QMAX_P4_Q3  119.8
    X_C5_P5   PROFIT    45.5
    X_C5_P5   BAL_P5    1
    X_C5_P5   AVAIL_C5  1
    X_C5_P5   QMIN_P5_Q0  81.5
    X_C5_P5   QMIN_P5_Q1  100.5
    X_C5_P5   QMIN_P5_Q2  97.8
    X_C5_P5   QMIN_P5_Q3  119.8
    X_C5_P5   QMAX_P5_Q0  81.5
    X_C5_P5   QMAX_P5_Q1  100.5
    X_C5_P5   QMAX_P5_Q2  97.8
    X_C5_P5   QMAX_P5_Q3  119.8
    X_C6_P0   PROFIT    72.4
    X_C6_P0   BAL_P0    1
    X_C6_P0   AVAIL_C6  1
    X_C6_P0   QMIN_P0_Q0  83.4
    X_C6_P0   QMIN_P0_Q1  91.9
    X_C6_P0   QMIN_P0_Q2  97.4
    X_C6_P0   QMIN_P0_Q3  110.1
    X_C6_P0   QMAX_P0_Q0  83.4
    X_C6_P0   QMAX_P0_Q1  91.9
    X_C6_P0   QMAX_P0_Q2  97.4
    X_C6_P0   QMAX_P0_Q3  110.1
    X_C6_P1   PROFIT    72.4
    X_C6_P1   BAL_P1    1
    X_C6_P1   AVAIL_C6  1
    X_C6_P1   QMIN_P1_Q0  83.4
    X_C6_P1   QMIN_P1_Q1  91.9
    X_C6_P1   QMIN_P1_Q2  97.4
    X_C6_P1   QMIN_P1_Q3  110.1
    X_C6_P1   QMAX_P1_Q0  83.4
    X_C6_P1   QMAX_P1_Q1  91.9
    X_C6_P1   QMAX_P1_Q2  97.4
    X_C6_P1   QMAX_P1_Q3  110.1
    X_C6_P2   PROFIT    72.4
    X_C6_P2   BAL_P2    1
    X_C6_P2   AVAIL_C6  1
    X_C6_P2   QMIN_P2_Q0  83.4
    X_C6_P2   QMIN_P2_Q1  91.9
    X_C6_P2   QMIN_P2_Q2  97.4
    X_C6_P2   QMIN_P2_Q3  110.1
    X_C6_P2   QMAX_P2_Q0  83.4
    X_C6_P2   QMAX_P2_Q1  91.9
    X_C6_P2   QMAX_P2_Q2  97.4
    X_C6_P2   QMAX_P2_Q3  110.1
    X_C6_P3   PROFIT    72.4
    X_C6_P3   BAL_P3    1
    X_C6_P3   AVAIL_C6  1
    X_C6_P3   QMIN_P3_Q0  83.4
    X_C6_P3   QMIN_P3_Q1  91.9
    X_C6_P3   QMIN_P3_Q2  97.4
    X_C6_P3   QMIN_P3_Q3  110.1
    X_C6_P3   QMAX_P3_Q0  83.4
    X_C6_P3   QMAX_P3_Q1  91.9
    X_C6_P3   QMAX_P3_Q2  97.4
    X_C6_P3   QMAX_P3_Q3  110.1
    X_C6_P4   PROFIT    72.4
    X_C6_P4   BAL_P4    1
    X_C6_P4   AVAIL_C6  1
    X_C6_P4   QMIN_P4_Q0  83.4
    X_C6_P4   QMIN_P4_Q1  91.9
    X_C6_P4   QMIN_P4_Q2  97.4
    X_C6_P4   QMIN_P4_Q3  110.1
    X_C6_P4   QMAX_P4_Q0  83.4
    X_C6_P4   QMAX_P4_Q1  91.9
    X_C6_P4   QMAX_P4_Q2  97.4
    X_C6_P4   QMAX_P4_Q3  110.1
    X_C6_P5   PROFIT    72.4
    X_C6_P5   BAL_P5    1
    X_C6_P5   AVAIL_C6  1
    X_C6_P5   QMIN_P5_Q0  83.4
    X_C6_P5   QMIN_P5_Q1  91.9
    X_C6_P5   QMIN_P5_Q2  97.4
    X_C6_P5   QMIN_P5_Q3  110.1
    X_C6_P5   QMAX_P5_Q0  83.4
    X_C6_P5   QMAX_P5_Q1  91.9
    X_C6_P5   QMAX_P5_Q2  97.4
    X_C6_P5   QMAX_P5_Q3  110.1
    X_C7_P0   PROFIT    78.1
    X_C7_P0   BAL_P0    1
    X_C7_P0   AVAIL_C7  1
    X_C7_P0   QMIN_P0_Q0  82.2
    X_C7_P0   QMIN_P0_Q1  91.1
    X_C7_P0   QMIN_P0_Q2  103.1
    X_C7_P0   QMIN_P0_Q3  123.4
    X_C7_P0   QMAX_P0_Q0  82.2
    X_C7_P0   QMAX_P0_Q1  91.1
    X_C7_P0   QMAX_P0_Q2  103.1
    X_C7_P0   QMAX_P0_Q3  123.4
    X_C7_P1   PROFIT    78.1
    X_C7_P1   BAL_P1    1
    X_C7_P1   AVAIL_C7  1
    X_C7_P1   QMIN_P1_Q0  82.2
    X_C7_P1   QMIN_P1_Q1  91.1
    X_C7_P1   QMIN_P1_Q2  103.1
    X_C7_P1   QMIN_P1_Q3  123.4
    X_C7_P1   QMAX_P1_Q0  82.2
    X_C7_P1   QMAX_P1_Q1  91.1
    X_C7_P1   QMAX_P1_Q2  103.1
    X_C7_P1   QMAX_P1_Q3  123.4
    X_C7_P2   PROFIT    78.1
    X_C7_P2   BAL_P2    1
    X_C7_P2   AVAIL_C7  1
    X_C7_P2   QMIN_P2_Q0  82.2
    X_C7_P2   QMIN_P2_Q1  91.1
    X_C7_P2   QMIN_P2_Q2  103.1
    X_C7_P2   QMIN_P2_Q3  123.4
    X_C7_P2   QMAX_P2_Q0  82.2
    X_C7_P2   QMAX_P2_Q1  91.1
    X_C7_P2   QMAX_P2_Q2  103.1
    X_C7_P2   QMAX_P2_Q3  123.4
    X_C7_P3   PROFIT    78.1
    X_C7_P3   BAL_P3    1
    X_C7_P3   AVAIL_C7  1
    X_C7_P3   QMIN_P3_Q0  82.2
    X_C7_P3   QMIN_P3_Q1  91.1
    X_C7_P3   QMIN_P3_Q2  103.1
    X_C7_P3   QMIN_P3_Q3  123.4
    X_C7_P3   QMAX_P3_Q0  82.2
    X_C7_P3   QMAX_P3_Q1  91.1
    X_C7_P3   QMAX_P3_Q2  103.1
    X_C7_P3   QMAX_P3_Q3  123.4
    X_C7_P4   PROFIT    78.1
    X_C7_P4   BAL_P4    1
    X_C7_P4   AVAIL_C7  1
    X_C7_P4   QMIN_P4_Q0  82.2
    X_C7_P4   QMIN_P4_Q1  91.1
    X_C7_P4   QMIN_P4_Q2  103.1
    X_C7_P4   QMIN_P4_Q3  123.4
    X_C7_P4   QMAX_P4_Q0  82.2
    X_C7_P4   QMAX_P4_Q1  91.1
    X_C7_P4   QMAX_P4_Q2  103.1
    X_C7_P4   QMAX_P4_Q3  123.4
    X_C7_P5   PROFIT    78.1
    X_C7_P5   BAL_P5    1
    X_C7_P5   AVAIL_C7  1
    X_C7_P5   QMIN_P5_Q0  82.2
    X_C7_P5   QMIN_P5_Q1  91.1
    X_C7_P5   QMIN_P5_Q2  103.1
    X_C7_P5   QMIN_P5_Q3  123.4
    X_C7_P5   QMAX_P5_Q0  82.2
    X_C7_P5   QMAX_P5_Q1  91.1
    X_C7_P5   QMAX_P5_Q2  103.1
    X_C7_P5   QMAX_P5_Q3  123.4
    X_C8_P0   PROFIT    75.1
    X_C8_P0   BAL_P0    1
    X_C8_P0   AVAIL_C8  1
    X_C8_P0   QMIN_P0_Q0  75.3
    X_C8_P0   QMIN_P0_Q1  104.9
    X_C8_P0   QMIN_P0_Q2  99.1
    X_C8_P0   QMIN_P0_Q3  108.7
    X_C8_P0   QMAX_P0_Q0  75.3
    X_C8_P0   QMAX_P0_Q1  104.9
    X_C8_P0   QMAX_P0_Q2  99.1
    X_C8_P0   QMAX_P0_Q3  108.7
    X_C8_P1   PROFIT    75.1
    X_C8_P1   BAL_P1    1
    X_C8_P1   AVAIL_C8  1
    X_C8_P1   QMIN_P1_Q0  75.3
    X_C8_P1   QMIN_P1_Q1  104.9
    X_C8_P1   QMIN_P1_Q2  99.1
    X_C8_P1   QMIN_P1_Q3  108.7
    X_C8_P1   QMAX_P1_Q0  75.3
    X_C8_P1   QMAX_P1_Q1  104.9
    X_C8_P1   QMAX_P1_Q2  99.1
    X_C8_P1   QMAX_P1_Q3  108.7
    X_C8_P2   PROFIT    75.1
    X_C8_P2   BAL_P2    1
    X_C8_P2   AVAIL_C8  1
    X_C8_P2   QMIN_P2_Q0  75.3
    X_C8_P2   QMIN_P2_Q1  104.9
    X_C8_P2   QMIN_P2_Q2  99.1
    X_C8_P2   QMIN_P2_Q3  108.7
    X_C8_P2   QMAX_P2_Q0  75.3
    X_C8_P2   QMAX_P2_Q1  104.9
    X_C8_P2   QMAX_P2_Q2  99.1
    X_C8_P2   QMAX_P2_Q3  108.7
    X_C8_P3   PROFIT    75.1
    X_C8_P3   BAL_P3    1
    X_C8_P3   AVAIL_C8  1
    X_C8_P3   QMIN_P3_Q0  75.3
    X_C8_P3   QMIN_P3_Q1  104.9
    X_C8_P3   QMIN_P3_Q2  99.1
    X_C8_P3   QMIN_P3_Q3  108.7
    X_C8_P3   QMAX_P3_Q0  75.3
    X_C8_P3   QMAX_P3_Q1  104.9
    X_C8_P3   QMAX_P3_Q2  99.1
    X_C8_P3   QMAX_P3_Q3  108.7
    X_C8_P4   PROFIT    75.1
    X_C8_P4   BAL_P4    1
    X_C8_P4   AVAIL_C8  1
    X_C8_P4   QMIN_P4_Q0  75.3
    X_C8_P4   QMIN_P4_Q1  104.9
    X_C8_P4   QMIN_P4_Q2  99.1
    X_C8_P4   QMIN_P4_Q3  108.7
    X_C8_P4   QMAX_P4_Q0  75.3
    X_C8_P4   QMAX_P4_Q1  104.9
    X_C8_P4   QMAX_P4_Q2  99.1
    X_C8_P4   QMAX_P4_Q3  108.7
    X_C8_P5   PROFIT    75.1
    X_C8_P5   BAL_P5    1
    X_C8_P5   AVAIL_C8  1
    X_C8_P5   QMIN_P5_Q0  75.3
    X_C8_P5   QMIN_P5_Q1  104.9
    X_C8_P5   QMIN_P5_Q2  99.1
    X_C8_P5   QMIN_P5_Q3  108.7
    X_C8_P5   QMAX_P5_Q0  75.3
    X_C8_P5   QMAX_P5_Q1  104.9
    X_C8_P5   QMAX_P5_Q2  99.1
    X_C8_P5   QMAX_P5_Q3  108.7
    X_C9_P0   PROFIT    46.9
    X_C9_P0   BAL_P0    1
    X_C9_P0   AVAIL_C9  1
    X_C9_P0   QMIN_P0_Q0  85.2
    X_C9_P0   QMIN_P0_Q1  94.9
    X_C9_P0   QMIN_P0_Q2  109.1
    X_C9_P0   QMIN_P0_Q3  107.5
    X_C9_P0   QMAX_P0_Q0  85.2
    X_C9_P0   QMAX_P0_Q1  94.9
    X_C9_P0   QMAX_P0_Q2  109.1
    X_C9_P0   QMAX_P0_Q3  107.5
    X_C9_P1   PROFIT    46.9
    X_C9_P1   BAL_P1    1
    X_C9_P1   AVAIL_C9  1
    X_C9_P1   QMIN_P1_Q0  85.2
    X_C9_P1   QMIN_P1_Q1  94.9
    X_C9_P1   QMIN_P1_Q2  109.1
    X_C9_P1   QMIN_P1_Q3  107.5
    X_C9_P1   QMAX_P1_Q0  85.2
    X_C9_P1   QMAX_P1_Q1  94.9
    X_C9_P1   QMAX_P1_Q2  109.1
    X_C9_P1   QMAX_P1_Q3  107.5
    X_C9_P2   PROFIT    46.9
    X_C9_P2   BAL_P2    1
    X_C9_P2   AVAIL_C9  1
    X_C9_P2   QMIN_P2_Q0  85.2
    X_C9_P2   QMIN_P2_Q1  94.9
    X_C9_P2   QMIN_P2_Q2  109.1
    X_C9_P2   QMIN_P2_Q3  107.5
    X_C9_P2   QMAX_P2_Q0  85.2
    X_C9_P2   QMAX_P2_Q1  94.9
    X_C9_P2   QMAX_P2_Q2  109.1
    X_C9_P2   QMAX_P2_Q3  107.5
    X_C9_P3   PROFIT    46.9
    X_C9_P3   BAL_P3    1
    X_C9_P3   AVAIL_C9  1
    X_C9_P3   QMIN_P3_Q0  85.2
    X_C9_P3   QMIN_P3_Q1  94.9
    X_C9_P3   QMIN_P3_Q2  109.1
    X_C9_P3   QMIN_P3_Q3  107.5
    X_C9_P3   QMAX_P3_Q0  85.2
    X_C9_P3   QMAX_P3_Q1  94.9
    X_C9_P3   QMAX_P3_Q2  109.1
    X_C9_P3   QMAX_P3_Q3  107.5
    X_C9_P4   PROFIT    46.9
    X_C9_P4   BAL_P4    1
    X_C9_P4   AVAIL_C9  1
    X_C9_P4   QMIN_P4_Q0  85.2
    X_C9_P4   QMIN_P4_Q1  94.9
    X_C9_P4   QMIN_P4_Q2  109.1
    X_C9_P4   QMIN_P4_Q3  107.5
    X_C9_P4   QMAX_P4_Q0  85.2
    X_C9_P4   QMAX_P4_Q1  94.9
    X_C9_P4   QMAX_P4_Q2  109.1
    X_C9_P4   QMAX_P4_Q3  107.5
    X_C9_P5   PROFIT    46.9
    X_C9_P5   BAL_P5    1
    X_C9_P5   AVAIL_C9  1
    X_C9_P5   QMIN_P5_Q0  85.2
    X_C9_P5   QMIN_P5_Q1  94.9
    X_C9_P5   QMIN_P5_Q2  109.1
    X_C9_P5   QMIN_P5_Q3  107.5
    X_C9_P5   QMAX_P5_Q0  85.2
    X_C9_P5   QMAX_P5_Q1  94.9
    X_C9_P5   QMAX_P5_Q2  109.1
    X_C9_P5   QMAX_P5_Q3  107.5
    X_C10_P0  PROFIT    74.9
    X_C10_P0  BAL_P0    1
    X_C10_P0  AVAIL_C10  1
    X_C10_P0  QMIN_P0_Q0  82.3
    X_C10_P0  QMIN_P0_Q1  95.5
    X_C10_P0  QMIN_P0_Q2  97.6
    X_C10_P0  QMIN_P0_Q3  118.5
    X_C10_P0  QMAX_P0_Q0  82.3
    X_C10_P0  QMAX_P0_Q1  95.5
    X_C10_P0  QMAX_P0_Q2  97.6
    X_C10_P0  QMAX_P0_Q3  118.5
    X_C10_P1  PROFIT    74.9
    X_C10_P1  BAL_P1    1
    X_C10_P1  AVAIL_C10  1
    X_C10_P1  QMIN_P1_Q0  82.3
    X_C10_P1  QMIN_P1_Q1  95.5
    X_C10_P1  QMIN_P1_Q2  97.6
    X_C10_P1  QMIN_P1_Q3  118.5
    X_C10_P1  QMAX_P1_Q0  82.3
    X_C10_P1  QMAX_P1_Q1  95.5
    X_C10_P1  QMAX_P1_Q2  97.6
    X_C10_P1  QMAX_P1_Q3  118.5
    X_C10_P2  PROFIT    74.9
    X_C10_P2  BAL_P2    1
    X_C10_P2  AVAIL_C10  1
    X_C10_P2  QMIN_P2_Q0  82.3
    X_C10_P2  QMIN_P2_Q1  95.5
    X_C10_P2  QMIN_P2_Q2  97.6
    X_C10_P2  QMIN_P2_Q3  118.5
    X_C10_P2  QMAX_P2_Q0  82.3
    X_C10_P2  QMAX_P2_Q1  95.5
    X_C10_P2  QMAX_P2_Q2  97.6
    X_C10_P2  QMAX_P2_Q3  118.5
    X_C10_P3  PROFIT    74.9
    X_C10_P3  BAL_P3    1
    X_C10_P3  AVAIL_C10  1
    X_C10_P3  QMIN_P3_Q0  82.3
    X_C10_P3  QMIN_P3_Q1  95.5
    X_C10_P3  QMIN_P3_Q2  97.6
    X_C10_P3  QMIN_P3_Q3  118.5
    X_C10_P3  QMAX_P3_Q0  82.3
    X_C10_P3  QMAX_P3_Q1  95.5
    X_C10_P3  QMAX_P3_Q2  97.6
    X_C10_P3  QMAX_P3_Q3  118.5
    X_C10_P4  PROFIT    74.9
    X_C10_P4  BAL_P4    1
    X_C10_P4  AVAIL_C10  1
    X_C10_P4  QMIN_P4_Q0  82.3
    X_C10_P4  QMIN_P4_Q1  95.5
    X_C10_P4  QMIN_P4_Q2  97.6
    X_C10_P4  QMIN_P4_Q3  118.5
    X_C10_P4  QMAX_P4_Q0  82.3
    X_C10_P4  QMAX_P4_Q1  95.5
    X_C10_P4  QMAX_P4_Q2  97.6
    X_C10_P4  QMAX_P4_Q3  118.5
    X_C10_P5  PROFIT    74.9
    X_C10_P5  BAL_P5    1
    X_C10_P5  AVAIL_C10  1
    X_C10_P5  QMIN_P5_Q0  82.3
    X_C10_P5  QMIN_P5_Q1  95.5
    X_C10_P5  QMIN_P5_Q2  97.6
    X_C10_P5  QMIN_P5_Q3  118.5
    X_C10_P5  QMAX_P5_Q0  82.3
    X_C10_P5  QMAX_P5_Q1  95.5
    X_C10_P5  QMAX_P5_Q2  97.6
    X_C10_P5  QMAX_P5_Q3  118.5
    X_C11_P0  PROFIT    62
    X_C11_P0  BAL_P0    1
    X_C11_P0  AVAIL_C11  1
    X_C11_P0  QMIN_P0_Q0  100
    X_C11_P0  QMIN_P0_Q1  110
    X_C11_P0  QMIN_P0_Q2  120
    X_C11_P0  QMIN_P0_Q3  130
    X_C11_P0  QMAX_P0_Q0  100
    X_C11_P0  QMAX_P0_Q1  110
    X_C11_P0  QMAX_P0_Q2  120
    X_C11_P0  QMAX_P0_Q3  130
    X_C11_P1  PROFIT    62
    X_C11_P1  BAL_P1    1
    X_C11_P1  AVAIL_C11  1
    X_C11_P1  QMIN_P1_Q0  100
    X_C11_P1  QMIN_P1_Q1  110
    X_C11_P1  QMIN_P1_Q2  120
    X_C11_P1  QMIN_P1_Q3  130
    X_C11_P1  QMAX_P1_Q0  100
    X_C11_P1  QMAX_P1_Q1  110
    X_C11_P1  QMAX_P1_Q2  120
    X_C11_P1  QMAX_P1_Q3  130
    X_C11_P2  PROFIT    62
    X_C11_P2  BAL_P2    1
    X_C11_P2  AVAIL_C11  1
    X_C11_P2  QMIN_P2_Q0  100
    X_C11_P2  QMIN_P2_Q1  110
    X_C11_P2  QMIN_P2_Q2  120
    X_C11_P2  QMIN_P2_Q3  130
    X_C11_P2  QMAX_P2_Q0  100
    X_C11_P2  QMAX_P2_Q1  110
    X_C11_P2  QMAX_P2_Q2  120
    X_C11_P2  QMAX_P2_Q3  130
    X_C11_P3  PROFIT    62
    X_C11_P3  BAL_P3    1
    X_C11_P3  AVAIL_C11  1
    X_C11_P3  QMIN_P3_Q0  100
    X_C11_P3  QMIN_P3_Q1  110
    X_C11_P3  QMIN_P3_Q2  120
    X_C11_P3  QMIN_P3_Q3  130
    X_C11_P3  QMAX_P3_Q0  100
    X_C11_P3  QMAX_P3_Q1  110
    X_C11_P3  QMAX_P3_Q2  120
    X_C11_P3  QMAX_P3_Q3  130
    X_C11_P4  PROFIT    62
    X_C11_P4  BAL_P4    1
    X_C11_P4  AVAIL_C11  1
    X_C11_P4  QMIN_P4_Q0  100
    X_C11_P4  QMIN_P4_Q1  110
    X_C11_P4  QMIN_P4_Q2  120
    X_C11_P4  QMIN_P4_Q3  130
    X_C11_P4  QMAX_P4_Q0  100
    X_C11_P4  QMAX_P4_Q1  110
    X_C11_P4  QMAX_P4_Q2  120
    X_C11_P4  QMAX_P4_Q3  130
    X_C11_P5  PROFIT    62
    X_C11_P5  BAL_P5    1
    X_C11_P5  AVAIL_C11  1
    X_C11_P5  QMIN_P5_Q0  100
    X_C11_P5  QMIN_P5_Q1  110
    X_C11_P5  QMIN_P5_Q2  120
    X_C11_P5  QMIN_P5_Q3  130
    X_C11_P5  QMAX_P5_Q0  100
    X_C11_P5  QMAX_P5_Q1  110
    X_C11_P5  QMAX_P5_Q2  120
    X_C11_P5  QMAX_P5_Q3  130
    Y_P0      PROFIT    -96.5
    Y_P0      BAL_P0    -1
    Y_P0      QMIN_P0_Q0  -72
    Y_P0      QMIN_P0_Q1  -82
    Y_P0      QMIN_P0_Q2  -92
    Y_P0      QMIN_P0_Q3  -102
    Y_P0      QMAX_P0_Q0  -88
    Y_P0      QMAX_P0_Q1  -98
    Y_P0      QMAX_P0_Q2  -108
    Y_P0      QMAX_P0_Q3  -118
    Y_P1      PROFIT    -113.9
    Y_P1      BAL_P1    -1
    Y_P1      QMIN_P1_Q0  -74
    Y_P1      QMIN_P1_Q1  -84
    Y_P1      QMIN_P1_Q2  -94
    Y_P1      QMIN_P1_Q3  -104
    Y_P1      QMAX_P1_Q0  -90
    Y_P1      QMAX_P1_Q1  -100
    Y_P1      QMAX_P1_Q2  -110
    Y_P1      QMAX_P1_Q3  -120
    Y_P2      PROFIT    -124.8
    Y_P2      BAL_P2    -1
    Y_P2      QMIN_P2_Q0  -76
    Y_P2      QMIN_P2_Q1  -86
    Y_P2      QMIN_P2_Q2  -96
    Y_P2      QMIN_P2_Q3  -106
    Y_P2      QMAX_P2_Q0  -92
    Y_P2      QMAX_P2_Q1  -102
    Y_P2      QMAX_P2_Q2  -112
    Y_P2      QMAX_P2_Q3  -122
    Y_P3      PROFIT    -123.5
    Y_P3      BAL_P3    -1
    Y_P3      QMIN_P3_Q0  -78
    Y_P3      QMIN_P3_Q1  -88
    Y_P3      QMIN_P3_Q2  -98
    Y_P3      QMIN_P3_Q3  -108
    Y_P3      QMAX_P3_Q0  -94
    Y_P3      QMAX_P3_Q1  -104
    Y_P3      QMAX_P3_Q2  -114
    Y_P3      QMAX_P3_Q3  -124
    Y_P4      PROFIT    -123.8
    Y_P4      BAL_P4    -1
    Y_P4      QMIN_P4_Q0  -80
    Y_P4      QMIN_P4_Q1  -90
    Y_P4      QMIN_P4_Q2  -100
    Y_P4      QMIN_P4_Q3  -110
    Y_P4      QMAX_P4_Q0  -96
    Y_P4      QMAX_P4_Q1  -106
    Y_P4      QMAX_P4_Q2  -116
    Y_P4      QMAX_P4_Q3  -126
    Y_P5      PROFIT    -92
    Y_P5      BAL_P5    -1
    Y_P5      QMIN_P5_Q0  -82
    Y_P5      QMIN_P5_Q1  -92
    Y_P5      QMIN_P5_Q2  -102
    Y_P5      QMIN_P5_Q3  -112
    Y_P5      QMAX_P5_Q0  -98
    Y_P5      QMAX_P5_Q1  -108
    Y_P5      QMAX_P5_Q2  -118
    Y_P5      QMAX_P5_Q3  -128
RHS
    RHS1      AVAIL_C0  17781
    RHS1      AVAIL_C1  7725
    RHS1      AVAIL_C2  6881
    RHS1      AVAIL_C3  12458
    RHS1      AVAIL_C4  12805
    RHS1      AVAIL_C5  15474
    RHS1      AVAIL_C6  17747
    RHS1      AVAIL_C7  23914
    RHS1      AVAIL_C8  13978
    RHS1      AVAIL_C9  6292
    RHS1      AVAIL_C10  7986
    RHS1      AVAIL_C11  7001
BOUNDS
 UP BND1      Y_P0      4130
 UP BND1      Y_P1      8354
 UP BND1      Y_P2      4470
 UP BND1      Y_P3      6885
 UP BND1      Y_P4      12652
 UP BND1      Y_P5      14113
ENDATA
