NAME          REFINERY_SCHED_Large
OBJSENSE
  MIN
ROWS
 N  NET_COST
 L  MODE_U0_T0
 L  MODE_U1_T0
 L  MODE_U2_T0
 L  MODE_U3_T0
 L  MODE_U4_T0
 L  MODE_U5_T0
 L  MODE_U6_T0
 L  MODE_U7_T0
 L  CAPMAX_U0_M0_T0
 G  CAPMIN_U0_M0_T0
 L  CAPMAX_U0_M1_T0
 G  CAPMIN_U0_M1_T0
 L  CAPMAX_U0_M2_T0
 G  CAPMIN_U0_M2_T0
 L  CAPMAX_U1_M0_T0
 G  CAPMIN_U1_M0_T0
 L  CAPMAX_U1_M1_T0
 G  CAPMIN_U1_M1_T0
 L  CAPMAX_U1_M2_T0
 G  CAPMIN_U1_M2_T0
 L  CAPMAX_U2_M0_T0
 G  CAPMIN_U2_M0_T0
 L  CAPMAX_U2_M1_T0
 G  CAPMIN_U2_M1_T0
 L  CAPMAX_U2_M2_T0
 G  CAPMIN_U2_M2_T0
 L  CAPMAX_U3_M0_T0
 G  CAPMIN_U3_M0_T0
 L  CAPMAX_U3_M1_T0
 G  CAPMIN_U3_M1_T0
 L  CAPMAX_U3_M2_T0
 G  CAPMIN_U3_M2_T0
 L  CAPMAX_U4_M0_T0
 G  CAPMIN_U4_M0_T0
 L  CAPMAX_U4_M1_T0
 G  CAPMIN_U4_M1_T0
 L  CAPMAX_U4_M2_T0
 G  CAPMIN_U4_M2_T0
 L  CAPMAX_U5_M0_T0
 G  CAPMIN_U5_M0_T0
 L  CAPMAX_U5_M1_T0
 G  CAPMIN_U5_M1_T0
 L  CAPMAX_U5_M2_T0
 G  CAPMIN_U5_M2_T0
 L  CAPMAX_U6_M0_T0
 G  CAPMIN_U6_M0_T0
 L  CAPMAX_U6_M1_T0
 G  CAPMIN_U6_M1_T0
 L  CAPMAX_U6_M2_T0
 G  CAPMIN_U6_M2_T0
 L  CAPMAX_U7_M0_T0
 G  CAPMIN_U7_M0_T0
 L  CAPMAX_U7_M1_T0
 G  CAPMIN_U7_M1_T0
 L  CAPMAX_U7_M2_T0
 G  CAPMIN_U7_M2_T0
 E  MBAL_U0_T0
 E  MBAL_U1_T0
 E  MBAL_U2_T0
 E  MBAL_U3_T0
 E  MBAL_U4_T0
 E  MBAL_U5_T0
 E  MBAL_U6_T0
 G  DEMAND_T0
 L  MODE_U0_T1
 L  MODE_U1_T1
 L  MODE_U2_T1
 L  MODE_U3_T1
 L  MODE_U4_T1
 L  MODE_U5_T1
 L  MODE_U6_T1
 L  MODE_U7_T1
 L  CAPMAX_U0_M0_T1
 G  CAPMIN_U0_M0_T1
 L  CAPMAX_U0_M1_T1
 G  CAPMIN_U0_M1_T1
 L  CAPMAX_U0_M2_T1
 G  CAPMIN_U0_M2_T1
 L  CAPMAX_U1_M0_T1
 G  CAPMIN_U1_M0_T1
 L  CAPMAX_U1_M1_T1
 G  CAPMIN_U1_M1_T1
 L  CAPMAX_U1_M2_T1
 G  CAPMIN_U1_M2_T1
 L  CAPMAX_U2_M0_T1
 G  CAPMIN_U2_M0_T1
 L  CAPMAX_U2_M1_T1
 G  CAPMIN_U2_M1_T1
 L  CAPMAX_U2_M2_T1
 G  CAPMIN_U2_M2_T1
 L  CAPMAX_U3_M0_T1
 G  CAPMIN_U3_M0_T1
 L  CAPMAX_U3_M1_T1
 G  CAPMIN_U3_M1_T1
 L  CAPMAX_U3_M2_T1
 G  CAPMIN_U3_M2_T1
 L  CAPMAX_U4_M0_T1
 G  CAPMIN_U4_M0_T1
 L  CAPMAX_U4_M1_T1
 G  CAPMIN_U4_M1_T1
 L  CAPMAX_U4_M2_T1
 G  CAPMIN_U4_M2_T1
 L  CAPMAX_U5_M0_T1
 G  CAPMIN_U5_M0_T1
 L  CAPMAX_U5_M1_T1
 G  CAPMIN_U5_M1_T1
 L  CAPMAX_U5_M2_T1
 G  CAPMIN_U5_M2_T1
 L  CAPMAX_U6_M0_T1
 G  CAPMIN_U6_M0_T1
 L  CAPMAX_U6_M1_T1
 G  CAPMIN_U6_M1_T1
 L  CAPMAX_U6_M2_T1
 G  CAPMIN_U6_M2_T1
 L  CAPMAX_U7_M0_T1
 G  CAPMIN_U7_M0_T1
 L  CAPMAX_U7_M1_T1
 G  CAPMIN_U7_M1_T1
 L  CAPMAX_U7_M2_T1
 G  CAPMIN_U7_M2_T1
 E  MBAL_U0_T1
 E  MBAL_U1_T1
 E  MBAL_U2_T1
 E  MBAL_U3_T1
 E  MBAL_U4_T1
 E  MBAL_U5_T1
 E  MBAL_U6_T1
 G  DEMAND_T1
 L  MODE_U0_T2
 L  MODE_U1_T2
 L  MODE_U2_T2
 L  MODE_U3_T2
 L  MODE_U4_T2
 L  MODE_U5_T2
 L  MODE_U6_T2
 L  MODE_U7_T2
 L  CAPMAX_U0_M0_T2
 G  CAPMIN_U0_M0_T2
 L  CAPMAX_U0_M1_T2
 G  CAPMIN_U0_M1_T2
 L  CAPMAX_U0_M2_T2
 G  CAPMIN_U0_M2_T2
 L  CAPMAX_U1_M0_T2
 G  CAPMIN_U1_M0_T2
 L  CAPMAX_U1_M1_T2
 G  CAPMIN_U1_M1_T2
 L  CAPMAX_U1_M2_T2
 G  CAPMIN_U1_M2_T2
 L  CAPMAX_U2_M0_T2
 G  CAPMIN_U2_M0_T2
 L  CAPMAX_U2_M1_T2
 G  CAPMIN_U2_M1_T2
 L  CAPMAX_U2_M2_T2
 G  CAPMIN_U2_M2_T2
 L  CAPMAX_U3_M0_T2
 G  CAPMIN_U3_M0_T2
 L  CAPMAX_U3_M1_T2
 G  CAPMIN_U3_M1_T2
 L  CAPMAX_U3_M2_T2
 G  CAPMIN_U3_M2_T2
 L  CAPMAX_U4_M0_T2
 G  CAPMIN_U4_M0_T2
 L  CAPMAX_U4_M1_T2
 G  CAPMIN_U4_M1_T2
 L  CAPMAX_U4_M2_T2
 G  CAPMIN_U4_M2_T2
 L  CAPMAX_U5_M0_T2
 G  CAPMIN_U5_M0_T2
 L  CAPMAX_U5_M1_T2
 G  CAPMIN_U5_M1_T2
 L  CAPMAX_U5_M2_T2
 G  CAPMIN_U5_M2_T2
 L  CAPMAX_U6_M0_T2
 G  CAPMIN_U6_M0_T2
 L  CAPMAX_U6_M1_T2
 G  CAPMIN_U6_M1_T2
 L  CAPMAX_U6_M2_T2
 G  CAPMIN_U6_M2_T2
 L  CAPMAX_U7_M0_T2
 G  CAPMIN_U7_M0_T2
 L  CAPMAX_U7_M1_T2
 G  CAPMIN_U7_M1_T2
 L  CAPMAX_U7_M2_T2
 G  CAPMIN_U7_M2_T2
 E  MBAL_U0_T2
 E  MBAL_U1_T2
 E  MBAL_U2_T2
 E  MBAL_U3_T2
 E  MBAL_U4_T2
 E  MBAL_U5_T2
 E  MBAL_U6_T2
 G  DEMAND_T2
 L  MODE_U0_T3
 L  MODE_U1_T3
 L  MODE_U2_T3
 L  MODE_U3_T3
 L  MODE_U4_T3
 L  MODE_U5_T3
 L  MODE_U6_T3
 L  MODE_U7_T3
 L  CAPMAX_U0_M0_T3
 G  CAPMIN_U0_M0_T3
 L  CAPMAX_U0_M1_T3
 G  CAPMIN_U0_M1_T3
 L  CAPMAX_U0_M2_T3
 G  CAPMIN_U0_M2_T3
 L  CAPMAX_U1_M0_T3
 G  CAPMIN_U1_M0_T3
 L  CAPMAX_U1_M1_T3
 G  CAPMIN_U1_M1_T3
 L  CAPMAX_U1_M2_T3
 G  CAPMIN_U1_M2_T3
 L  CAPMAX_U2_M0_T3
 G  CAPMIN_U2_M0_T3
 L  CAPMAX_U2_M1_T3
 G  CAPMIN_U2_M1_T3
 L  CAPMAX_U2_M2_T3
 G  CAPMIN_U2_M2_T3
 L  CAPMAX_U3_M0_T3
 G  CAPMIN_U3_M0_T3
 L  CAPMAX_U3_M1_T3
 G  CAPMIN_U3_M1_T3
 L  CAPMAX_U3_M2_T3
 G  CAPMIN_U3_M2_T3
 L  CAPMAX_U4_M0_T3
 G  CAPMIN_U4_M0_T3
 L  CAPMAX_U4_M1_T3
 G  CAPMIN_U4_M1_T3
 L  CAPMAX_U4_M2_T3
 G  CAPMIN_U4_M2_T3
 L  CAPMAX_U5_M0_T3
 G  CAPMIN_U5_M0_T3
 L  CAPMAX_U5_M1_T3
 G  CAPMIN_U5_M1_T3
 L  CAPMAX_U5_M2_T3
 G  CAPMIN_U5_M2_T3
 L  CAPMAX_U6_M0_T3
 G  CAPMIN_U6_M0_T3
 L  CAPMAX_U6_M1_T3
 G  CAPMIN_U6_M1_T3
 L  CAPMAX_U6_M2_T3
 G  CAPMIN_U6_M2_T3
 L  CAPMAX_U7_M0_T3
 G  CAPMIN_U7_M0_T3
 L  CAPMAX_U7_M1_T3
 G  CAPMIN_U7_M1_T3
 L  CAPMAX_U7_M2_T3
 G  CAPMIN_U7_M2_T3
 E  MBAL_U0_T3
 E  MBAL_U1_T3
 E  MBAL_U2_T3
 E  MBAL_U3_T3
 E  MBAL_U4_T3
 E  MBAL_U5_T3
 E  MBAL_U6_T3
 G  DEMAND_T3
 L  MODE_U0_T4
 L  MODE_U1_T4
 L  MODE_U2_T4
 L  MODE_U3_T4
 L  MODE_U4_T4
 L  MODE_U5_T4
 L  MODE_U6_T4
 L  MODE_U7_T4
 L  CAPMAX_U0_M0_T4
 G  CAPMIN_U0_M0_T4
 L  CAPMAX_U0_M1_T4
 G  CAPMIN_U0_M1_T4
 L  CAPMAX_U0_M2_T4
 G  CAPMIN_U0_M2_T4
 L  CAPMAX_U1_M0_T4
 G  CAPMIN_U1_M0_T4
 L  CAPMAX_U1_M1_T4
 G  CAPMIN_U1_M1_T4
 L  CAPMAX_U1_M2_T4
 G  CAPMIN_U1_M2_T4
 L  CAPMAX_U2_M0_T4
 G  CAPMIN_U2_M0_T4
 L  CAPMAX_U2_M1_T4
 G  CAPMIN_U2_M1_T4
 L  CAPMAX_U2_M2_T4
 G  CAPMIN_U2_M2_T4
 L  CAPMAX_U3_M0_T4
 G  CAPMIN_U3_M0_T4
 L  CAPMAX_U3_M1_T4
 G  CAPMIN_U3_M1_T4
 L  CAPMAX_U3_M2_T4
 G  CAPMIN_U3_M2_T4
 L  CAPMAX_U4_M0_T4
 G  CAPMIN_U4_M0_T4
 L  CAPMAX_U4_M1_T4
 G  CAPMIN_U4_M1_T4
 L  CAPMAX_U4_M2_T4
 G  CAPMIN_U4_M2_T4
 L  CAPMAX_U5_M0_T4
 G  CAPMIN_U5_M0_T4
 L  CAPMAX_U5_M1_T4
 G  CAPMIN_U5_M1_T4
 L  CAPMAX_U5_M2_T4
 G  CAPMIN_U5_M2_T4
 L  CAPMAX_U6_M0_T4
 G  CAPMIN_U6_M0_T4
 L  CAPMAX_U6_M1_T4
 G  CAPMIN_U6_M1_T4
 L  CAPMAX_U6_M2_T4
 G  CAPMIN_U6_M2_T4
 L  CAPMAX_U7_M0_T4
 G  CAPMIN_U7_M0_T4
 L  CAPMAX_U7_M1_T4
 G  CAPMIN_U7_M1_T4
 L  CAPMAX_U7_M2_T4
 G  CAPMIN_U7_M2_T4
 E  MBAL_U0_T4
 E  MBAL_U1_T4
 E  MBAL_U2_T4
 E  MBAL_U3_T4
 E  MBAL_U4_T4
 E  MBAL_U5_T4
 E  MBAL_U6_T4
 G  DEMAND_T4
 L  MODE_U0_T5
 L  MODE_U1_T5
 L  MODE_U2_T5
 L  MODE_U3_T5
 L  MODE_U4_T5
 L  MODE_U5_T5
 L  MODE_U6_T5
 L  MODE_U7_T5
 L  CAPMAX_U0_M0_T5
 G  CAPMIN_U0_M0_T5
 L  CAPMAX_U0_M1_T5
 G  CAPMIN_U0_M1_T5
 L  CAPMAX_U0_M2_T5
 G  CAPMIN_U0_M2_T5
 L  CAPMAX_U1_M0_T5
 G  CAPMIN_U1_M0_T5
 L  CAPMAX_U1_M1_T5
 G  CAPMIN_U1_M1_T5
 L  CAPMAX_U1_M2_T5
 G  CAPMIN_U1_M2_T5
 L  CAPMAX_U2_M0_T5
 G  CAPMIN_U2_M0_T5
 L  CAPMAX_U2_M1_T5
 G  CAPMIN_U2_M1_T5
 L  CAPMAX_U2_M2_T5
 G  CAPMIN_U2_M2_T5
 L  CAPMAX_U3_M0_T5
 G  CAPMIN_U3_M0_T5
 L  CAPMAX_U3_M1_T5
 G  CAPMIN_U3_M1_T5
 L  CAPMAX_U3_M2_T5
 G  CAPMIN_U3_M2_T5
 L  CAPMAX_U4_M0_T5
 G  CAPMIN_U4_M0_T5
 L  CAPMAX_U4_M1_T5
 G  CAPMIN_U4_M1_T5
 L  CAPMAX_U4_M2_T5
 G  CAPMIN_U4_M2_T5
 L  CAPMAX_U5_M0_T5
 G  CAPMIN_U5_M0_T5
 L  CAPMAX_U5_M1_T5
 G  CAPMIN_U5_M1_T5
 L  CAPMAX_U5_M2_T5
 G  CAPMIN_U5_M2_T5
 L  CAPMAX_U6_M0_T5
 G  CAPMIN_U6_M0_T5
 L  CAPMAX_U6_M1_T5
 G  CAPMIN_U6_M1_T5
 L  CAPMAX_U6_M2_T5
 G  CAPMIN_U6_M2_T5
 L  CAPMAX_U7_M0_T5
 G  CAPMIN_U7_M0_T5
 L  CAPMAX_U7_M1_T5
 G  CAPMIN_U7_M1_T5
 L  CAPMAX_U7_M2_T5
 G  CAPMIN_U7_M2_T5
 E  MBAL_U0_T5
 E  MBAL_U1_T5
 E  MBAL_U2_T5
 E  MBAL_U3_T5
 E  MBAL_U4_T5
 E  MBAL_U5_T5
 E  MBAL_U6_T5
 G  DEMAND_T5
 L  MODE_U0_T6
 L  MODE_U1_T6
 L  MODE_U2_T6
 L  MODE_U3_T6
 L  MODE_U4_T6
 L  MODE_U5_T6
 L  MODE_U6_T6
 L  MODE_U7_T6
 L  CAPMAX_U0_M0_T6
 G  CAPMIN_U0_M0_T6
 L  CAPMAX_U0_M1_T6
 G  CAPMIN_U0_M1_T6
 L  CAPMAX_U0_M2_T6
 G  CAPMIN_U0_M2_T6
 L  CAPMAX_U1_M0_T6
 G  CAPMIN_U1_M0_T6
 L  CAPMAX_U1_M1_T6
 G  CAPMIN_U1_M1_T6
 L  CAPMAX_U1_M2_T6
 G  CAPMIN_U1_M2_T6
 L  CAPMAX_U2_M0_T6
 G  CAPMIN_U2_M0_T6
 L  CAPMAX_U2_M1_T6
 G  CAPMIN_U2_M1_T6
 L  CAPMAX_U2_M2_T6
 G  CAPMIN_U2_M2_T6
 L  CAPMAX_U3_M0_T6
 G  CAPMIN_U3_M0_T6
 L  CAPMAX_U3_M1_T6
 G  CAPMIN_U3_M1_T6
 L  CAPMAX_U3_M2_T6
 G  CAPMIN_U3_M2_T6
 L  CAPMAX_U4_M0_T6
 G  CAPMIN_U4_M0_T6
 L  CAPMAX_U4_M1_T6
 G  CAPMIN_U4_M1_T6
 L  CAPMAX_U4_M2_T6
 G  CAPMIN_U4_M2_T6
 L  CAPMAX_U5_M0_T6
 G  CAPMIN_U5_M0_T6
 L  CAPMAX_U5_M1_T6
 G  CAPMIN_U5_M1_T6
 L  CAPMAX_U5_M2_T6
 G  CAPMIN_U5_M2_T6
 L  CAPMAX_U6_M0_T6
 G  CAPMIN_U6_M0_T6
 L  CAPMAX_U6_M1_T6
 G  CAPMIN_U6_M1_T6
 L  CAPMAX_U6_M2_T6
 G  CAPMIN_U6_M2_T6
 L  CAPMAX_U7_M0_T6
 G  CAPMIN_U7_M0_T6
 L  CAPMAX_U7_M1_T6
 G  CAPMIN_U7_M1_T6
 L  CAPMAX_U7_M2_T6
 G  CAPMIN_U7_M2_T6
 E  MBAL_U0_T6
 E  MBAL_U1_T6
 E  MBAL_U2_T6
 E  MBAL_U3_T6
 E  MBAL_U4_T6
 E  MBAL_U5_T6
 E  MBAL_U6_T6
 G  DEMAND_T6
 L  MODE_U0_T7
 L  MODE_U1_T7
 L  MODE_U2_T7
 L  MODE_U3_T7
 L  MODE_U4_T7
 L  MODE_U5_T7
 L  MODE_U6_T7
 L  MODE_U7_T7
 L  CAPMAX_U0_M0_T7
 G  CAPMIN_U0_M0_T7
 L  CAPMAX_U0_M1_T7
 G  CAPMIN_U0_M1_T7
 L  CAPMAX_U0_M2_T7
 G  CAPMIN_U0_M2_T7
 L  CAPMAX_U1_M0_T7
 G  CAPMIN_U1_M0_T7
 L  CAPMAX_U1_M1_T7
 G  CAPMIN_U1_M1_T7
 L  CAPMAX_U1_M2_T7
 G  CAPMIN_U1_M2_T7
 L  CAPMAX_U2_M0_T7
 G  CAPMIN_U2_M0_T7
 L  CAPMAX_U2_M1_T7
 G  CAPMIN_U2_M1_T7
 L  CAPMAX_U2_M2_T7
 G  CAPMIN_U2_M2_T7
 L  CAPMAX_U3_M0_T7
 G  CAPMIN_U3_M0_T7
 L  CAPMAX_U3_M1_T7
 G  CAPMIN_U3_M1_T7
 L  CAPMAX_U3_M2_T7
 G  CAPMIN_U3_M2_T7
 L  CAPMAX_U4_M0_T7
 G  CAPMIN_U4_M0_T7
 L  CAPMAX_U4_M1_T7
 G  CAPMIN_U4_M1_T7
 L  CAPMAX_U4_M2_T7
 G  CAPMIN_U4_M2_T7
 L  CAPMAX_U5_M0_T7
 G  CAPMIN_U5_M0_T7
 L  CAPMAX_U5_M1_T7
 G  CAPMIN_U5_M1_T7
 L  CAPMAX_U5_M2_T7
 G  CAPMIN_U5_M2_T7
 L  CAPMAX_U6_M0_T7
 G  CAPMIN_U6_M0_T7
 L  CAPMAX_U6_M1_T7
 G  CAPMIN_U6_M1_T7
 L  CAPMAX_U6_M2_T7
 G  CAPMIN_U6_M2_T7
 L  CAPMAX_U7_M0_T7
 G  CAPMIN_U7_M0_T7
 L  CAPMAX_U7_M1_T7
 G  CAPMIN_U7_M1_T7
 L  CAPMAX_U7_M2_T7
 G  CAPMIN_U7_M2_T7
 E  MBAL_U0_T7
 E  MBAL_U1_T7
 E  MBAL_U2_T7
 E  MBAL_U3_T7
 E  MBAL_U4_T7
 E  MBAL_U5_T7
 E  MBAL_U6_T7
 G  DEMAND_T7
 L  MODE_U0_T8
 L  MODE_U1_T8
 L  MODE_U2_T8
 L  MODE_U3_T8
 L  MODE_U4_T8
 L  MODE_U5_T8
 L  MODE_U6_T8
 L  MODE_U7_T8
 L  CAPMAX_U0_M0_T8
 G  CAPMIN_U0_M0_T8
 L  CAPMAX_U0_M1_T8
 G  CAPMIN_U0_M1_T8
 L  CAPMAX_U0_M2_T8
 G  CAPMIN_U0_M2_T8
 L  CAPMAX_U1_M0_T8
 G  CAPMIN_U1_M0_T8
 L  CAPMAX_U1_M1_T8
 G  CAPMIN_U1_M1_T8
 L  CAPMAX_U1_M2_T8
 G  CAPMIN_U1_M2_T8
 L  CAPMAX_U2_M0_T8
 G  CAPMIN_U2_M0_T8
 L  CAPMAX_U2_M1_T8
 G  CAPMIN_U2_M1_T8
 L  CAPMAX_U2_M2_T8
 G  CAPMIN_U2_M2_T8
 L  CAPMAX_U3_M0_T8
 G  CAPMIN_U3_M0_T8
 L  CAPMAX_U3_M1_T8
 G  CAPMIN_U3_M1_T8
 L  CAPMAX_U3_M2_T8
 G  CAPMIN_U3_M2_T8
 L  CAPMAX_U4_M0_T8
 G  CAPMIN_U4_M0_T8
 L  CAPMAX_U4_M1_T8
 G  CAPMIN_U4_M1_T8
 L  CAPMAX_U4_M2_T8
 G  CAPMIN_U4_M2_T8
 L  CAPMAX_U5_M0_T8
 G  CAPMIN_U5_M0_T8
 L  CAPMAX_U5_M1_T8
 G  CAPMIN_U5_M1_T8
 L  CAPMAX_U5_M2_T8
 G  CAPMIN_U5_M2_T8
 L  CAPMAX_U6_M0_T8
 G  CAPMIN_U6_M0_T8
 L  CAPMAX_U6_M1_T8
 G  CAPMIN_U6_M1_T8
 L  CAPMAX_U6_M2_T8
 G  CAPMIN_U6_M2_T8
 L  CAPMAX_U7_M0_T8
 G  CAPMIN_U7_M0_T8
 L  CAPMAX_U7_M1_T8
 G  CAPMIN_U7_M1_T8
 L  CAPMAX_U7_M2_T8
 G  CAPMIN_U7_M2_T8
 E  MBAL_U0_T8
 E  MBAL_U1_T8
 E  MBAL_U2_T8
 E  MBAL_U3_T8
 E  MBAL_U4_T8
 E  MBAL_U5_T8
 E  MBAL_U6_T8
 G  DEMAND_T8
 L  MODE_U0_T9
 L  MODE_U1_T9
 L  MODE_U2_T9
 L  MODE_U3_T9
 L  MODE_U4_T9
 L  MODE_U5_T9
 L  MODE_U6_T9
 L  MODE_U7_T9
 L  CAPMAX_U0_M0_T9
 G  CAPMIN_U0_M0_T9
 L  CAPMAX_U0_M1_T9
 G  CAPMIN_U0_M1_T9
 L  CAPMAX_U0_M2_T9
 G  CAPMIN_U0_M2_T9
 L  CAPMAX_U1_M0_T9
 G  CAPMIN_U1_M0_T9
 L  CAPMAX_U1_M1_T9
 G  CAPMIN_U1_M1_T9
 L  CAPMAX_U1_M2_T9
 G  CAPMIN_U1_M2_T9
 L  CAPMAX_U2_M0_T9
 G  CAPMIN_U2_M0_T9
 L  CAPMAX_U2_M1_T9
 G  CAPMIN_U2_M1_T9
 L  CAPMAX_U2_M2_T9
 G  CAPMIN_U2_M2_T9
 L  CAPMAX_U3_M0_T9
 G  CAPMIN_U3_M0_T9
 L  CAPMAX_U3_M1_T9
 G  CAPMIN_U3_M1_T9
 L  CAPMAX_U3_M2_T9
 G  CAPMIN_U3_M2_T9
 L  CAPMAX_U4_M0_T9
 G  CAPMIN_U4_M0_T9
 L  CAPMAX_U4_M1_T9
 G  CAPMIN_U4_M1_T9
 L  CAPMAX_U4_M2_T9
 G  CAPMIN_U4_M2_T9
 L  CAPMAX_U5_M0_T9
 G  CAPMIN_U5_M0_T9
 L  CAPMAX_U5_M1_T9
 G  CAPMIN_U5_M1_T9
 L  CAPMAX_U5_M2_T9
 G  CAPMIN_U5_M2_T9
 L  CAPMAX_U6_M0_T9
 G  CAPMIN_U6_M0_T9
 L  CAPMAX_U6_M1_T9
 G  CAPMIN_U6_M1_T9
 L  CAPMAX_U6_M2_T9
 G  CAPMIN_U6_M2_T9
 L  CAPMAX_U7_M0_T9
 G  CAPMIN_U7_M0_T9
 L  CAPMAX_U7_M1_T9
 G  CAPMIN_U7_M1_T9
 L  CAPMAX_U7_M2_T9
 G  CAPMIN_U7_M2_T9
 E  MBAL_U0_T9
 E  MBAL_U1_T9
 E  MBAL_U2_T9
 E  MBAL_U3_T9
 E  MBAL_U4_T9
 E  MBAL_U5_T9
 E  MBAL_U6_T9
 G  DEMAND_T9
 L  MODE_U0_T10
 L  MODE_U1_T10
 L  MODE_U2_T10
 L  MODE_U3_T10
 L  MODE_U4_T10
 L  MODE_U5_T10
 L  MODE_U6_T10
 L  MODE_U7_T10
 L  CAPMAX_U0_M0_T10
 G  CAPMIN_U0_M0_T10
 L  CAPMAX_U0_M1_T10
 G  CAPMIN_U0_M1_T10
 L  CAPMAX_U0_M2_T10
 G  CAPMIN_U0_M2_T10
 L  CAPMAX_U1_M0_T10
 G  CAPMIN_U1_M0_T10
 L  CAPMAX_U1_M1_T10
 G  CAPMIN_U1_M1_T10
 L  CAPMAX_U1_M2_T10
 G  CAPMIN_U1_M2_T10
 L  CAPMAX_U2_M0_T10
 G  CAPMIN_U2_M0_T10
 L  CAPMAX_U2_M1_T10
 G  CAPMIN_U2_M1_T10
 L  CAPMAX_U2_M2_T10
 G  CAPMIN_U2_M2_T10
 L  CAPMAX_U3_M0_T10
 G  CAPMIN_U3_M0_T10
 L  CAPMAX_U3_M1_T10
 G  CAPMIN_U3_M1_T10
 L  CAPMAX_U3_M2_T10
 G  CAPMIN_U3_M2_T10
 L  CAPMAX_U4_M0_T10
 G  CAPMIN_U4_M0_T10
 L  CAPMAX_U4_M1_T10
 G  CAPMIN_U4_M1_T10
 L  CAPMAX_U4_M2_T10
 G  CAPMIN_U4_M2_T10
 L  CAPMAX_U5_M0_T10
 G  CAPMIN_U5_M0_T10
 L  CAPMAX_U5_M1_T10
 G  CAPMIN_U5_M1_T10
 L  CAPMAX_U5_M2_T10
 G  CAPMIN_U5_M2_T10
 L  CAPMAX_U6_M0_T10
 G  CAPMIN_U6_M0_T10
 L  CAPMAX_U6_M1_T10
 G  CAPMIN_U6_M1_T10
 L  CAPMAX_U6_M2_T10
 G  CAPMIN_U6_M2_T10
 L  CAPMAX_U7_M0_T10
 G  CAPMIN_U7_M0_T10
 L  CAPMAX_U7_M1_T10
 G  CAPMIN_U7_M1_T10
 L  CAPMAX_U7_M2_T10
 G  CAPMIN_U7_M2_T10
 E  MBAL_U0_T10
 E  MBAL_U1_T10
 E  MBAL_U2_T10
 E  MBAL_U3_T10
 E  MBAL_U4_T10
 E  MBAL_U5_T10
 E  MBAL_U6_T10
 G  DEMAND_T10
 L  MODE_U0_T11
 L  MODE_U1_T11
 L  MODE_U2_T11
 L  MODE_U3_T11
 L  MODE_U4_T11
 L  MODE_U5_T11
 L  MODE_U6_T11
 L  MODE_U7_T11
 L  CAPMAX_U0_M0_T11
 G  CAPMIN_U0_M0_T11
 L  CAPMAX_U0_M1_T11
 G  CAPMIN_U0_M1_T11
 L  CAPMAX_U0_M2_T11
 G  CAPMIN_U0_M2_T11
 L  CAPMAX_U1_M0_T11
 G  CAPMIN_U1_M0_T11
 L  CAPMAX_U1_M1_T11
 G  CAPMIN_U1_M1_T11
 L  CAPMAX_U1_M2_T11
 G  CAPMIN_U1_M2_T11
 L  CAPMAX_U2_M0_T11
 G  CAPMIN_U2_M0_T11
 L  CAPMAX_U2_M1_T11
 G  CAPMIN_U2_M1_T11
 L  CAPMAX_U2_M2_T11
 G  CAPMIN_U2_M2_T11
 L  CAPMAX_U3_M0_T11
 G  CAPMIN_U3_M0_T11
 L  CAPMAX_U3_M1_T11
 G  CAPMIN_U3_M1_T11
 L  CAPMAX_U3_M2_T11
 G  CAPMIN_U3_M2_T11
 L  CAPMAX_U4_M0_T11
 G  CAPMIN_U4_M0_T11
 L  CAPMAX_U4_M1_T11
 G  CAPMIN_U4_M1_T11
 L  CAPMAX_U4_M2_T11
 G  CAPMIN_U4_M2_T11
 L  CAPMAX_U5_M0_T11
 G  CAPMIN_U5_M0_T11
 L  CAPMAX_U5_M1_T11
 G  CAPMIN_U5_M1_T11
 L  CAPMAX_U5_M2_T11
 G  CAPMIN_U5_M2_T11
 L  CAPMAX_U6_M0_T11
 G  CAPMIN_U6_M0_T11
 L  CAPMAX_U6_M1_T11
 G  CAPMIN_U6_M1_T11
 L  CAPMAX_U6_M2_T11
 G  CAPMIN_U6_M2_T11
 L  CAPMAX_U7_M0_T11
 G  CAPMIN_U7_M0_T11
 L  CAPMAX_U7_M1_T11
 G  CAPMIN_U7_M1_T11
 L  CAPMAX_U7_M2_T11
 G  CAPMIN_U7_M2_T11
 E  MBAL_U0_T11
 E  MBAL_U1_T11
 E  MBAL_U2_T11
 E  MBAL_U3_T11
 E  MBAL_U4_T11
 E  MBAL_U5_T11
 E  MBAL_U6_T11
 G  DEMAND_T11
 L  MODE_U0_T12
 L  MODE_U1_T12
 L  MODE_U2_T12
 L  MODE_U3_T12
 L  MODE_U4_T12
 L  MODE_U5_T12
 L  MODE_U6_T12
 L  MODE_U7_T12
 L  CAPMAX_U0_M0_T12
 G  CAPMIN_U0_M0_T12
 L  CAPMAX_U0_M1_T12
 G  CAPMIN_U0_M1_T12
 L  CAPMAX_U0_M2_T12
 G  CAPMIN_U0_M2_T12
 L  CAPMAX_U1_M0_T12
 G  CAPMIN_U1_M0_T12
 L  CAPMAX_U1_M1_T12
 G  CAPMIN_U1_M1_T12
 L  CAPMAX_U1_M2_T12
 G  CAPMIN_U1_M2_T12
 L  CAPMAX_U2_M0_T12
 G  CAPMIN_U2_M0_T12
 L  CAPMAX_U2_M1_T12
 G  CAPMIN_U2_M1_T12
 L  CAPMAX_U2_M2_T12
 G  CAPMIN_U2_M2_T12
 L  CAPMAX_U3_M0_T12
 G  CAPMIN_U3_M0_T12
 L  CAPMAX_U3_M1_T12
 G  CAPMIN_U3_M1_T12
 L  CAPMAX_U3_M2_T12
 G  CAPMIN_U3_M2_T12
 L  CAPMAX_U4_M0_T12
 G  CAPMIN_U4_M0_T12
 L  CAPMAX_U4_M1_T12
 G  CAPMIN_U4_M1_T12
 L  CAPMAX_U4_M2_T12
 G  CAPMIN_U4_M2_T12
 L  CAPMAX_U5_M0_T12
 G  CAPMIN_U5_M0_T12
 L  CAPMAX_U5_M1_T12
 G  CAPMIN_U5_M1_T12
 L  CAPMAX_U5_M2_T12
 G  CAPMIN_U5_M2_T12
 L  CAPMAX_U6_M0_T12
 G  CAPMIN_U6_M0_T12
 L  CAPMAX_U6_M1_T12
 G  CAPMIN_U6_M1_T12
 L  CAPMAX_U6_M2_T12
 G  CAPMIN_U6_M2_T12
 L  CAPMAX_U7_M0_T12
 G  CAPMIN_U7_M0_T12
 L  CAPMAX_U7_M1_T12
 G  CAPMIN_U7_M1_T12
 L  CAPMAX_U7_M2_T12
 G  CAPMIN_U7_M2_T12
 E  MBAL_U0_T12
 E  MBAL_U1_T12
 E  MBAL_U2_T12
 E  MBAL_U3_T12
 E  MBAL_U4_T12
 E  MBAL_U5_T12
 E  MBAL_U6_T12
 G  DEMAND_T12
 L  MODE_U0_T13
 L  MODE_U1_T13
 L  MODE_U2_T13
 L  MODE_U3_T13
 L  MODE_U4_T13
 L  MODE_U5_T13
 L  MODE_U6_T13
 L  MODE_U7_T13
 L  CAPMAX_U0_M0_T13
 G  CAPMIN_U0_M0_T13
 L  CAPMAX_U0_M1_T13
 G  CAPMIN_U0_M1_T13
 L  CAPMAX_U0_M2_T13
 G  CAPMIN_U0_M2_T13
 L  CAPMAX_U1_M0_T13
 G  CAPMIN_U1_M0_T13
 L  CAPMAX_U1_M1_T13
 G  CAPMIN_U1_M1_T13
 L  CAPMAX_U1_M2_T13
 G  CAPMIN_U1_M2_T13
 L  CAPMAX_U2_M0_T13
 G  CAPMIN_U2_M0_T13
 L  CAPMAX_U2_M1_T13
 G  CAPMIN_U2_M1_T13
 L  CAPMAX_U2_M2_T13
 G  CAPMIN_U2_M2_T13
 L  CAPMAX_U3_M0_T13
 G  CAPMIN_U3_M0_T13
 L  CAPMAX_U3_M1_T13
 G  CAPMIN_U3_M1_T13
 L  CAPMAX_U3_M2_T13
 G  CAPMIN_U3_M2_T13
 L  CAPMAX_U4_M0_T13
 G  CAPMIN_U4_M0_T13
 L  CAPMAX_U4_M1_T13
 G  CAPMIN_U4_M1_T13
 L  CAPMAX_U4_M2_T13
 G  CAPMIN_U4_M2_T13
 L  CAPMAX_U5_M0_T13
 G  CAPMIN_U5_M0_T13
 L  CAPMAX_U5_M1_T13
 G  CAPMIN_U5_M1_T13
 L  CAPMAX_U5_M2_T13
 G  CAPMIN_U5_M2_T13
 L  CAPMAX_U6_M0_T13
 G  CAPMIN_U6_M0_T13
 L  CAPMAX_U6_M1_T13
 G  CAPMIN_U6_M1_T13
 L  CAPMAX_U6_M2_T13
 G  CAPMIN_U6_M2_T13
 L  CAPMAX_U7_M0_T13
 G  CAPMIN_U7_M0_T13
 L  CAPMAX_U7_M1_T13
 G  CAPMIN_U7_M1_T13
 L  CAPMAX_U7_M2_T13
 G  CAPMIN_U7_M2_T13
 E  MBAL_U0_T13
 E  MBAL_U1_T13
 E  MBAL_U2_T13
 E  MBAL_U3_T13
 E  MBAL_U4_T13
 E  MBAL_U5_T13
 E  MBAL_U6_T13
 G  DEMAND_T13
 L  MODE_U0_T14
 L  MODE_U1_T14
 L  MODE_U2_T14
 L  MODE_U3_T14
 L  MODE_U4_T14
 L  MODE_U5_T14
 L  MODE_U6_T14
 L  MODE_U7_T14
 L  CAPMAX_U0_M0_T14
 G  CAPMIN_U0_M0_T14
 L  CAPMAX_U0_M1_T14
 G  CAPMIN_U0_M1_T14
 L  CAPMAX_U0_M2_T14
 G  CAPMIN_U0_M2_T14
 L  CAPMAX_U1_M0_T14
 G  CAPMIN_U1_M0_T14
 L  CAPMAX_U1_M1_T14
 G  CAPMIN_U1_M1_T14
 L  CAPMAX_U1_M2_T14
 G  CAPMIN_U1_M2_T14
 L  CAPMAX_U2_M0_T14
 G  CAPMIN_U2_M0_T14
 L  CAPMAX_U2_M1_T14
 G  CAPMIN_U2_M1_T14
 L  CAPMAX_U2_M2_T14
 G  CAPMIN_U2_M2_T14
 L  CAPMAX_U3_M0_T14
 G  CAPMIN_U3_M0_T14
 L  CAPMAX_U3_M1_T14
 G  CAPMIN_U3_M1_T14
 L  CAPMAX_U3_M2_T14
 G  CAPMIN_U3_M2_T14
 L  CAPMAX_U4_M0_T14
 G  CAPMIN_U4_M0_T14
 L  CAPMAX_U4_M1_T14
 G  CAPMIN_U4_M1_T14
 L  CAPMAX_U4_M2_T14
 G  CAPMIN_U4_M2_T14
 L  CAPMAX_U5_M0_T14
 G  CAPMIN_U5_M0_T14
 L  CAPMAX_U5_M1_T14
 G  CAPMIN_U5_M1_T14
 L  CAPMAX_U5_M2_T14
 G  CAPMIN_U5_M2_T14
 L  CAPMAX_U6_M0_T14
 G  CAPMIN_U6_M0_T14
 L  CAPMAX_U6_M1_T14
 G  CAPMIN_U6_M1_T14
 L  CAPMAX_U6_M2_T14
 G  CAPMIN_U6_M2_T14
 L  CAPMAX_U7_M0_T14
 G  CAPMIN_U7_M0_T14
 L  CAPMAX_U7_M1_T14
 G  CAPMIN_U7_M1_T14
 L  CAPMAX_U7_M2_T14
 G  CAPMIN_U7_M2_T14
 E  MBAL_U0_T14
 E  MBAL_U1_T14
 E  MBAL_U2_T14
 E  MBAL_U3_T14
 E  MBAL_U4_T14
 E  MBAL_U5_T14
 E  MBAL_U6_T14
 G  DEMAND_T14
 L  MODE_U0_T15
 L  MODE_U1_T15
 L  MODE_U2_T15
 L  MODE_U3_T15
 L  MODE_U4_T15
 L  MODE_U5_T15
 L  MODE_U6_T15
 L  MODE_U7_T15
 L  CAPMAX_U0_M0_T15
 G  CAPMIN_U0_M0_T15
 L  CAPMAX_U0_M1_T15
 G  CAPMIN_U0_M1_T15
 L  CAPMAX_U0_M2_T15
 G  CAPMIN_U0_M2_T15
 L  CAPMAX_U1_M0_T15
 G  CAPMIN_U1_M0_T15
 L  CAPMAX_U1_M1_T15
 G  CAPMIN_U1_M1_T15
 L  CAPMAX_U1_M2_T15
 G  CAPMIN_U1_M2_T15
 L  CAPMAX_U2_M0_T15
 G  CAPMIN_U2_M0_T15
 L  CAPMAX_U2_M1_T15
 G  CAPMIN_U2_M1_T15
 L  CAPMAX_U2_M2_T15
 G  CAPMIN_U2_M2_T15
 L  CAPMAX_U3_M0_T15
 G  CAPMIN_U3_M0_T15
 L  CAPMAX_U3_M1_T15
 G  CAPMIN_U3_M1_T15
 L  CAPMAX_U3_M2_T15
 G  CAPMIN_U3_M2_T15
 L  CAPMAX_U4_M0_T15
 G  CAPMIN_U4_M0_T15
 L  CAPMAX_U4_M1_T15
 G  CAPMIN_U4_M1_T15
 L  CAPMAX_U4_M2_T15
 G  CAPMIN_U4_M2_T15
 L  CAPMAX_U5_M0_T15
 G  CAPMIN_U5_M0_T15
 L  CAPMAX_U5_M1_T15
 G  CAPMIN_U5_M1_T15
 L  CAPMAX_U5_M2_T15
 G  CAPMIN_U5_M2_T15
 L  CAPMAX_U6_M0_T15
 G  CAPMIN_U6_M0_T15
 L  CAPMAX_U6_M1_T15
 G  CAPMIN_U6_M1_T15
 L  CAPMAX_U6_M2_T15
 G  CAPMIN_U6_M2_T15
 L  CAPMAX_U7_M0_T15
 G  CAPMIN_U7_M0_T15
 L  CAPMAX_U7_M1_T15
 G  CAPMIN_U7_M1_T15
 L  CAPMAX_U7_M2_T15
 G  CAPMIN_U7_M2_T15
 E  MBAL_U0_T15
 E  MBAL_U1_T15
 E  MBAL_U2_T15
 E  MBAL_U3_T15
 E  MBAL_U4_T15
 E  MBAL_U5_T15
 E  MBAL_U6_T15
 G  DEMAND_T15
 L  MODE_U0_T16
 L  MODE_U1_T16
 L  MODE_U2_T16
 L  MODE_U3_T16
 L  MODE_U4_T16
 L  MODE_U5_T16
 L  MODE_U6_T16
 L  MODE_U7_T16
 L  CAPMAX_U0_M0_T16
 G  CAPMIN_U0_M0_T16
 L  CAPMAX_U0_M1_T16
 G  CAPMIN_U0_M1_T16
 L  CAPMAX_U0_M2_T16
 G  CAPMIN_U0_M2_T16
 L  CAPMAX_U1_M0_T16
 G  CAPMIN_U1_M0_T16
 L  CAPMAX_U1_M1_T16
 G  CAPMIN_U1_M1_T16
 L  CAPMAX_U1_M2_T16
 G  CAPMIN_U1_M2_T16
 L  CAPMAX_U2_M0_T16
 G  CAPMIN_U2_M0_T16
 L  CAPMAX_U2_M1_T16
 G  CAPMIN_U2_M1_T16
 L  CAPMAX_U2_M2_T16
 G  CAPMIN_U2_M2_T16
 L  CAPMAX_U3_M0_T16
 G  CAPMIN_U3_M0_T16
 L  CAPMAX_U3_M1_T16
 G  CAPMIN_U3_M1_T16
 L  CAPMAX_U3_M2_T16
 G  CAPMIN_U3_M2_T16
 L  CAPMAX_U4_M0_T16
 G  CAPMIN_U4_M0_T16
 L  CAPMAX_U4_M1_T16
 G  CAPMIN_U4_M1_T16
 L  CAPMAX_U4_M2_T16
 G  CAPMIN_U4_M2_T16
 L  CAPMAX_U5_M0_T16
 G  CAPMIN_U5_M0_T16
 L  CAPMAX_U5_M1_T16
 G  CAPMIN_U5_M1_T16
 L  CAPMAX_U5_M2_T16
 G  CAPMIN_U5_M2_T16
 L  CAPMAX_U6_M0_T16
 G  CAPMIN_U6_M0_T16
 L  CAPMAX_U6_M1_T16
 G  CAPMIN_U6_M1_T16
 L  CAPMAX_U6_M2_T16
 G  CAPMIN_U6_M2_T16
 L  CAPMAX_U7_M0_T16
 G  CAPMIN_U7_M0_T16
 L  CAPMAX_U7_M1_T16
 G  CAPMIN_U7_M1_T16
 L  CAPMAX_U7_M2_T16
 G  CAPMIN_U7_M2_T16
 E  MBAL_U0_T16
 E  MBAL_U1_T16
 E  MBAL_U2_T16
 E  MBAL_U3_T16
 E  MBAL_U4_T16
 E  MBAL_U5_T16
 E  MBAL_U6_T16
 G  DEMAND_T16
 L  MODE_U0_T17
 L  MODE_U1_T17
 L  MODE_U2_T17
 L  MODE_U3_T17
 L  MODE_U4_T17
 L  MODE_U5_T17
 L  MODE_U6_T17
 L  MODE_U7_T17
 L  CAPMAX_U0_M0_T17
 G  CAPMIN_U0_M0_T17
 L  CAPMAX_U0_M1_T17
 G  CAPMIN_U0_M1_T17
 L  CAPMAX_U0_M2_T17
 G  CAPMIN_U0_M2_T17
 L  CAPMAX_U1_M0_T17
 G  CAPMIN_U1_M0_T17
 L  CAPMAX_U1_M1_T17
 G  CAPMIN_U1_M1_T17
 L  CAPMAX_U1_M2_T17
 G  CAPMIN_U1_M2_T17
 L  CAPMAX_U2_M0_T17
 G  CAPMIN_U2_M0_T17
 L  CAPMAX_U2_M1_T17
 G  CAPMIN_U2_M1_T17
 L  CAPMAX_U2_M2_T17
 G  CAPMIN_U2_M2_T17
 L  CAPMAX_U3_M0_T17
 G  CAPMIN_U3_M0_T17
 L  CAPMAX_U3_M1_T17
 G  CAPMIN_U3_M1_T17
 L  CAPMAX_U3_M2_T17
 G  CAPMIN_U3_M2_T17
 L  CAPMAX_U4_M0_T17
 G  CAPMIN_U4_M0_T17
 L  CAPMAX_U4_M1_T17
 G  CAPMIN_U4_M1_T17
 L  CAPMAX_U4_M2_T17
 G  CAPMIN_U4_M2_T17
 L  CAPMAX_U5_M0_T17
 G  CAPMIN_U5_M0_T17
 L  CAPMAX_U5_M1_T17
 G  CAPMIN_U5_M1_T17
 L  CAPMAX_U5_M2_T17
 G  CAPMIN_U5_M2_T17
 L  CAPMAX_U6_M0_T17
 G  CAPMIN_U6_M0_T17
 L  CAPMAX_U6_M1_T17
 G  CAPMIN_U6_M1_T17
 L  CAPMAX_U6_M2_T17
 G  CAPMIN_U6_M2_T17
 L  CAPMAX_U7_M0_T17
 G  CAPMIN_U7_M0_T17
 L  CAPMAX_U7_M1_T17
 G  CAPMIN_U7_M1_T17
 L  CAPMAX_U7_M2_T17
 G  CAPMIN_U7_M2_T17
 E  MBAL_U0_T17
 E  MBAL_U1_T17
 E  MBAL_U2_T17
 E  MBAL_U3_T17
 E  MBAL_U4_T17
 E  MBAL_U5_T17
 E  MBAL_U6_T17
 G  DEMAND_T17
 L  MODE_U0_T18
 L  MODE_U1_T18
 L  MODE_U2_T18
 L  MODE_U3_T18
 L  MODE_U4_T18
 L  MODE_U5_T18
 L  MODE_U6_T18
 L  MODE_U7_T18
 L  CAPMAX_U0_M0_T18
 G  CAPMIN_U0_M0_T18
 L  CAPMAX_U0_M1_T18
 G  CAPMIN_U0_M1_T18
 L  CAPMAX_U0_M2_T18
 G  CAPMIN_U0_M2_T18
 L  CAPMAX_U1_M0_T18
 G  CAPMIN_U1_M0_T18
 L  CAPMAX_U1_M1_T18
 G  CAPMIN_U1_M1_T18
 L  CAPMAX_U1_M2_T18
 G  CAPMIN_U1_M2_T18
 L  CAPMAX_U2_M0_T18
 G  CAPMIN_U2_M0_T18
 L  CAPMAX_U2_M1_T18
 G  CAPMIN_U2_M1_T18
 L  CAPMAX_U2_M2_T18
 G  CAPMIN_U2_M2_T18
 L  CAPMAX_U3_M0_T18
 G  CAPMIN_U3_M0_T18
 L  CAPMAX_U3_M1_T18
 G  CAPMIN_U3_M1_T18
 L  CAPMAX_U3_M2_T18
 G  CAPMIN_U3_M2_T18
 L  CAPMAX_U4_M0_T18
 G  CAPMIN_U4_M0_T18
 L  CAPMAX_U4_M1_T18
 G  CAPMIN_U4_M1_T18
 L  CAPMAX_U4_M2_T18
 G  CAPMIN_U4_M2_T18
 L  CAPMAX_U5_M0_T18
 G  CAPMIN_U5_M0_T18
 L  CAPMAX_U5_M1_T18
 G  CAPMIN_U5_M1_T18
 L  CAPMAX_U5_M2_T18
 G  CAPMIN_U5_M2_T18
 L  CAPMAX_U6_M0_T18
 G  CAPMIN_U6_M0_T18
 L  CAPMAX_U6_M1_T18
 G  CAPMIN_U6_M1_T18
 L  CAPMAX_U6_M2_T18
 G  CAPMIN_U6_M2_T18
 L  CAPMAX_U7_M0_T18
 G  CAPMIN_U7_M0_T18
 L  CAPMAX_U7_M1_T18
 G  CAPMIN_U7_M1_T18
 L  CAPMAX_U7_M2_T18
 G  CAPMIN_U7_M2_T18
 E  MBAL_U0_T18
 E  MBAL_U1_T18
 E  MBAL_U2_T18
 E  MBAL_U3_T18
 E  MBAL_U4_T18
 E  MBAL_U5_T18
 E  MBAL_U6_T18
 G  DEMAND_T18
 L  MODE_U0_T19
 L  MODE_U1_T19
 L  MODE_U2_T19
 L  MODE_U3_T19
 L  MODE_U4_T19
 L  MODE_U5_T19
 L  MODE_U6_T19
 L  MODE_U7_T19
 L  CAPMAX_U0_M0_T19
 G  CAPMIN_U0_M0_T19
 L  CAPMAX_U0_M1_T19
 G  CAPMIN_U0_M1_T19
 L  CAPMAX_U0_M2_T19
 G  CAPMIN_U0_M2_T19
 L  CAPMAX_U1_M0_T19
 G  CAPMIN_U1_M0_T19
 L  CAPMAX_U1_M1_T19
 G  CAPMIN_U1_M1_T19
 L  CAPMAX_U1_M2_T19
 G  CAPMIN_U1_M2_T19
 L  CAPMAX_U2_M0_T19
 G  CAPMIN_U2_M0_T19
 L  CAPMAX_U2_M1_T19
 G  CAPMIN_U2_M1_T19
 L  CAPMAX_U2_M2_T19
 G  CAPMIN_U2_M2_T19
 L  CAPMAX_U3_M0_T19
 G  CAPMIN_U3_M0_T19
 L  CAPMAX_U3_M1_T19
 G  CAPMIN_U3_M1_T19
 L  CAPMAX_U3_M2_T19
 G  CAPMIN_U3_M2_T19
 L  CAPMAX_U4_M0_T19
 G  CAPMIN_U4_M0_T19
 L  CAPMAX_U4_M1_T19
 G  CAPMIN_U4_M1_T19
 L  CAPMAX_U4_M2_T19
 G  CAPMIN_U4_M2_T19
 L  CAPMAX_U5_M0_T19
 G  CAPMIN_U5_M0_T19
 L  CAPMAX_U5_M1_T19
 G  CAPMIN_U5_M1_T19
 L  CAPMAX_U5_M2_T19
 G  CAPMIN_U5_M2_T19
 L  CAPMAX_U6_M0_T19
 G  CAPMIN_U6_M0_T19
 L  CAPMAX_U6_M1_T19
 G  CAPMIN_U6_M1_T19
 L  CAPMAX_U6_M2_T19
 G  CAPMIN_U6_M2_T19
 L  CAPMAX_U7_M0_T19
 G  CAPMIN_U7_M0_T19
 L  CAPMAX_U7_M1_T19
 G  CAPMIN_U7_M1_T19
 L  CAPMAX_U7_M2_T19
 G  CAPMIN_U7_M2_T19
 E  MBAL_U0_T19
 E  MBAL_U1_T19
 E  MBAL_U2_T19
 E  MBAL_U3_T19
 E  MBAL_U4_T19
 E  MBAL_U5_T19
 E  MBAL_U6_T19
 G  DEMAND_T19
 L  MODE_U0_T20
 L  MODE_U1_T20
 L  MODE_U2_T20
 L  MODE_U3_T20
 L  MODE_U4_T20
 L  MODE_U5_T20
 L  MODE_U6_T20
 L  MODE_U7_T20
 L  CAPMAX_U0_M0_T20
 G  CAPMIN_U0_M0_T20
 L  CAPMAX_U0_M1_T20
 G  CAPMIN_U0_M1_T20
 L  CAPMAX_U0_M2_T20
 G  CAPMIN_U0_M2_T20
 L  CAPMAX_U1_M0_T20
 G  CAPMIN_U1_M0_T20
 L  CAPMAX_U1_M1_T20
 G  CAPMIN_U1_M1_T20
 L  CAPMAX_U1_M2_T20
 G  CAPMIN_U1_M2_T20
 L  CAPMAX_U2_M0_T20
 G  CAPMIN_U2_M0_T20
 L  CAPMAX_U2_M1_T20
 G  CAPMIN_U2_M1_T20
 L  CAPMAX_U2_M2_T20
 G  CAPMIN_U2_M2_T20
 L  CAPMAX_U3_M0_T20
 G  CAPMIN_U3_M0_T20
 L  CAPMAX_U3_M1_T20
 G  CAPMIN_U3_M1_T20
 L  CAPMAX_U3_M2_T20
 G  CAPMIN_U3_M2_T20
 L  CAPMAX_U4_M0_T20
 G  CAPMIN_U4_M0_T20
 L  CAPMAX_U4_M1_T20
 G  CAPMIN_U4_M1_T20
 L  CAPMAX_U4_M2_T20
 G  CAPMIN_U4_M2_T20
 L  CAPMAX_U5_M0_T20
 G  CAPMIN_U5_M0_T20
 L  CAPMAX_U5_M1_T20
 G  CAPMIN_U5_M1_T20
 L  CAPMAX_U5_M2_T20
 G  CAPMIN_U5_M2_T20
 L  CAPMAX_U6_M0_T20
 G  CAPMIN_U6_M0_T20
 L  CAPMAX_U6_M1_T20
 G  CAPMIN_U6_M1_T20
 L  CAPMAX_U6_M2_T20
 G  CAPMIN_U6_M2_T20
 L  CAPMAX_U7_M0_T20
 G  CAPMIN_U7_M0_T20
 L  CAPMAX_U7_M1_T20
 G  CAPMIN_U7_M1_T20
 L  CAPMAX_U7_M2_T20
 G  CAPMIN_U7_M2_T20
 E  MBAL_U0_T20
 E  MBAL_U1_T20
 E  MBAL_U2_T20
 E  MBAL_U3_T20
 E  MBAL_U4_T20
 E  MBAL_U5_T20
 E  MBAL_U6_T20
 G  DEMAND_T20
 L  MODE_U0_T21
 L  MODE_U1_T21
 L  MODE_U2_T21
 L  MODE_U3_T21
 L  MODE_U4_T21
 L  MODE_U5_T21
 L  MODE_U6_T21
 L  MODE_U7_T21
 L  CAPMAX_U0_M0_T21
 G  CAPMIN_U0_M0_T21
 L  CAPMAX_U0_M1_T21
 G  CAPMIN_U0_M1_T21
 L  CAPMAX_U0_M2_T21
 G  CAPMIN_U0_M2_T21
 L  CAPMAX_U1_M0_T21
 G  CAPMIN_U1_M0_T21
 L  CAPMAX_U1_M1_T21
 G  CAPMIN_U1_M1_T21
 L  CAPMAX_U1_M2_T21
 G  CAPMIN_U1_M2_T21
 L  CAPMAX_U2_M0_T21
 G  CAPMIN_U2_M0_T21
 L  CAPMAX_U2_M1_T21
 G  CAPMIN_U2_M1_T21
 L  CAPMAX_U2_M2_T21
 G  CAPMIN_U2_M2_T21
 L  CAPMAX_U3_M0_T21
 G  CAPMIN_U3_M0_T21
 L  CAPMAX_U3_M1_T21
 G  CAPMIN_U3_M1_T21
 L  CAPMAX_U3_M2_T21
 G  CAPMIN_U3_M2_T21
 L  CAPMAX_U4_M0_T21
 G  CAPMIN_U4_M0_T21
 L  CAPMAX_U4_M1_T21
 G  CAPMIN_U4_M1_T21
 L  CAPMAX_U4_M2_T21
 G  CAPMIN_U4_M2_T21
 L  CAPMAX_U5_M0_T21
 G  CAPMIN_U5_M0_T21
 L  CAPMAX_U5_M1_T21
 G  CAPMIN_U5_M1_T21
 L  CAPMAX_U5_M2_T21
 G  CAPMIN_U5_M2_T21
 L  CAPMAX_U6_M0_T21
 G  CAPMIN_U6_M0_T21
 L  CAPMAX_U6_M1_T21
 G  CAPMIN_U6_M1_T21
 L  CAPMAX_U6_M2_T21
 G  CAPMIN_U6_M2_T21
 L  CAPMAX_U7_M0_T21
 G  CAPMIN_U7_M0_T21
 L  CAPMAX_U7_M1_T21
 G  CAPMIN_U7_M1_T21
 L  CAPMAX_U7_M2_T21
 G  CAPMIN_U7_M2_T21
 E  MBAL_U0_T21
 E  MBAL_U1_T21
 E  MBAL_U2_T21
 E  MBAL_U3_T21
 E  MBAL_U4_T21
 E  MBAL_U5_T21
 E  MBAL_U6_T21
 G  DEMAND_T21
 L  MODE_U0_T22
 L  MODE_U1_T22
 L  MODE_U2_T22
 L  MODE_U3_T22
 L  MODE_U4_T22
 L  MODE_U5_T22
 L  MODE_U6_T22
 L  MODE_U7_T22
 L  CAPMAX_U0_M0_T22
 G  CAPMIN_U0_M0_T22
 L  CAPMAX_U0_M1_T22
 G  CAPMIN_U0_M1_T22
 L  CAPMAX_U0_M2_T22
 G  CAPMIN_U0_M2_T22
 L  CAPMAX_U1_M0_T22
 G  CAPMIN_U1_M0_T22
 L  CAPMAX_U1_M1_T22
 G  CAPMIN_U1_M1_T22
 L  CAPMAX_U1_M2_T22
 G  CAPMIN_U1_M2_T22
 L  CAPMAX_U2_M0_T22
 G  CAPMIN_U2_M0_T22
 L  CAPMAX_U2_M1_T22
 G  CAPMIN_U2_M1_T22
 L  CAPMAX_U2_M2_T22
 G  CAPMIN_U2_M2_T22
 L  CAPMAX_U3_M0_T22
 G  CAPMIN_U3_M0_T22
 L  CAPMAX_U3_M1_T22
 G  CAPMIN_U3_M1_T22
 L  CAPMAX_U3_M2_T22
 G  CAPMIN_U3_M2_T22
 L  CAPMAX_U4_M0_T22
 G  CAPMIN_U4_M0_T22
 L  CAPMAX_U4_M1_T22
 G  CAPMIN_U4_M1_T22
 L  CAPMAX_U4_M2_T22
 G  CAPMIN_U4_M2_T22
 L  CAPMAX_U5_M0_T22
 G  CAPMIN_U5_M0_T22
 L  CAPMAX_U5_M1_T22
 G  CAPMIN_U5_M1_T22
 L  CAPMAX_U5_M2_T22
 G  CAPMIN_U5_M2_T22
 L  CAPMAX_U6_M0_T22
 G  CAPMIN_U6_M0_T22
 L  CAPMAX_U6_M1_T22
 G  CAPMIN_U6_M1_T22
 L  CAPMAX_U6_M2_T22
 G  CAPMIN_U6_M2_T22
 L  CAPMAX_U7_M0_T22
 G  CAPMIN_U7_M0_T22
 L  CAPMAX_U7_M1_T22
 G  CAPMIN_U7_M1_T22
 L  CAPMAX_U7_M2_T22
 G  CAPMIN_U7_M2_T22
 E  MBAL_U0_T22
 E  MBAL_U1_T22
 E  MBAL_U2_T22
 E  MBAL_U3_T22
 E  MBAL_U4_T22
 E  MBAL_U5_T22
 E  MBAL_U6_T22
 G  DEMAND_T22
 L  MODE_U0_T23
 L  MODE_U1_T23
 L  MODE_U2_T23
 L  MODE_U3_T23
 L  MODE_U4_T23
 L  MODE_U5_T23
 L  MODE_U6_T23
 L  MODE_U7_T23
 L  CAPMAX_U0_M0_T23
 G  CAPMIN_U0_M0_T23
 L  CAPMAX_U0_M1_T23
 G  CAPMIN_U0_M1_T23
 L  CAPMAX_U0_M2_T23
 G  CAPMIN_U0_M2_T23
 L  CAPMAX_U1_M0_T23
 G  CAPMIN_U1_M0_T23
 L  CAPMAX_U1_M1_T23
 G  CAPMIN_U1_M1_T23
 L  CAPMAX_U1_M2_T23
 G  CAPMIN_U1_M2_T23
 L  CAPMAX_U2_M0_T23
 G  CAPMIN_U2_M0_T23
 L  CAPMAX_U2_M1_T23
 G  CAPMIN_U2_M1_T23
 L  CAPMAX_U2_M2_T23
 G  CAPMIN_U2_M2_T23
 L  CAPMAX_U3_M0_T23
 G  CAPMIN_U3_M0_T23
 L  CAPMAX_U3_M1_T23
 G  CAPMIN_U3_M1_T23
 L  CAPMAX_U3_M2_T23
 G  CAPMIN_U3_M2_T23
 L  CAPMAX_U4_M0_T23
 G  CAPMIN_U4_M0_T23
 L  CAPMAX_U4_M1_T23
 G  CAPMIN_U4_M1_T23
 L  CAPMAX_U4_M2_T23
 G  CAPMIN_U4_M2_T23
 L  CAPMAX_U5_M0_T23
 G  CAPMIN_U5_M0_T23
 L  CAPMAX_U5_M1_T23
 G  CAPMIN_U5_M1_T23
 L  CAPMAX_U5_M2_T23
 G  CAPMIN_U5_M2_T23
 L  CAPMAX_U6_M0_T23
 G  CAPMIN_U6_M0_T23
 L  CAPMAX_U6_M1_T23
 G  CAPMIN_U6_M1_T23
 L  CAPMAX_U6_M2_T23
 G  CAPMIN_U6_M2_T23
 L  CAPMAX_U7_M0_T23
 G  CAPMIN_U7_M0_T23
 L  CAPMAX_U7_M1_T23
 G  CAPMIN_U7_M1_T23
 L  CAPMAX_U7_M2_T23
 G  CAPMIN_U7_M2_T23
 E  MBAL_U0_T23
 E  MBAL_U1_T23
 E  MBAL_U2_T23
 E  MBAL_U3_T23
 E  MBAL_U4_T23
 E  MBAL_U5_T23
 E  MBAL_U6_T23
 G  DEMAND_T23
COLUMNS
    MARK0000  'MARKER'                 'INTORG'
    Z_U0_M0_T0  NET_COST  228
    Z_U0_M0_T0  MODE_U0_T0  1
    Z_U0_M0_T0  CAPMAX_U0_M0_T0  -300
    Z_U0_M0_T0  CAPMIN_U0_M0_T0  -90
    MARK1000  'MARKER'                 'INTEND'
    MARK2000  'MARKER'                 'INTORG'
    Z_U0_M1_T0  NET_COST  281
    Z_U0_M1_T0  MODE_U0_T0  1
    Z_U0_M1_T0  CAPMAX_U0_M1_T0  -169
    Z_U0_M1_T0  CAPMIN_U0_M1_T0  -50.7
    MARK3000  'MARKER'                 'INTEND'
    MARK4000  'MARKER'                 'INTORG'
    Z_U0_M2_T0  NET_COST  175
    Z_U0_M2_T0  MODE_U0_T0  1
    Z_U0_M2_T0  CAPMAX_U0_M2_T0  -205
    Z_U0_M2_T0  CAPMIN_U0_M2_T0  -61.5
    MARK5000  'MARKER'                 'INTEND'
    MARK6000  'MARKER'                 'INTORG'
    Z_U1_M0_T0  NET_COST  102
    Z_U1_M0_T0  MODE_U1_T0  1
    Z_U1_M0_T0  CAPMAX_U1_M0_T0  -255
    Z_U1_M0_T0  CAPMIN_U1_M0_T0  -76.5
    MARK7000  'MARKER'                 'INTEND'
    MARK8000  'MARKER'                 'INTORG'
    Z_U1_M1_T0  NET_COST  227
    Z_U1_M1_T0  MODE_U1_T0  1
    Z_U1_M1_T0  CAPMAX_U1_M1_T0  -315
    Z_U1_M1_T0  CAPMIN_U1_M1_T0  -94.5
    MARK9000  'MARKER'                 'INTEND'
    MARK1000  'MARKER'                 'INTORG'
    Z_U1_M2_T0  NET_COST  251
    Z_U1_M2_T0  MODE_U1_T0  1
    Z_U1_M2_T0  CAPMAX_U1_M2_T0  -240
    Z_U1_M2_T0  CAPMIN_U1_M2_T0  -72
    MARK1100  'MARKER'                 'INTEND'
    MARK1200  'MARKER'                 'INTORG'
    Z_U2_M0_T0  NET_COST  113
    Z_U2_M0_T0  MODE_U2_T0  1
    Z_U2_M0_T0  CAPMAX_U2_M0_T0  -300
    Z_U2_M0_T0  CAPMIN_U2_M0_T0  -90
    MARK1300  'MARKER'                 'INTEND'
    MARK1400  'MARKER'                 'INTORG'
    Z_U2_M1_T0  NET_COST  185
    Z_U2_M1_T0  MODE_U2_T0  1
    Z_U2_M1_T0  CAPMAX_U2_M1_T0  -170
    Z_U2_M1_T0  CAPMIN_U2_M1_T0  -51
    MARK1500  'MARKER'                 'INTEND'
    MARK1600  'MARKER'                 'INTORG'
    Z_U2_M2_T0  NET_COST  119
    Z_U2_M2_T0  MODE_U2_T0  1
    Z_U2_M2_T0  CAPMAX_U2_M2_T0  -256
    Z_U2_M2_T0  CAPMIN_U2_M2_T0  -76.8
    MARK1700  'MARKER'                 'INTEND'
    MARK1800  'MARKER'                 'INTORG'
    Z_U3_M0_T0  NET_COST  255
    Z_U3_M0_T0  MODE_U3_T0  1
    Z_U3_M0_T0  CAPMAX_U3_M0_T0  -175
    Z_U3_M0_T0  CAPMIN_U3_M0_T0  -52.5
    MARK1900  'MARKER'                 'INTEND'
    MARK2000  'MARKER'                 'INTORG'
    Z_U3_M1_T0  NET_COST  165
    Z_U3_M1_T0  MODE_U3_T0  1
    Z_U3_M1_T0  CAPMAX_U3_M1_T0  -300
    Z_U3_M1_T0  CAPMIN_U3_M1_T0  -90
    MARK2100  'MARKER'                 'INTEND'
    MARK2200  'MARKER'                 'INTORG'
    Z_U3_M2_T0  NET_COST  109
    Z_U3_M2_T0  MODE_U3_T0  1
    Z_U3_M2_T0  CAPMAX_U3_M2_T0  -335
    Z_U3_M2_T0  CAPMIN_U3_M2_T0  -100.5
    MARK2300  'MARKER'                 'INTEND'
    MARK2400  'MARKER'                 'INTORG'
    Z_U4_M0_T0  NET_COST  183
    Z_U4_M0_T0  MODE_U4_T0  1
    Z_U4_M0_T0  CAPMAX_U4_M0_T0  -210
    Z_U4_M0_T0  CAPMIN_U4_M0_T0  -63
    MARK2500  'MARKER'                 'INTEND'
    MARK2600  'MARKER'                 'INTORG'
    Z_U4_M1_T0  NET_COST  240
    Z_U4_M1_T0  MODE_U4_T0  1
    Z_U4_M1_T0  CAPMAX_U4_M1_T0  -242
    Z_U4_M1_T0  CAPMIN_U4_M1_T0  -72.6
    MARK2700  'MARKER'                 'INTEND'
    MARK2800  'MARKER'                 'INTORG'
    Z_U4_M2_T0  NET_COST  198
    Z_U4_M2_T0  MODE_U4_T0  1
    Z_U4_M2_T0  CAPMAX_U4_M2_T0  -192
    Z_U4_M2_T0  CAPMIN_U4_M2_T0  -57.6
    MARK2900  'MARKER'                 'INTEND'
    MARK3000  'MARKER'                 'INTORG'
    Z_U5_M0_T0  NET_COST  199
    Z_U5_M0_T0  MODE_U5_T0  1
    Z_U5_M0_T0  CAPMAX_U5_M0_T0  -227
    Z_U5_M0_T0  CAPMIN_U5_M0_T0  -68.1
    MARK3100  'MARKER'                 'INTEND'
    MARK3200  'MARKER'                 'INTORG'
    Z_U5_M1_T0  NET_COST  183
    Z_U5_M1_T0  MODE_U5_T0  1
    Z_U5_M1_T0  CAPMAX_U5_M1_T0  -237
    Z_U5_M1_T0  CAPMIN_U5_M1_T0  -71.1
    MARK3300  'MARKER'                 'INTEND'
    MARK3400  'MARKER'                 'INTORG'
    Z_U5_M2_T0  NET_COST  115
    Z_U5_M2_T0  MODE_U5_T0  1
    Z_U5_M2_T0  CAPMAX_U5_M2_T0  -314
    Z_U5_M2_T0  CAPMIN_U5_M2_T0  -94.2
    MARK3500  'MARKER'                 'INTEND'
    MARK3600  'MARKER'                 'INTORG'
    Z_U6_M0_T0  NET_COST  189
    Z_U6_M0_T0  MODE_U6_T0  1
    Z_U6_M0_T0  CAPMAX_U6_M0_T0  -349
    Z_U6_M0_T0  CAPMIN_U6_M0_T0  -104.7
    MARK3700  'MARKER'                 'INTEND'
    MARK3800  'MARKER'                 'INTORG'
    Z_U6_M1_T0  NET_COST  224
    Z_U6_M1_T0  MODE_U6_T0  1
    Z_U6_M1_T0  CAPMAX_U6_M1_T0  -265
    Z_U6_M1_T0  CAPMIN_U6_M1_T0  -79.5
    MARK3900  'MARKER'                 'INTEND'
    MARK4000  'MARKER'                 'INTORG'
    Z_U6_M2_T0  NET_COST  195
    Z_U6_M2_T0  MODE_U6_T0  1
    Z_U6_M2_T0  CAPMAX_U6_M2_T0  -315
    Z_U6_M2_T0  CAPMIN_U6_M2_T0  -94.5
    MARK4100  'MARKER'                 'INTEND'
    MARK4200  'MARKER'                 'INTORG'
    Z_U7_M0_T0  NET_COST  189
    Z_U7_M0_T0  MODE_U7_T0  1
    Z_U7_M0_T0  CAPMAX_U7_M0_T0  -212
    Z_U7_M0_T0  CAPMIN_U7_M0_T0  -63.6
    MARK4300  'MARKER'                 'INTEND'
    MARK4400  'MARKER'                 'INTORG'
    Z_U7_M1_T0  NET_COST  205
    Z_U7_M1_T0  MODE_U7_T0  1
    Z_U7_M1_T0  CAPMAX_U7_M1_T0  -223
    Z_U7_M1_T0  CAPMIN_U7_M1_T0  -66.9
    MARK4500  'MARKER'                 'INTEND'
    MARK4600  'MARKER'                 'INTORG'
    Z_U7_M2_T0  NET_COST  161
    Z_U7_M2_T0  MODE_U7_T0  1
    Z_U7_M2_T0  CAPMAX_U7_M2_T0  -287
    Z_U7_M2_T0  CAPMIN_U7_M2_T0  -86.1
    MARK4700  'MARKER'                 'INTEND'
    X_U0_M0_T0  NET_COST  33.9
    X_U0_M0_T0  CAPMAX_U0_M0_T0  1
    X_U0_M0_T0  CAPMIN_U0_M0_T0  1
    X_U0_M0_T0  MBAL_U0_T0  -0.9
    X_U0_M1_T0  NET_COST  18.4
    X_U0_M1_T0  CAPMAX_U0_M1_T0  1
    X_U0_M1_T0  CAPMIN_U0_M1_T0  1
    X_U0_M1_T0  MBAL_U0_T0  -0.9
    X_U0_M2_T0  NET_COST  29.4
    X_U0_M2_T0  CAPMAX_U0_M2_T0  1
    X_U0_M2_T0  CAPMIN_U0_M2_T0  1
    X_U0_M2_T0  MBAL_U0_T0  -0.9
    X_U1_M0_T0  NET_COST  24.8
    X_U1_M0_T0  CAPMAX_U1_M0_T0  1
    X_U1_M0_T0  CAPMIN_U1_M0_T0  1
    X_U1_M0_T0  MBAL_U0_T0  1
    X_U1_M0_T0  MBAL_U1_T0  -0.9
    X_U1_M1_T0  NET_COST  32.1
    X_U1_M1_T0  CAPMAX_U1_M1_T0  1
    X_U1_M1_T0  CAPMIN_U1_M1_T0  1
    X_U1_M1_T0  MBAL_U0_T0  1
    X_U1_M1_T0  MBAL_U1_T0  -0.9
    X_U1_M2_T0  NET_COST  38.6
    X_U1_M2_T0  CAPMAX_U1_M2_T0  1
    X_U1_M2_T0  CAPMIN_U1_M2_T0  1
    X_U1_M2_T0  MBAL_U0_T0  1
    X_U1_M2_T0  MBAL_U1_T0  -0.9
    X_U2_M0_T0  NET_COST  16.2
    X_U2_M0_T0  CAPMAX_U2_M0_T0  1
    X_U2_M0_T0  CAPMIN_U2_M0_T0  1
    X_U2_M0_T0  MBAL_U1_T0  1
    X_U2_M0_T0  MBAL_U2_T0  -0.9
    X_U2_M1_T0  NET_COST  18.7
    X_U2_M1_T0  CAPMAX_U2_M1_T0  1
    X_U2_M1_T0  CAPMIN_U2_M1_T0  1
    X_U2_M1_T0  MBAL_U1_T0  1
    X_U2_M1_T0  MBAL_U2_T0  -0.9
    X_U2_M2_T0  NET_COST  18.6
    X_U2_M2_T0  CAPMAX_U2_M2_T0  1
    X_U2_M2_T0  CAPMIN_U2_M2_T0  1
    X_U2_M2_T0  MBAL_U1_T0  1
    X_U2_M2_T0  MBAL_U2_T0  -0.9
    X_U3_M0_T0  NET_COST  26.2
    X_U3_M0_T0  CAPMAX_U3_M0_T0  1
    X_U3_M0_T0  CAPMIN_U3_M0_T0  1
    X_U3_M0_T0  MBAL_U2_T0  1
    X_U3_M0_T0  MBAL_U3_T0  -0.9
    X_U3_M1_T0  NET_COST  33.6
    X_U3_M1_T0  CAPMAX_U3_M1_T0  1
    X_U3_M1_T0  CAPMIN_U3_M1_T0  1
    X_U3_M1_T0  MBAL_U2_T0  1
    X_U3_M1_T0  MBAL_U3_T0  -0.9
    X_U3_M2_T0  NET_COST  35.1
    X_U3_M2_T0  CAPMAX_U3_M2_T0  1
    X_U3_M2_T0  CAPMIN_U3_M2_T0  1
    X_U3_M2_T0  MBAL_U2_T0  1
    X_U3_M2_T0  MBAL_U3_T0  -0.9
    X_U4_M0_T0  NET_COST  33.6
    X_U4_M0_T0  CAPMAX_U4_M0_T0  1
    X_U4_M0_T0  CAPMIN_U4_M0_T0  1
    X_U4_M0_T0  MBAL_U3_T0  1
    X_U4_M0_T0  MBAL_U4_T0  -0.9
    X_U4_M1_T0  NET_COST  15.5
    X_U4_M1_T0  CAPMAX_U4_M1_T0  1
    X_U4_M1_T0  CAPMIN_U4_M1_T0  1
    X_U4_M1_T0  MBAL_U3_T0  1
    X_U4_M1_T0  MBAL_U4_T0  -0.9
    X_U4_M2_T0  NET_COST  28.4
    X_U4_M2_T0  CAPMAX_U4_M2_T0  1
    X_U4_M2_T0  CAPMIN_U4_M2_T0  1
    X_U4_M2_T0  MBAL_U3_T0  1
    X_U4_M2_T0  MBAL_U4_T0  -0.9
    X_U5_M0_T0  NET_COST  30.2
    X_U5_M0_T0  CAPMAX_U5_M0_T0  1
    X_U5_M0_T0  CAPMIN_U5_M0_T0  1
    X_U5_M0_T0  MBAL_U4_T0  1
    X_U5_M0_T0  MBAL_U5_T0  -0.9
    X_U5_M1_T0  NET_COST  31.7
    X_U5_M1_T0  CAPMAX_U5_M1_T0  1
    X_U5_M1_T0  CAPMIN_U5_M1_T0  1
    X_U5_M1_T0  MBAL_U4_T0  1
    X_U5_M1_T0  MBAL_U5_T0  -0.9
    X_U5_M2_T0  NET_COST  17.3
    X_U5_M2_T0  CAPMAX_U5_M2_T0  1
    X_U5_M2_T0  CAPMIN_U5_M2_T0  1
    X_U5_M2_T0  MBAL_U4_T0  1
    X_U5_M2_T0  MBAL_U5_T0  -0.9
    X_U6_M0_T0  NET_COST  26.9
    X_U6_M0_T0  CAPMAX_U6_M0_T0  1
    X_U6_M0_T0  CAPMIN_U6_M0_T0  1
    X_U6_M0_T0  MBAL_U5_T0  1
    X_U6_M0_T0  MBAL_U6_T0  -0.9
    X_U6_M1_T0  NET_COST  29.9
    X_U6_M1_T0  CAPMAX_U6_M1_T0  1
    X_U6_M1_T0  CAPMIN_U6_M1_T0  1
    X_U6_M1_T0  MBAL_U5_T0  1
    X_U6_M1_T0  MBAL_U6_T0  -0.9
    X_U6_M2_T0  NET_COST  36.5
    X_U6_M2_T0  CAPMAX_U6_M2_T0  1
    X_U6_M2_T0  CAPMIN_U6_M2_T0  1
    X_U6_M2_T0  MBAL_U5_T0  1
    X_U6_M2_T0  MBAL_U6_T0  -0.9
    X_U7_M0_T0  NET_COST  -67.7
    X_U7_M0_T0  CAPMAX_U7_M0_T0  1
    X_U7_M0_T0  CAPMIN_U7_M0_T0  1
    X_U7_M0_T0  MBAL_U6_T0  1
    X_U7_M0_T0  DEMAND_T0  1
    X_U7_M1_T0  NET_COST  -72.6
    X_U7_M1_T0  CAPMAX_U7_M1_T0  1
    X_U7_M1_T0  CAPMIN_U7_M1_T0  1
    X_U7_M1_T0  MBAL_U6_T0  1
    X_U7_M1_T0  DEMAND_T0  1
    X_U7_M2_T0  NET_COST  -60.9
    X_U7_M2_T0  CAPMAX_U7_M2_T0  1
    X_U7_M2_T0  CAPMIN_U7_M2_T0  1
    X_U7_M2_T0  MBAL_U6_T0  1
    X_U7_M2_T0  DEMAND_T0  1
    S_U0_T0   NET_COST  2
    S_U0_T0   MBAL_U0_T0  1
    S_U0_T0   MBAL_U0_T1  -1
    S_U1_T0   NET_COST  2
    S_U1_T0   MBAL_U1_T0  1
    S_U1_T0   MBAL_U1_T1  -1
    S_U2_T0   NET_COST  2
    S_U2_T0   MBAL_U2_T0  1
    S_U2_T0   MBAL_U2_T1  -1
    S_U3_T0   NET_COST  2
    S_U3_T0   MBAL_U3_T0  1
    S_U3_T0   MBAL_U3_T1  -1
    S_U4_T0   NET_COST  2
    S_U4_T0   MBAL_U4_T0  1
    S_U4_T0   MBAL_U4_T1  -1
    S_U5_T0   NET_COST  2
    S_U5_T0   MBAL_U5_T0  1
    S_U5_T0   MBAL_U5_T1  -1
    S_U6_T0   NET_COST  2
    S_U6_T0   MBAL_U6_T0  1
    S_U6_T0   MBAL_U6_T1  -1
    S_U7_T0   NET_COST  2
    MARK4800  'MARKER'                 'INTORG'
    Z_U0_M0_T1  NET_COST  228
    Z_U0_M0_T1  MODE_U0_T1  1
    Z_U0_M0_T1  CAPMAX_U0_M0_T1  -300
    Z_U0_M0_T1  CAPMIN_U0_M0_T1  -90
    MARK4900  'MARKER'                 'INTEND'
    MARK5000  'MARKER'                 'INTORG'
    Z_U0_M1_T1  NET_COST  281
    Z_U0_M1_T1  MODE_U0_T1  1
    Z_U0_M1_T1  CAPMAX_U0_M1_T1  -169
    Z_U0_M1_T1  CAPMIN_U0_M1_T1  -50.7
    MARK5100  'MARKER'                 'INTEND'
    MARK5200  'MARKER'                 'INTORG'
    Z_U0_M2_T1  NET_COST  175
    Z_U0_M2_T1  MODE_U0_T1  1
    Z_U0_M2_T1  CAPMAX_U0_M2_T1  -205
    Z_U0_M2_T1  CAPMIN_U0_M2_T1  -61.5
    MARK5300  'MARKER'                 'INTEND'
    MARK5400  'MARKER'                 'INTORG'
    Z_U1_M0_T1  NET_COST  102
    Z_U1_M0_T1  MODE_U1_T1  1
    Z_U1_M0_T1  CAPMAX_U1_M0_T1  -255
    Z_U1_M0_T1  CAPMIN_U1_M0_T1  -76.5
    MARK5500  'MARKER'                 'INTEND'
    MARK5600  'MARKER'                 'INTORG'
    Z_U1_M1_T1  NET_COST  227
    Z_U1_M1_T1  MODE_U1_T1  1
    Z_U1_M1_T1  CAPMAX_U1_M1_T1  -315
    Z_U1_M1_T1  CAPMIN_U1_M1_T1  -94.5
    MARK5700  'MARKER'                 'INTEND'
    MARK5800  'MARKER'                 'INTORG'
    Z_U1_M2_T1  NET_COST  251
    Z_U1_M2_T1  MODE_U1_T1  1
    Z_U1_M2_T1  CAPMAX_U1_M2_T1  -240
    Z_U1_M2_T1  CAPMIN_U1_M2_T1  -72
    MARK5900  'MARKER'                 'INTEND'
    MARK6000  'MARKER'                 'INTORG'
    Z_U2_M0_T1  NET_COST  113
    Z_U2_M0_T1  MODE_U2_T1  1
    Z_U2_M0_T1  CAPMAX_U2_M0_T1  -300
    Z_U2_M0_T1  CAPMIN_U2_M0_T1  -90
    MARK6100  'MARKER'                 'INTEND'
    MARK6200  'MARKER'                 'INTORG'
    Z_U2_M1_T1  NET_COST  185
    Z_U2_M1_T1  MODE_U2_T1  1
    Z_U2_M1_T1  CAPMAX_U2_M1_T1  -170
    Z_U2_M1_T1  CAPMIN_U2_M1_T1  -51
    MARK6300  'MARKER'                 'INTEND'
    MARK6400  'MARKER'                 'INTORG'
    Z_U2_M2_T1  NET_COST  119
    Z_U2_M2_T1  MODE_U2_T1  1
    Z_U2_M2_T1  CAPMAX_U2_M2_T1  -256
    Z_U2_M2_T1  CAPMIN_U2_M2_T1  -76.8
    MARK6500  'MARKER'                 'INTEND'
    MARK6600  'MARKER'                 'INTORG'
    Z_U3_M0_T1  NET_COST  255
    Z_U3_M0_T1  MODE_U3_T1  1
    Z_U3_M0_T1  CAPMAX_U3_M0_T1  -175
    Z_U3_M0_T1  CAPMIN_U3_M0_T1  -52.5
    MARK6700  'MARKER'                 'INTEND'
    MARK6800  'MARKER'                 'INTORG'
    Z_U3_M1_T1  NET_COST  165
    Z_U3_M1_T1  MODE_U3_T1  1
    Z_U3_M1_T1  CAPMAX_U3_M1_T1  -300
    Z_U3_M1_T1  CAPMIN_U3_M1_T1  -90
    MARK6900  'MARKER'                 'INTEND'
    MARK7000  'MARKER'                 'INTORG'
    Z_U3_M2_T1  NET_COST  109
    Z_U3_M2_T1  MODE_U3_T1  1
    Z_U3_M2_T1  CAPMAX_U3_M2_T1  -335
    Z_U3_M2_T1  CAPMIN_U3_M2_T1  -100.5
    MARK7100  'MARKER'                 'INTEND'
    MARK7200  'MARKER'                 'INTORG'
    Z_U4_M0_T1  NET_COST  183
    Z_U4_M0_T1  MODE_U4_T1  1
    Z_U4_M0_T1  CAPMAX_U4_M0_T1  -210
    Z_U4_M0_T1  CAPMIN_U4_M0_T1  -63
    MARK7300  'MARKER'                 'INTEND'
    MARK7400  'MARKER'                 'INTORG'
    Z_U4_M1_T1  NET_COST  240
    Z_U4_M1_T1  MODE_U4_T1  1
    Z_U4_M1_T1  CAPMAX_U4_M1_T1  -242
    Z_U4_M1_T1  CAPMIN_U4_M1_T1  -72.6
    MARK7500  'MARKER'                 'INTEND'
    MARK7600  'MARKER'                 'INTORG'
    Z_U4_M2_T1  NET_COST  198
    Z_U4_M2_T1  MODE_U4_T1  1
    Z_U4_M2_T1  CAPMAX_U4_M2_T1  -192
    Z_U4_M2_T1  CAPMIN_U4_M2_T1  -57.6
    MARK7700  'MARKER'                 'INTEND'
    MARK7800  'MARKER'                 'INTORG'
    Z_U5_M0_T1  NET_COST  199
    Z_U5_M0_T1  MODE_U5_T1  1
    Z_U5_M0_T1  CAPMAX_U5_M0_T1  -227
    Z_U5_M0_T1  CAPMIN_U5_M0_T1  -68.1
    MARK7900  'MARKER'                 'INTEND'
    MARK8000  'MARKER'                 'INTORG'
    Z_U5_M1_T1  NET_COST  183
    Z_U5_M1_T1  MODE_U5_T1  1
    Z_U5_M1_T1  CAPMAX_U5_M1_T1  -237
    Z_U5_M1_T1  CAPMIN_U5_M1_T1  -71.1
    MARK8100  'MARKER'                 'INTEND'
    MARK8200  'MARKER'                 'INTORG'
    Z_U5_M2_T1  NET_COST  115
    Z_U5_M2_T1  MODE_U5_T1  1
    Z_U5_M2_T1  CAPMAX_U5_M2_T1  -314
    Z_U5_M2_T1  CAPMIN_U5_M2_T1  -94.2
    MARK8300  'MARKER'                 'INTEND'
    MARK8400  'MARKER'                 'INTORG'
    Z_U6_M0_T1  NET_COST  189
    Z_U6_M0_T1  MODE_U6_T1  1
    Z_U6_M0_T1  CAPMAX_U6_M0_T1  -349
    Z_U6_M0_T1  CAPMIN_U6_M0_T1  -104.7
    MARK8500  'MARKER'                 'INTEND'
    MARK8600  'MARKER'                 'INTORG'
    Z_U6_M1_T1  NET_COST  224
    Z_U6_M1_T1  MODE_U6_T1  1
    Z_U6_M1_T1  CAPMAX_U6_M1_T1  -265
    Z_U6_M1_T1  CAPMIN_U6_M1_T1  -79.5
    MARK8700  'MARKER'                 'INTEND'
    MARK8800  'MARKER'                 'INTORG'
    Z_U6_M2_T1  NET_COST  195
    Z_U6_M2_T1  MODE_U6_T1  1
    Z_U6_M2_T1  CAPMAX_U6_M2_T1  -315
    Z_U6_M2_T1  CAPMIN_U6_M2_T1  -94.5
    MARK8900  'MARKER'                 'INTEND'
    MARK9000  'MARKER'                 'INTORG'
    Z_U7_M0_T1  NET_COST  189
    Z_U7_M0_T1  MODE_U7_T1  1
    Z_U7_M0_T1  CAPMAX_U7_M0_T1  -212
    Z_U7_M0_T1  CAPMIN_U7_M0_T1  -63.6
    MARK9100  'MARKER'                 'INTEND'
    MARK9200  'MARKER'                 'INTORG'
    Z_U7_M1_T1  NET_COST  205
    Z_U7_M1_T1  MODE_U7_T1  1
    Z_U7_M1_T1  CAPMAX_U7_M1_T1  -223
    Z_U7_M1_T1  CAPMIN_U7_M1_T1  -66.9
    MARK9300  'MARKER'                 'INTEND'
    MARK9400  'MARKER'                 'INTORG'
    Z_U7_M2_T1  NET_COST  161
    Z_U7_M2_T1  MODE_U7_T1  1
    Z_U7_M2_T1  CAPMAX_U7_M2_T1  -287
    Z_U7_M2_T1  CAPMIN_U7_M2_T1  -86.1
    MARK9500  'MARKER'                 'INTEND'
    X_U0_M0_T1  NET_COST  33.9
    X_U0_M0_T1  CAPMAX_U0_M0_T1  1
    X_U0_M0_T1  CAPMIN_U0_M0_T1  1
    X_U0_M0_T1  MBAL_U0_T1  -0.9
    X_U0_M1_T1  NET_COST  18.4
    X_U0_M1_T1  CAPMAX_U0_M1_T1  1
    X_U0_M1_T1  CAPMIN_U0_M1_T1  1
    X_U0_M1_T1  MBAL_U0_T1  -0.9
    X_U0_M2_T1  NET_COST  29.4
    X_U0_M2_T1  CAPMAX_U0_M2_T1  1
    X_U0_M2_T1  CAPMIN_U0_M2_T1  1
    X_U0_M2_T1  MBAL_U0_T1  -0.9
    X_U1_M0_T1  NET_COST  24.8
    X_U1_M0_T1  CAPMAX_U1_M0_T1  1
    X_U1_M0_T1  CAPMIN_U1_M0_T1  1
    X_U1_M0_T1  MBAL_U0_T1  1
    X_U1_M0_T1  MBAL_U1_T1  -0.9
    X_U1_M1_T1  NET_COST  32.1
    X_U1_M1_T1  CAPMAX_U1_M1_T1  1
    X_U1_M1_T1  CAPMIN_U1_M1_T1  1
    X_U1_M1_T1  MBAL_U0_T1  1
    X_U1_M1_T1  MBAL_U1_T1  -0.9
    X_U1_M2_T1  NET_COST  38.6
    X_U1_M2_T1  CAPMAX_U1_M2_T1  1
    X_U1_M2_T1  CAPMIN_U1_M2_T1  1
    X_U1_M2_T1  MBAL_U0_T1  1
    X_U1_M2_T1  MBAL_U1_T1  -0.9
    X_U2_M0_T1  NET_COST  16.2
    X_U2_M0_T1  CAPMAX_U2_M0_T1  1
    X_U2_M0_T1  CAPMIN_U2_M0_T1  1
    X_U2_M0_T1  MBAL_U1_T1  1
    X_U2_M0_T1  MBAL_U2_T1  -0.9
    X_U2_M1_T1  NET_COST  18.7
    X_U2_M1_T1  CAPMAX_U2_M1_T1  1
    X_U2_M1_T1  CAPMIN_U2_M1_T1  1
    X_U2_M1_T1  MBAL_U1_T1  1
    X_U2_M1_T1  MBAL_U2_T1  -0.9
    X_U2_M2_T1  NET_COST  18.6
    X_U2_M2_T1  CAPMAX_U2_M2_T1  1
    X_U2_M2_T1  CAPMIN_U2_M2_T1  1
    X_U2_M2_T1  MBAL_U1_T1  1
    X_U2_M2_T1  MBAL_U2_T1  -0.9
    X_U3_M0_T1  NET_COST  26.2
    X_U3_M0_T1  CAPMAX_U3_M0_T1  1
    X_U3_M0_T1  CAPMIN_U3_M0_T1  1
    X_U3_M0_T1  MBAL_U2_T1  1
    X_U3_M0_T1  MBAL_U3_T1  -0.9
    X_U3_M1_T1  NET_COST  33.6
    X_U3_M1_T1  CAPMAX_U3_M1_T1  1
    X_U3_M1_T1  CAPMIN_U3_M1_T1  1
    X_U3_M1_T1  MBAL_U2_T1  1
    X_U3_M1_T1  MBAL_U3_T1  -0.9
    X_U3_M2_T1  NET_COST  35.1
    X_U3_M2_T1  CAPMAX_U3_M2_T1  1
    X_U3_M2_T1  CAPMIN_U3_M2_T1  1
    X_U3_M2_T1  MBAL_U2_T1  1
    X_U3_M2_T1  MBAL_U3_T1  -0.9
    X_U4_M0_T1  NET_COST  33.6
    X_U4_M0_T1  CAPMAX_U4_M0_T1  1
    X_U4_M0_T1  CAPMIN_U4_M0_T1  1
    X_U4_M0_T1  MBAL_U3_T1  1
    X_U4_M0_T1  MBAL_U4_T1  -0.9
    X_U4_M1_T1  NET_COST  15.5
    X_U4_M1_T1  CAPMAX_U4_M1_T1  1
    X_U4_M1_T1  CAPMIN_U4_M1_T1  1
    X_U4_M1_T1  MBAL_U3_T1  1
    X_U4_M1_T1  MBAL_U4_T1  -0.9
    X_U4_M2_T1  NET_COST  28.4
    X_U4_M2_T1  CAPMAX_U4_M2_T1  1
    X_U4_M2_T1  CAPMIN_U4_M2_T1  1
    X_U4_M2_T1  MBAL_U3_T1  1
    X_U4_M2_T1  MBAL_U4_T1  -0.9
    X_U5_M0_T1  NET_COST  30.2
    X_U5_M0_T1  CAPMAX_U5_M0_T1  1
    X_U5_M0_T1  CAPMIN_U5_M0_T1  1
    X_U5_M0_T1  MBAL_U4_T1  1
    X_U5_M0_T1  MBAL_U5_T1  -0.9
    X_U5_M1_T1  NET_COST  31.7
    X_U5_M1_T1  CAPMAX_U5_M1_T1  1
    X_U5_M1_T1  CAPMIN_U5_M1_T1  1
    X_U5_M1_T1  MBAL_U4_T1  1
    X_U5_M1_T1  MBAL_U5_T1  -0.9
    X_U5_M2_T1  NET_COST  17.3
    X_U5_M2_T1  CAPMAX_U5_M2_T1  1
    X_U5_M2_T1  CAPMIN_U5_M2_T1  1
    X_U5_M2_T1  MBAL_U4_T1  1
    X_U5_M2_T1  MBAL_U5_T1  -0.9
    X_U6_M0_T1  NET_COST  26.9
    X_U6_M0_T1  CAPMAX_U6_M0_T1  1
    X_U6_M0_T1  CAPMIN_U6_M0_T1  1
    X_U6_M0_T1  MBAL_U5_T1  1
    X_U6_M0_T1  MBAL_U6_T1  -0.9
    X_U6_M1_T1  NET_COST  29.9
    X_U6_M1_T1  CAPMAX_U6_M1_T1  1
    X_U6_M1_T1  CAPMIN_U6_M1_T1  1
    X_U6_M1_T1  MBAL_U5_T1  1
    X_U6_M1_T1  MBAL_U6_T1  -0.9
    X_U6_M2_T1  NET_COST  36.5
    X_U6_M2_T1  CAPMAX_U6_M2_T1  1
    X_U6_M2_T1  CAPMIN_U6_M2_T1  1
    X_U6_M2_T1  MBAL_U5_T1  1
    X_U6_M2_T1  MBAL_U6_T1  -0.9
    X_U7_M0_T1  NET_COST  -67.7
    X_U7_M0_T1  CAPMAX_U7_M0_T1  1
    X_U7_M0_T1  CAPMIN_U7_M0_T1  1
    X_U7_M0_T1  MBAL_U6_T1  1
    X_U7_M0_T1  DEMAND_T1  1
    X_U7_M1_T1  NET_COST  -72.6
    X_U7_M1_T1  CAPMAX_U7_M1_T1  1
    X_U7_M1_T1  CAPMIN_U7_M1_T1  1
    X_U7_M1_T1  MBAL_U6_T1  1
    X_U7_M1_T1  DEMAND_T1  1
    X_U7_M2_T1  NET_COST  -60.9
    X_U7_M2_T1  CAPMAX_U7_M2_T1  1
    X_U7_M2_T1  CAPMIN_U7_M2_T1  1
    X_U7_M2_T1  MBAL_U6_T1  1
    X_U7_M2_T1  DEMAND_T1  1
    S_U0_T1   NET_COST  2
    S_U0_T1   MBAL_U0_T1  1
    S_U0_T1   MBAL_U0_T2  -1
    S_U1_T1   NET_COST  2
    S_U1_T1   MBAL_U1_T1  1
    S_U1_T1   MBAL_U1_T2  -1
    S_U2_T1   NET_COST  2
    S_U2_T1   MBAL_U2_T1  1
    S_U2_T1   MBAL_U2_T2  -1
    S_U3_T1   NET_COST  2
    S_U3_T1   MBAL_U3_T1  1
    S_U3_T1   MBAL_U3_T2  -1
    S_U4_T1   NET_COST  2
    S_U4_T1   MBAL_U4_T1  1
    S_U4_T1   MBAL_U4_T2  -1
    S_U5_T1   NET_COST  2
    S_U5_T1   MBAL_U5_T1  1
    S_U5_T1   MBAL_U5_T2  -1
    S_U6_T1   NET_COST  2
    S_U6_T1   MBAL_U6_T1  1
    S_U6_T1   MBAL_U6_T2  -1
    S_U7_T1   NET_COST  2
    MARK9600  'MARKER'                 'INTORG'
    Z_U0_M0_T2  NET_COST  228
    Z_U0_M0_T2  MODE_U0_T2  1
    Z_U0_M0_T2  CAPMAX_U0_M0_T2  -300
    Z_U0_M0_T2  CAPMIN_U0_M0_T2  -90
    MARK9700  'MARKER'                 'INTEND'
    MARK9800  'MARKER'                 'INTORG'
    Z_U0_M1_T2  NET_COST  281
    Z_U0_M1_T2  MODE_U0_T2  1
    Z_U0_M1_T2  CAPMAX_U0_M1_T2  -169
    Z_U0_M1_T2  CAPMIN_U0_M1_T2  -50.7
    MARK9900  'MARKER'                 'INTEND'
    MARK1000  'MARKER'                 'INTORG'
    Z_U0_M2_T2  NET_COST  175
    Z_U0_M2_T2  MODE_U0_T2  1
    Z_U0_M2_T2  CAPMAX_U0_M2_T2  -205
    Z_U0_M2_T2  CAPMIN_U0_M2_T2  -61.5
    MARK1010  'MARKER'                 'INTEND'
    MARK1020  'MARKER'                 'INTORG'
    Z_U1_M0_T2  NET_COST  102
    Z_U1_M0_T2  MODE_U1_T2  1
    Z_U1_M0_T2  CAPMAX_U1_M0_T2  -255
    Z_U1_M0_T2  CAPMIN_U1_M0_T2  -76.5
    MARK1030  'MARKER'                 'INTEND'
    MARK1040  'MARKER'                 'INTORG'
    Z_U1_M1_T2  NET_COST  227
    Z_U1_M1_T2  MODE_U1_T2  1
    Z_U1_M1_T2  CAPMAX_U1_M1_T2  -315
    Z_U1_M1_T2  CAPMIN_U1_M1_T2  -94.5
    MARK1050  'MARKER'                 'INTEND'
    MARK1060  'MARKER'                 'INTORG'
    Z_U1_M2_T2  NET_COST  251
    Z_U1_M2_T2  MODE_U1_T2  1
    Z_U1_M2_T2  CAPMAX_U1_M2_T2  -240
    Z_U1_M2_T2  CAPMIN_U1_M2_T2  -72
    MARK1070  'MARKER'                 'INTEND'
    MARK1080  'MARKER'                 'INTORG'
    Z_U2_M0_T2  NET_COST  113
    Z_U2_M0_T2  MODE_U2_T2  1
    Z_U2_M0_T2  CAPMAX_U2_M0_T2  -300
    Z_U2_M0_T2  CAPMIN_U2_M0_T2  -90
    MARK1090  'MARKER'                 'INTEND'
    MARK1100  'MARKER'                 'INTORG'
    Z_U2_M1_T2  NET_COST  185
    Z_U2_M1_T2  MODE_U2_T2  1
    Z_U2_M1_T2  CAPMAX_U2_M1_T2  -170
    Z_U2_M1_T2  CAPMIN_U2_M1_T2  -51
    MARK1110  'MARKER'                 'INTEND'
    MARK1120  'MARKER'                 'INTORG'
    Z_U2_M2_T2  NET_COST  119
    Z_U2_M2_T2  MODE_U2_T2  1
    Z_U2_M2_T2  CAPMAX_U2_M2_T2  -256
    Z_U2_M2_T2  CAPMIN_U2_M2_T2  -76.8
    MARK1130  'MARKER'                 'INTEND'
    MARK1140  'MARKER'                 'INTORG'
    Z_U3_M0_T2  NET_COST  255
    Z_U3_M0_T2  MODE_U3_T2  1
    Z_U3_M0_T2  CAPMAX_U3_M0_T2  -175
    Z_U3_M0_T2  CAPMIN_U3_M0_T2  -52.5
    MARK1150  'MARKER'                 'INTEND'
    MARK1160  'MARKER'                 'INTORG'
    Z_U3_M1_T2  NET_COST  165
    Z_U3_M1_T2  MODE_U3_T2  1
    Z_U3_M1_T2  CAPMAX_U3_M1_T2  -300
    Z_U3_M1_T2  CAPMIN_U3_M1_T2  -90
    MARK1170  'MARKER'                 'INTEND'
    MARK1180  'MARKER'                 'INTORG'
    Z_U3_M2_T2  NET_COST  109
    Z_U3_M2_T2  MODE_U3_T2  1
    Z_U3_M2_T2  CAPMAX_U3_M2_T2  -335
    Z_U3_M2_T2  CAPMIN_U3_M2_T2  -100.5
    MARK1190  'MARKER'                 'INTEND'
    MARK1200  'MARKER'                 'INTORG'
    Z_U4_M0_T2  NET_COST  183
    Z_U4_M0_T2  MODE_U4_T2  1
    Z_U4_M0_T2  CAPMAX_U4_M0_T2  -210
    Z_U4_M0_T2  CAPMIN_U4_M0_T2  -63
    MARK1210  'MARKER'                 'INTEND'
    MARK1220  'MARKER'                 'INTORG'
    Z_U4_M1_T2  NET_COST  240
    Z_U4_M1_T2  MODE_U4_T2  1
    Z_U4_M1_T2  CAPMAX_U4_M1_T2  -242
    Z_U4_M1_T2  CAPMIN_U4_M1_T2  -72.6
    MARK1230  'MARKER'                 'INTEND'
    MARK1240  'MARKER'                 'INTORG'
    Z_U4_M2_T2  NET_COST  198
    Z_U4_M2_T2  MODE_U4_T2  1
    Z_U4_M2_T2  CAPMAX_U4_M2_T2  -192
    Z_U4_M2_T2  CAPMIN_U4_M2_T2  -57.6
    MARK1250  'MARKER'                 'INTEND'
    MARK1260  'MARKER'                 'INTORG'
    Z_U5_M0_T2  NET_COST  199
    Z_U5_M0_T2  MODE_U5_T2  1
    Z_U5_M0_T2  CAPMAX_U5_M0_T2  -227
    Z_U5_M0_T2  CAPMIN_U5_M0_T2  -68.1
    MARK1270  'MARKER'                 'INTEND'
    MARK1280  'MARKER'                 'INTORG'
    Z_U5_M1_T2  NET_COST  183
    Z_U5_M1_T2  MODE_U5_T2  1
    Z_U5_M1_T2  CAPMAX_U5_M1_T2  -237
    Z_U5_M1_T2  CAPMIN_U5_M1_T2  -71.1
    MARK1290  'MARKER'                 'INTEND'
    MARK1300  'MARKER'                 'INTORG'
    Z_U5_M2_T2  NET_COST  115
    Z_U5_M2_T2  MODE_U5_T2  1
    Z_U5_M2_T2  CAPMAX_U5_M2_T2  -314
    Z_U5_M2_T2  CAPMIN_U5_M2_T2  -94.2
    MARK1310  'MARKER'                 'INTEND'
    MARK1320  'MARKER'                 'INTORG'
    Z_U6_M0_T2  NET_COST  189
    Z_U6_M0_T2  MODE_U6_T2  1
    Z_U6_M0_T2  CAPMAX_U6_M0_T2  -349
    Z_U6_M0_T2  CAPMIN_U6_M0_T2  -104.7
    MARK1330  'MARKER'                 'INTEND'
    MARK1340  'MARKER'                 'INTORG'
    Z_U6_M1_T2  NET_COST  224
    Z_U6_M1_T2  MODE_U6_T2  1
    Z_U6_M1_T2  CAPMAX_U6_M1_T2  -265
    Z_U6_M1_T2  CAPMIN_U6_M1_T2  -79.5
    MARK1350  'MARKER'                 'INTEND'
    MARK1360  'MARKER'                 'INTORG'
    Z_U6_M2_T2  NET_COST  195
    Z_U6_M2_T2  MODE_U6_T2  1
    Z_U6_M2_T2  CAPMAX_U6_M2_T2  -315
    Z_U6_M2_T2  CAPMIN_U6_M2_T2  -94.5
    MARK1370  'MARKER'                 'INTEND'
    MARK1380  'MARKER'                 'INTORG'
    Z_U7_M0_T2  NET_COST  189
    Z_U7_M0_T2  MODE_U7_T2  1
    Z_U7_M0_T2  CAPMAX_U7_M0_T2  -212
    Z_U7_M0_T2  CAPMIN_U7_M0_T2  -63.6
    MARK1390  'MARKER'                 'INTEND'
    MARK1400  'MARKER'                 'INTORG'
    Z_U7_M1_T2  NET_COST  205
    Z_U7_M1_T2  MODE_U7_T2  1
    Z_U7_M1_T2  CAPMAX_U7_M1_T2  -223
    Z_U7_M1_T2  CAPMIN_U7_M1_T2  -66.9
    MARK1410  'MARKER'                 'INTEND'
    MARK1420  'MARKER'                 'INTORG'
    Z_U7_M2_T2  NET_COST  161
    Z_U7_M2_T2  MODE_U7_T2  1
    Z_U7_M2_T2  CAPMAX_U7_M2_T2  -287
    Z_U7_M2_T2  CAPMIN_U7_M2_T2  -86.1
    MARK1430  'MARKER'                 'INTEND'
    X_U0_M0_T2  NET_COST  33.9
    X_U0_M0_T2  CAPMAX_U0_M0_T2  1
    X_U0_M0_T2  CAPMIN_U0_M0_T2  1
    X_U0_M0_T2  MBAL_U0_T2  -0.9
    X_U0_M1_T2  NET_COST  18.4
    X_U0_M1_T2  CAPMAX_U0_M1_T2  1
    X_U0_M1_T2  CAPMIN_U0_M1_T2  1
    X_U0_M1_T2  MBAL_U0_T2  -0.9
    X_U0_M2_T2  NET_COST  29.4
    X_U0_M2_T2  CAPMAX_U0_M2_T2  1
    X_U0_M2_T2  CAPMIN_U0_M2_T2  1
    X_U0_M2_T2  MBAL_U0_T2  -0.9
    X_U1_M0_T2  NET_COST  24.8
    X_U1_M0_T2  CAPMAX_U1_M0_T2  1
    X_U1_M0_T2  CAPMIN_U1_M0_T2  1
    X_U1_M0_T2  MBAL_U0_T2  1
    X_U1_M0_T2  MBAL_U1_T2  -0.9
    X_U1_M1_T2  NET_COST  32.1
    X_U1_M1_T2  CAPMAX_U1_M1_T2  1
    X_U1_M1_T2  CAPMIN_U1_M1_T2  1
    X_U1_M1_T2  MBAL_U0_T2  1
    X_U1_M1_T2  MBAL_U1_T2  -0.9
    X_U1_M2_T2  NET_COST  38.6
    X_U1_M2_T2  CAPMAX_U1_M2_T2  1
    X_U1_M2_T2  CAPMIN_U1_M2_T2  1
    X_U1_M2_T2  MBAL_U0_T2  1
    X_U1_M2_T2  MBAL_U1_T2  -0.9
    X_U2_M0_T2  NET_COST  16.2
    X_U2_M0_T2  CAPMAX_U2_M0_T2  1
    X_U2_M0_T2  CAPMIN_U2_M0_T2  1
    X_U2_M0_T2  MBAL_U1_T2  1
    X_U2_M0_T2  MBAL_U2_T2  -0.9
    X_U2_M1_T2  NET_COST  18.7
    X_U2_M1_T2  CAPMAX_U2_M1_T2  1
    X_U2_M1_T2  CAPMIN_U2_M1_T2  1
    X_U2_M1_T2  MBAL_U1_T2  1
    X_U2_M1_T2  MBAL_U2_T2  -0.9
    X_U2_M2_T2  NET_COST  18.6
    X_U2_M2_T2  CAPMAX_U2_M2_T2  1
    X_U2_M2_T2  CAPMIN_U2_M2_T2  1
    X_U2_M2_T2  MBAL_U1_T2  1
    X_U2_M2_T2  MBAL_U2_T2  -0.9
    X_U3_M0_T2  NET_COST  26.2
    X_U3_M0_T2  CAPMAX_U3_M0_T2  1
    X_U3_M0_T2  CAPMIN_U3_M0_T2  1
    X_U3_M0_T2  MBAL_U2_T2  1
    X_U3_M0_T2  MBAL_U3_T2  -0.9
    X_U3_M1_T2  NET_COST  33.6
    X_U3_M1_T2  CAPMAX_U3_M1_T2  1
    X_U3_M1_T2  CAPMIN_U3_M1_T2  1
    X_U3_M1_T2  MBAL_U2_T2  1
    X_U3_M1_T2  MBAL_U3_T2  -0.9
    X_U3_M2_T2  NET_COST  35.1
    X_U3_M2_T2  CAPMAX_U3_M2_T2  1
    X_U3_M2_T2  CAPMIN_U3_M2_T2  1
    X_U3_M2_T2  MBAL_U2_T2  1
    X_U3_M2_T2  MBAL_U3_T2  -0.9
    X_U4_M0_T2  NET_COST  33.6
    X_U4_M0_T2  CAPMAX_U4_M0_T2  1
    X_U4_M0_T2  CAPMIN_U4_M0_T2  1
    X_U4_M0_T2  MBAL_U3_T2  1
    X_U4_M0_T2  MBAL_U4_T2  -0.9
    X_U4_M1_T2  NET_COST  15.5
    X_U4_M1_T2  CAPMAX_U4_M1_T2  1
    X_U4_M1_T2  CAPMIN_U4_M1_T2  1
    X_U4_M1_T2  MBAL_U3_T2  1
    X_U4_M1_T2  MBAL_U4_T2  -0.9
    X_U4_M2_T2  NET_COST  28.4
    X_U4_M2_T2  CAPMAX_U4_M2_T2  1
    X_U4_M2_T2  CAPMIN_U4_M2_T2  1
    X_U4_M2_T2  MBAL_U3_T2  1
    X_U4_M2_T2  MBAL_U4_T2  -0.9
    X_U5_M0_T2  NET_COST  30.2
    X_U5_M0_T2  CAPMAX_U5_M0_T2  1
    X_U5_M0_T2  CAPMIN_U5_M0_T2  1
    X_U5_M0_T2  MBAL_U4_T2  1
    X_U5_M0_T2  MBAL_U5_T2  -0.9
    X_U5_M1_T2  NET_COST  31.7
    X_U5_M1_T2  CAPMAX_U5_M1_T2  1
    X_U5_M1_T2  CAPMIN_U5_M1_T2  1
    X_U5_M1_T2  MBAL_U4_T2  1
    X_U5_M1_T2  MBAL_U5_T2  -0.9
    X_U5_M2_T2  NET_COST  17.3
    X_U5_M2_T2  CAPMAX_U5_M2_T2  1
    X_U5_M2_T2  CAPMIN_U5_M2_T2  1
    X_U5_M2_T2  MBAL_U4_T2  1
    X_U5_M2_T2  MBAL_U5_T2  -0.9
    X_U6_M0_T2  NET_COST  26.9
    X_U6_M0_T2  CAPMAX_U6_M0_T2  1
    X_U6_M0_T2  CAPMIN_U6_M0_T2  1
    X_U6_M0_T2  MBAL_U5_T2  1
    X_U6_M0_T2  MBAL_U6_T2  -0.9
    X_U6_M1_T2  NET_COST  29.9
    X_U6_M1_T2  CAPMAX_U6_M1_T2  1
    X_U6_M1_T2  CAPMIN_U6_M1_T2  1
    X_U6_M1_T2  MBAL_U5_T2  1
    X_U6_M1_T2  MBAL_U6_T2  -0.9
    X_U6_M2_T2  NET_COST  36.5
    X_U6_M2_T2  CAPMAX_U6_M2_T2  1
    X_U6_M2_T2  CAPMIN_U6_M2_T2  1
    X_U6_M2_T2  MBAL_U5_T2  1
    X_U6_M2_T2  MBAL_U6_T2  -0.9
    X_U7_M0_T2  NET_COST  -67.7
    X_U7_M0_T2  CAPMAX_U7_M0_T2  1
    X_U7_M0_T2  CAPMIN_U7_M0_T2  1
    X_U7_M0_T2  MBAL_U6_T2  1
    X_U7_M0_T2  DEMAND_T2  1
    X_U7_M1_T2  NET_COST  -72.6
    X_U7_M1_T2  CAPMAX_U7_M1_T2  1
    X_U7_M1_T2  CAPMIN_U7_M1_T2  1
    X_U7_M1_T2  MBAL_U6_T2  1
    X_U7_M1_T2  DEMAND_T2  1
    X_U7_M2_T2  NET_COST  -60.9
    X_U7_M2_T2  CAPMAX_U7_M2_T2  1
    X_U7_M2_T2  CAPMIN_U7_M2_T2  1
    X_U7_M2_T2  MBAL_U6_T2  1
    X_U7_M2_T2  DEMAND_T2  1
    S_U0_T2   NET_COST  2
    S_U0_T2   MBAL_U0_T2  1
    S_U0_T2   MBAL_U0_T3  -1
    S_U1_T2   NET_COST  2
    S_U1_T2   MBAL_U1_T2  1
    S_U1_T2   MBAL_U1_T3  -1
    S_U2_T2   NET_COST  2
    S_U2_T2   MBAL_U2_T2  1
    S_U2_T2   MBAL_U2_T3  -1
    S_U3_T2   NET_COST  2
    S_U3_T2   MBAL_U3_T2  1
    S_U3_T2   MBAL_U3_T3  -1
    S_U4_T2   NET_COST  2
    S_U4_T2   MBAL_U4_T2  1
    S_U4_T2   MBAL_U4_T3  -1
    S_U5_T2   NET_COST  2
    S_U5_T2   MBAL_U5_T2  1
    S_U5_T2   MBAL_U5_T3  -1
    S_U6_T2   NET_COST  2
    S_U6_T2   MBAL_U6_T2  1
    S_U6_T2   MBAL_U6_T3  -1
    S_U7_T2   NET_COST  2
    MARK1440  'MARKER'                 'INTORG'
    Z_U0_M0_T3  NET_COST  228
    Z_U0_M0_T3  MODE_U0_T3  1
    Z_U0_M0_T3  CAPMAX_U0_M0_T3  -300
    Z_U0_M0_T3  CAPMIN_U0_M0_T3  -90
    MARK1450  'MARKER'                 'INTEND'
    MARK1460  'MARKER'                 'INTORG'
    Z_U0_M1_T3  NET_COST  281
    Z_U0_M1_T3  MODE_U0_T3  1
    Z_U0_M1_T3  CAPMAX_U0_M1_T3  -169
    Z_U0_M1_T3  CAPMIN_U0_M1_T3  -50.7
    MARK1470  'MARKER'                 'INTEND'
    MARK1480  'MARKER'                 'INTORG'
    Z_U0_M2_T3  NET_COST  175
    Z_U0_M2_T3  MODE_U0_T3  1
    Z_U0_M2_T3  CAPMAX_U0_M2_T3  -205
    Z_U0_M2_T3  CAPMIN_U0_M2_T3  -61.5
    MARK1490  'MARKER'                 'INTEND'
    MARK1500  'MARKER'                 'INTORG'
    Z_U1_M0_T3  NET_COST  102
    Z_U1_M0_T3  MODE_U1_T3  1
    Z_U1_M0_T3  CAPMAX_U1_M0_T3  -255
    Z_U1_M0_T3  CAPMIN_U1_M0_T3  -76.5
    MARK1510  'MARKER'                 'INTEND'
    MARK1520  'MARKER'                 'INTORG'
    Z_U1_M1_T3  NET_COST  227
    Z_U1_M1_T3  MODE_U1_T3  1
    Z_U1_M1_T3  CAPMAX_U1_M1_T3  -315
    Z_U1_M1_T3  CAPMIN_U1_M1_T3  -94.5
    MARK1530  'MARKER'                 'INTEND'
    MARK1540  'MARKER'                 'INTORG'
    Z_U1_M2_T3  NET_COST  251
    Z_U1_M2_T3  MODE_U1_T3  1
    Z_U1_M2_T3  CAPMAX_U1_M2_T3  -240
    Z_U1_M2_T3  CAPMIN_U1_M2_T3  -72
    MARK1550  'MARKER'                 'INTEND'
    MARK1560  'MARKER'                 'INTORG'
    Z_U2_M0_T3  NET_COST  113
    Z_U2_M0_T3  MODE_U2_T3  1
    Z_U2_M0_T3  CAPMAX_U2_M0_T3  -300
    Z_U2_M0_T3  CAPMIN_U2_M0_T3  -90
    MARK1570  'MARKER'                 'INTEND'
    MARK1580  'MARKER'                 'INTORG'
    Z_U2_M1_T3  NET_COST  185
    Z_U2_M1_T3  MODE_U2_T3  1
    Z_U2_M1_T3  CAPMAX_U2_M1_T3  -170
    Z_U2_M1_T3  CAPMIN_U2_M1_T3  -51
    MARK1590  'MARKER'                 'INTEND'
    MARK1600  'MARKER'                 'INTORG'
    Z_U2_M2_T3  NET_COST  119
    Z_U2_M2_T3  MODE_U2_T3  1
    Z_U2_M2_T3  CAPMAX_U2_M2_T3  -256
    Z_U2_M2_T3  CAPMIN_U2_M2_T3  -76.8
    MARK1610  'MARKER'                 'INTEND'
    MARK1620  'MARKER'                 'INTORG'
    Z_U3_M0_T3  NET_COST  255
    Z_U3_M0_T3  MODE_U3_T3  1
    Z_U3_M0_T3  CAPMAX_U3_M0_T3  -175
    Z_U3_M0_T3  CAPMIN_U3_M0_T3  -52.5
    MARK1630  'MARKER'                 'INTEND'
    MARK1640  'MARKER'                 'INTORG'
    Z_U3_M1_T3  NET_COST  165
    Z_U3_M1_T3  MODE_U3_T3  1
    Z_U3_M1_T3  CAPMAX_U3_M1_T3  -300
    Z_U3_M1_T3  CAPMIN_U3_M1_T3  -90
    MARK1650  'MARKER'                 'INTEND'
    MARK1660  'MARKER'                 'INTORG'
    Z_U3_M2_T3  NET_COST  109
    Z_U3_M2_T3  MODE_U3_T3  1
    Z_U3_M2_T3  CAPMAX_U3_M2_T3  -335
    Z_U3_M2_T3  CAPMIN_U3_M2_T3  -100.5
    MARK1670  'MARKER'                 'INTEND'
    MARK1680  'MARKER'                 'INTORG'
    Z_U4_M0_T3  NET_COST  183
    Z_U4_M0_T3  MODE_U4_T3  1
    Z_U4_M0_T3  CAPMAX_U4_M0_T3  -210
    Z_U4_M0_T3  CAPMIN_U4_M0_T3  -63
    MARK1690  'MARKER'                 'INTEND'
    MARK1700  'MARKER'                 'INTORG'
    Z_U4_M1_T3  NET_COST  240
    Z_U4_M1_T3  MODE_U4_T3  1
    Z_U4_M1_T3  CAPMAX_U4_M1_T3  -242
    Z_U4_M1_T3  CAPMIN_U4_M1_T3  -72.6
    MARK1710  'MARKER'                 'INTEND'
    MARK1720  'MARKER'                 'INTORG'
    Z_U4_M2_T3  NET_COST  198
    Z_U4_M2_T3  MODE_U4_T3  1
    Z_U4_M2_T3  CAPMAX_U4_M2_T3  -192
    Z_U4_M2_T3  CAPMIN_U4_M2_T3  -57.6
    MARK1730  'MARKER'                 'INTEND'
    MARK1740  'MARKER'                 'INTORG'
    Z_U5_M0_T3  NET_COST  199
    Z_U5_M0_T3  MODE_U5_T3  1
    Z_U5_M0_T3  CAPMAX_U5_M0_T3  -227
    Z_U5_M0_T3  CAPMIN_U5_M0_T3  -68.1
    MARK1750  'MARKER'                 'INTEND'
    MARK1760  'MARKER'                 'INTORG'
    Z_U5_M1_T3  NET_COST  183
    Z_U5_M1_T3  MODE_U5_T3  1
    Z_U5_M1_T3  CAPMAX_U5_M1_T3  -237
    Z_U5_M1_T3  CAPMIN_U5_M1_T3  -71.1
    MARK1770  'MARKER'                 'INTEND'
    MARK1780  'MARKER'                 'INTORG'
    Z_U5_M2_T3  NET_COST  115
    Z_U5_M2_T3  MODE_U5_T3  1
    Z_U5_M2_T3  CAPMAX_U5_M2_T3  -314
    Z_U5_M2_T3  CAPMIN_U5_M2_T3  -94.2
    MARK1790  'MARKER'                 'INTEND'
    MARK1800  'MARKER'                 'INTORG'
    Z_U6_M0_T3  NET_COST  189
    Z_U6_M0_T3  MODE_U6_T3  1
    Z_U6_M0_T3  CAPMAX_U6_M0_T3  -349
    Z_U6_M0_T3  CAPMIN_U6_M0_T3  -104.7
    MARK1810  'MARKER'                 'INTEND'
    MARK1820  'MARKER'                 'INTORG'
    Z_U6_M1_T3  NET_COST  224
    Z_U6_M1_T3  MODE_U6_T3  1
    Z_U6_M1_T3  CAPMAX_U6_M1_T3  -265
    Z_U6_M1_T3  CAPMIN_U6_M1_T3  -79.5
    MARK1830  'MARKER'                 'INTEND'
    MARK1840  'MARKER'                 'INTORG'
    Z_U6_M2_T3  NET_COST  195
    Z_U6_M2_T3  MODE_U6_T3  1
    Z_U6_M2_T3  CAPMAX_U6_M2_T3  -315
    Z_U6_M2_T3  CAPMIN_U6_M2_T3  -94.5
    MARK1850  'MARKER'                 'INTEND'
    MARK1860  'MARKER'                 'INTORG'
    Z_U7_M0_T3  NET_COST  189
    Z_U7_M0_T3  MODE_U7_T3  1
    Z_U7_M0_T3  CAPMAX_U7_M0_T3  -212
    Z_U7_M0_T3  CAPMIN_U7_M0_T3  -63.6
    MARK1870  'MARKER'                 'INTEND'
    MARK1880  'MARKER'                 'INTORG'
    Z_U7_M1_T3  NET_COST  205
    Z_U7_M1_T3  MODE_U7_T3  1
    Z_U7_M1_T3  CAPMAX_U7_M1_T3  -223
    Z_U7_M1_T3  CAPMIN_U7_M1_T3  -66.9
    MARK1890  'MARKER'                 'INTEND'
    MARK1900  'MARKER'                 'INTORG'
    Z_U7_M2_T3  NET_COST  161
    Z_U7_M2_T3  MODE_U7_T3  1
    Z_U7_M2_T3  CAPMAX_U7_M2_T3  -287
    Z_U7_M2_T3  CAPMIN_U7_M2_T3  -86.1
    MARK1910  'MARKER'                 'INTEND'
    X_U0_M0_T3  NET_COST  33.9
    X_U0_M0_T3  CAPMAX_U0_M0_T3  1
    X_U0_M0_T3  CAPMIN_U0_M0_T3  1
    X_U0_M0_T3  MBAL_U0_T3  -0.9
    X_U0_M1_T3  NET_COST  18.4
    X_U0_M1_T3  CAPMAX_U0_M1_T3  1
    X_U0_M1_T3  CAPMIN_U0_M1_T3  1
    X_U0_M1_T3  MBAL_U0_T3  -0.9
    X_U0_M2_T3  NET_COST  29.4
    X_U0_M2_T3  CAPMAX_U0_M2_T3  1
    X_U0_M2_T3  CAPMIN_U0_M2_T3  1
    X_U0_M2_T3  MBAL_U0_T3  -0.9
    X_U1_M0_T3  NET_COST  24.8
    X_U1_M0_T3  CAPMAX_U1_M0_T3  1
    X_U1_M0_T3  CAPMIN_U1_M0_T3  1
    X_U1_M0_T3  MBAL_U0_T3  1
    X_U1_M0_T3  MBAL_U1_T3  -0.9
    X_U1_M1_T3  NET_COST  32.1
    X_U1_M1_T3  CAPMAX_U1_M1_T3  1
    X_U1_M1_T3  CAPMIN_U1_M1_T3  1
    X_U1_M1_T3  MBAL_U0_T3  1
    X_U1_M1_T3  MBAL_U1_T3  -0.9
    X_U1_M2_T3  NET_COST  38.6
    X_U1_M2_T3  CAPMAX_U1_M2_T3  1
    X_U1_M2_T3  CAPMIN_U1_M2_T3  1
    X_U1_M2_T3  MBAL_U0_T3  1
    X_U1_M2_T3  MBAL_U1_T3  -0.9
    X_U2_M0_T3  NET_COST  16.2
    X_U2_M0_T3  CAPMAX_U2_M0_T3  1
    X_U2_M0_T3  CAPMIN_U2_M0_T3  1
    X_U2_M0_T3  MBAL_U1_T3  1
    X_U2_M0_T3  MBAL_U2_T3  -0.9
    X_U2_M1_T3  NET_COST  18.7
    X_U2_M1_T3  CAPMAX_U2_M1_T3  1
    X_U2_M1_T3  CAPMIN_U2_M1_T3  1
    X_U2_M1_T3  MBAL_U1_T3  1
    X_U2_M1_T3  MBAL_U2_T3  -0.9
    X_U2_M2_T3  NET_COST  18.6
    X_U2_M2_T3  CAPMAX_U2_M2_T3  1
    X_U2_M2_T3  CAPMIN_U2_M2_T3  1
    X_U2_M2_T3  MBAL_U1_T3  1
    X_U2_M2_T3  MBAL_U2_T3  -0.9
    X_U3_M0_T3  NET_COST  26.2
    X_U3_M0_T3  CAPMAX_U3_M0_T3  1
    X_U3_M0_T3  CAPMIN_U3_M0_T3  1
    X_U3_M0_T3  MBAL_U2_T3  1
    X_U3_M0_T3  MBAL_U3_T3  -0.9
    X_U3_M1_T3  NET_COST  33.6
    X_U3_M1_T3  CAPMAX_U3_M1_T3  1
    X_U3_M1_T3  CAPMIN_U3_M1_T3  1
    X_U3_M1_T3  MBAL_U2_T3  1
    X_U3_M1_T3  MBAL_U3_T3  -0.9
    X_U3_M2_T3  NET_COST  35.1
    X_U3_M2_T3  CAPMAX_U3_M2_T3  1
    X_U3_M2_T3  CAPMIN_U3_M2_T3  1
    X_U3_M2_T3  MBAL_U2_T3  1
    X_U3_M2_T3  MBAL_U3_T3  -0.9
    X_U4_M0_T3  NET_COST  33.6
    X_U4_M0_T3  CAPMAX_U4_M0_T3  1
    X_U4_M0_T3  CAPMIN_U4_M0_T3  1
    X_U4_M0_T3  MBAL_U3_T3  1
    X_U4_M0_T3  MBAL_U4_T3  -0.9
    X_U4_M1_T3  NET_COST  15.5
    X_U4_M1_T3  CAPMAX_U4_M1_T3  1
    X_U4_M1_T3  CAPMIN_U4_M1_T3  1
    X_U4_M1_T3  MBAL_U3_T3  1
    X_U4_M1_T3  MBAL_U4_T3  -0.9
    X_U4_M2_T3  NET_COST  28.4
    X_U4_M2_T3  CAPMAX_U4_M2_T3  1
    X_U4_M2_T3  CAPMIN_U4_M2_T3  1
    X_U4_M2_T3  MBAL_U3_T3  1
    X_U4_M2_T3  MBAL_U4_T3  -0.9
    X_U5_M0_T3  NET_COST  30.2
    X_U5_M0_T3  CAPMAX_U5_M0_T3  1
    X_U5_M0_T3  CAPMIN_U5_M0_T3  1
    X_U5_M0_T3  MBAL_U4_T3  1
    X_U5_M0_T3  MBAL_U5_T3  -0.9
    X_U5_M1_T3  NET_COST  31.7
    X_U5_M1_T3  CAPMAX_U5_M1_T3  1
    X_U5_M1_T3  CAPMIN_U5_M1_T3  1
    X_U5_M1_T3  MBAL_U4_T3  1
    X_U5_M1_T3  MBAL_U5_T3  -0.9
    X_U5_M2_T3  NET_COST  17.3
    X_U5_M2_T3  CAPMAX_U5_M2_T3  1
    X_U5_M2_T3  CAPMIN_U5_M2_T3  1
    X_U5_M2_T3  MBAL_U4_T3  1
    X_U5_M2_T3  MBAL_U5_T3  -0.9
    X_U6_M0_T3  NET_COST  26.9
    X_U6_M0_T3  CAPMAX_U6_M0_T3  1
    X_U6_M0_T3  CAPMIN_U6_M0_T3  1
    X_U6_M0_T3  MBAL_U5_T3  1
    X_U6_M0_T3  MBAL_U6_T3  -0.9
    X_U6_M1_T3  NET_COST  29.9
    X_U6_M1_T3  CAPMAX_U6_M1_T3  1
    X_U6_M1_T3  CAPMIN_U6_M1_T3  1
    X_U6_M1_T3  MBAL_U5_T3  1
    X_U6_M1_T3  MBAL_U6_T3  -0.9
    X_U6_M2_T3  NET_COST  36.5
    X_U6_M2_T3  CAPMAX_U6_M2_T3  1
    X_U6_M2_T3  CAPMIN_U6_M2_T3  1
    X_U6_M2_T3  MBAL_U5_T3  1
    X_U6_M2_T3  MBAL_U6_T3  -0.9
    X_U7_M0_T3  NET_COST  -67.7
    X_U7_M0_T3  CAPMAX_U7_M0_T3  1
    X_U7_M0_T3  CAPMIN_U7_M0_T3  1
    X_U7_M0_T3  MBAL_U6_T3  1
    X_U7_M0_T3  DEMAND_T3  1
    X_U7_M1_T3  NET_COST  -72.6
    X_U7_M1_T3  CAPMAX_U7_M1_T3  1
    X_U7_M1_T3  CAPMIN_U7_M1_T3  1
    X_U7_M1_T3  MBAL_U6_T3  1
    X_U7_M1_T3  DEMAND_T3  1
    X_U7_M2_T3  NET_COST  -60.9
    X_U7_M2_T3  CAPMAX_U7_M2_T3  1
    X_U7_M2_T3  CAPMIN_U7_M2_T3  1
    X_U7_M2_T3  MBAL_U6_T3  1
    X_U7_M2_T3  DEMAND_T3  1
    S_U0_T3   NET_COST  2
    S_U0_T3   MBAL_U0_T3  1
    S_U0_T3   MBAL_U0_T4  -1
    S_U1_T3   NET_COST  2
    S_U1_T3   MBAL_U1_T3  1
    S_U1_T3   MBAL_U1_T4  -1
    S_U2_T3   NET_COST  2
    S_U2_T3   MBAL_U2_T3  1
    S_U2_T3   MBAL_U2_T4  -1
    S_U3_T3   NET_COST  2
    S_U3_T3   MBAL_U3_T3  1
    S_U3_T3   MBAL_U3_T4  -1
    S_U4_T3   NET_COST  2
    S_U4_T3   MBAL_U4_T3  1
    S_U4_T3   MBAL_U4_T4  -1
    S_U5_T3   NET_COST  2
    S_U5_T3   MBAL_U5_T3  1
    S_U5_T3   MBAL_U5_T4  -1
    S_U6_T3   NET_COST  2
    S_U6_T3   MBAL_U6_T3  1
    S_U6_T3   MBAL_U6_T4  -1
    S_U7_T3   NET_COST  2
    MARK1920  'MARKER'                 'INTORG'
    Z_U0_M0_T4  NET_COST  228
    Z_U0_M0_T4  MODE_U0_T4  1
    Z_U0_M0_T4  CAPMAX_U0_M0_T4  -300
    Z_U0_M0_T4  CAPMIN_U0_M0_T4  -90
    MARK1930  'MARKER'                 'INTEND'
    MARK1940  'MARKER'                 'INTORG'
    Z_U0_M1_T4  NET_COST  281
    Z_U0_M1_T4  MODE_U0_T4  1
    Z_U0_M1_T4  CAPMAX_U0_M1_T4  -169
    Z_U0_M1_T4  CAPMIN_U0_M1_T4  -50.7
    MARK1950  'MARKER'                 'INTEND'
    MARK1960  'MARKER'                 'INTORG'
    Z_U0_M2_T4  NET_COST  175
    Z_U0_M2_T4  MODE_U0_T4  1
    Z_U0_M2_T4  CAPMAX_U0_M2_T4  -205
    Z_U0_M2_T4  CAPMIN_U0_M2_T4  -61.5
    MARK1970  'MARKER'                 'INTEND'
    MARK1980  'MARKER'                 'INTORG'
    Z_U1_M0_T4  NET_COST  102
    Z_U1_M0_T4  MODE_U1_T4  1
    Z_U1_M0_T4  CAPMAX_U1_M0_T4  -255
    Z_U1_M0_T4  CAPMIN_U1_M0_T4  -76.5
    MARK1990  'MARKER'                 'INTEND'
    MARK2000  'MARKER'                 'INTORG'
    Z_U1_M1_T4  NET_COST  227
    Z_U1_M1_T4  MODE_U1_T4  1
    Z_U1_M1_T4  CAPMAX_U1_M1_T4  -315
    Z_U1_M1_T4  CAPMIN_U1_M1_T4  -94.5
    MARK2010  'MARKER'                 'INTEND'
    MARK2020  'MARKER'                 'INTORG'
    Z_U1_M2_T4  NET_COST  251
    Z_U1_M2_T4  MODE_U1_T4  1
    Z_U1_M2_T4  CAPMAX_U1_M2_T4  -240
    Z_U1_M2_T4  CAPMIN_U1_M2_T4  -72
    MARK2030  'MARKER'                 'INTEND'
    MARK2040  'MARKER'                 'INTORG'
    Z_U2_M0_T4  NET_COST  113
    Z_U2_M0_T4  MODE_U2_T4  1
    Z_U2_M0_T4  CAPMAX_U2_M0_T4  -300
    Z_U2_M0_T4  CAPMIN_U2_M0_T4  -90
    MARK2050  'MARKER'                 'INTEND'
    MARK2060  'MARKER'                 'INTORG'
    Z_U2_M1_T4  NET_COST  185
    Z_U2_M1_T4  MODE_U2_T4  1
    Z_U2_M1_T4  CAPMAX_U2_M1_T4  -170
    Z_U2_M1_T4  CAPMIN_U2_M1_T4  -51
    MARK2070  'MARKER'                 'INTEND'
    MARK2080  'MARKER'                 'INTORG'
    Z_U2_M2_T4  NET_COST  119
    Z_U2_M2_T4  MODE_U2_T4  1
    Z_U2_M2_T4  CAPMAX_U2_M2_T4  -256
    Z_U2_M2_T4  CAPMIN_U2_M2_T4  -76.8
    MARK2090  'MARKER'                 'INTEND'
    MARK2100  'MARKER'                 'INTORG'
    Z_U3_M0_T4  NET_COST  255
    Z_U3_M0_T4  MODE_U3_T4  1
    Z_U3_M0_T4  CAPMAX_U3_M0_T4  -175
    Z_U3_M0_T4  CAPMIN_U3_M0_T4  -52.5
    MARK2110  'MARKER'                 'INTEND'
    MARK2120  'MARKER'                 'INTORG'
    Z_U3_M1_T4  NET_COST  165
    Z_U3_M1_T4  MODE_U3_T4  1
    Z_U3_M1_T4  CAPMAX_U3_M1_T4  -300
    Z_U3_M1_T4  CAPMIN_U3_M1_T4  -90
    MARK2130  'MARKER'                 'INTEND'
    MARK2140  'MARKER'                 'INTORG'
    Z_U3_M2_T4  NET_COST  109
    Z_U3_M2_T4  MODE_U3_T4  1
    Z_U3_M2_T4  CAPMAX_U3_M2_T4  -335
    Z_U3_M2_T4  CAPMIN_U3_M2_T4  -100.5
    MARK2150  'MARKER'                 'INTEND'
    MARK2160  'MARKER'                 'INTORG'
    Z_U4_M0_T4  NET_COST  183
    Z_U4_M0_T4  MODE_U4_T4  1
    Z_U4_M0_T4  CAPMAX_U4_M0_T4  -210
    Z_U4_M0_T4  CAPMIN_U4_M0_T4  -63
    MARK2170  'MARKER'                 'INTEND'
    MARK2180  'MARKER'                 'INTORG'
    Z_U4_M1_T4  NET_COST  240
    Z_U4_M1_T4  MODE_U4_T4  1
    Z_U4_M1_T4  CAPMAX_U4_M1_T4  -242
    Z_U4_M1_T4  CAPMIN_U4_M1_T4  -72.6
    MARK2190  'MARKER'                 'INTEND'
    MARK2200  'MARKER'                 'INTORG'
    Z_U4_M2_T4  NET_COST  198
    Z_U4_M2_T4  MODE_U4_T4  1
    Z_U4_M2_T4  CAPMAX_U4_M2_T4  -192
    Z_U4_M2_T4  CAPMIN_U4_M2_T4  -57.6
    MARK2210  'MARKER'                 'INTEND'
    MARK2220  'MARKER'                 'INTORG'
    Z_U5_M0_T4  NET_COST  199
    Z_U5_M0_T4  MODE_U5_T4  1
    Z_U5_M0_T4  CAPMAX_U5_M0_T4  -227
    Z_U5_M0_T4  CAPMIN_U5_M0_T4  -68.1
    MARK2230  'MARKER'                 'INTEND'
    MARK2240  'MARKER'                 'INTORG'
    Z_U5_M1_T4  NET_COST  183
    Z_U5_M1_T4  MODE_U5_T4  1
    Z_U5_M1_T4  CAPMAX_U5_M1_T4  -237
    Z_U5_M1_T4  CAPMIN_U5_M1_T4  -71.1
    MARK2250  'MARKER'                 'INTEND'
    MARK2260  'MARKER'                 'INTORG'
    Z_U5_M2_T4  NET_COST  115
    Z_U5_M2_T4  MODE_U5_T4  1
    Z_U5_M2_T4  CAPMAX_U5_M2_T4  -314
    Z_U5_M2_T4  CAPMIN_U5_M2_T4  -94.2
    MARK2270  'MARKER'                 'INTEND'
    MARK2280  'MARKER'                 'INTORG'
    Z_U6_M0_T4  NET_COST  189
    Z_U6_M0_T4  MODE_U6_T4  1
    Z_U6_M0_T4  CAPMAX_U6_M0_T4  -349
    Z_U6_M0_T4  CAPMIN_U6_M0_T4  -104.7
    MARK2290  'MARKER'                 'INTEND'
    MARK2300  'MARKER'                 'INTORG'
    Z_U6_M1_T4  NET_COST  224
    Z_U6_M1_T4  MODE_U6_T4  1
    Z_U6_M1_T4  CAPMAX_U6_M1_T4  -265
    Z_U6_M1_T4  CAPMIN_U6_M1_T4  -79.5
    MARK2310  'MARKER'                 'INTEND'
    MARK2320  'MARKER'                 'INTORG'
    Z_U6_M2_T4  NET_COST  195
    Z_U6_M2_T4  MODE_U6_T4  1
    Z_U6_M2_T4  CAPMAX_U6_M2_T4  -315
    Z_U6_M2_T4  CAPMIN_U6_M2_T4  -94.5
    MARK2330  'MARKER'                 'INTEND'
    MARK2340  'MARKER'                 'INTORG'
    Z_U7_M0_T4  NET_COST  189
    Z_U7_M0_T4  MODE_U7_T4  1
    Z_U7_M0_T4  CAPMAX_U7_M0_T4  -212
    Z_U7_M0_T4  CAPMIN_U7_M0_T4  -63.6
    MARK2350  'MARKER'                 'INTEND'
    MARK2360  'MARKER'                 'INTORG'
    Z_U7_M1_T4  NET_COST  205
    Z_U7_M1_T4  MODE_U7_T4  1
    Z_U7_M1_T4  CAPMAX_U7_M1_T4  -223
    Z_U7_M1_T4  CAPMIN_U7_M1_T4  -66.9
    MARK2370  'MARKER'                 'INTEND'
    MARK2380  'MARKER'                 'INTORG'
    Z_U7_M2_T4  NET_COST  161
    Z_U7_M2_T4  MODE_U7_T4  1
    Z_U7_M2_T4  CAPMAX_U7_M2_T4  -287
    Z_U7_M2_T4  CAPMIN_U7_M2_T4  -86.1
    MARK2390  'MARKER'                 'INTEND'
    X_U0_M0_T4  NET_COST  33.9
    X_U0_M0_T4  CAPMAX_U0_M0_T4  1
    X_U0_M0_T4  CAPMIN_U0_M0_T4  1
    X_U0_M0_T4  MBAL_U0_T4  -0.9
    X_U0_M1_T4  NET_COST  18.4
    X_U0_M1_T4  CAPMAX_U0_M1_T4  1
    X_U0_M1_T4  CAPMIN_U0_M1_T4  1
    X_U0_M1_T4  MBAL_U0_T4  -0.9
    X_U0_M2_T4  NET_COST  29.4
    X_U0_M2_T4  CAPMAX_U0_M2_T4  1
    X_U0_M2_T4  CAPMIN_U0_M2_T4  1
    X_U0_M2_T4  MBAL_U0_T4  -0.9
    X_U1_M0_T4  NET_COST  24.8
    X_U1_M0_T4  CAPMAX_U1_M0_T4  1
    X_U1_M0_T4  CAPMIN_U1_M0_T4  1
    X_U1_M0_T4  MBAL_U0_T4  1
    X_U1_M0_T4  MBAL_U1_T4  -0.9
    X_U1_M1_T4  NET_COST  32.1
    X_U1_M1_T4  CAPMAX_U1_M1_T4  1
    X_U1_M1_T4  CAPMIN_U1_M1_T4  1
    X_U1_M1_T4  MBAL_U0_T4  1
    X_U1_M1_T4  MBAL_U1_T4  -0.9
    X_U1_M2_T4  NET_COST  38.6
    X_U1_M2_T4  CAPMAX_U1_M2_T4  1
    X_U1_M2_T4  CAPMIN_U1_M2_T4  1
    X_U1_M2_T4  MBAL_U0_T4  1
    X_U1_M2_T4  MBAL_U1_T4  -0.9
    X_U2_M0_T4  NET_COST  16.2
    X_U2_M0_T4  CAPMAX_U2_M0_T4  1
    X_U2_M0_T4  CAPMIN_U2_M0_T4  1
    X_U2_M0_T4  MBAL_U1_T4  1
    X_U2_M0_T4  MBAL_U2_T4  -0.9
    X_U2_M1_T4  NET_COST  18.7
    X_U2_M1_T4  CAPMAX_U2_M1_T4  1
    X_U2_M1_T4  CAPMIN_U2_M1_T4  1
    X_U2_M1_T4  MBAL_U1_T4  1
    X_U2_M1_T4  MBAL_U2_T4  -0.9
    X_U2_M2_T4  NET_COST  18.6
    X_U2_M2_T4  CAPMAX_U2_M2_T4  1
    X_U2_M2_T4  CAPMIN_U2_M2_T4  1
    X_U2_M2_T4  MBAL_U1_T4  1
    X_U2_M2_T4  MBAL_U2_T4  -0.9
    X_U3_M0_T4  NET_COST  26.2
    X_U3_M0_T4  CAPMAX_U3_M0_T4  1
    X_U3_M0_T4  CAPMIN_U3_M0_T4  1
    X_U3_M0_T4  MBAL_U2_T4  1
    X_U3_M0_T4  MBAL_U3_T4  -0.9
    X_U3_M1_T4  NET_COST  33.6
    X_U3_M1_T4  CAPMAX_U3_M1_T4  1
    X_U3_M1_T4  CAPMIN_U3_M1_T4  1
    X_U3_M1_T4  MBAL_U2_T4  1
    X_U3_M1_T4  MBAL_U3_T4  -0.9
    X_U3_M2_T4  NET_COST  35.1
    X_U3_M2_T4  CAPMAX_U3_M2_T4  1
    X_U3_M2_T4  CAPMIN_U3_M2_T4  1
    X_U3_M2_T4  MBAL_U2_T4  1
    X_U3_M2_T4  MBAL_U3_T4  -0.9
    X_U4_M0_T4  NET_COST  33.6
    X_U4_M0_T4  CAPMAX_U4_M0_T4  1
    X_U4_M0_T4  CAPMIN_U4_M0_T4  1
    X_U4_M0_T4  MBAL_U3_T4  1
    X_U4_M0_T4  MBAL_U4_T4  -0.9
    X_U4_M1_T4  NET_COST  15.5
    X_U4_M1_T4  CAPMAX_U4_M1_T4  1
    X_U4_M1_T4  CAPMIN_U4_M1_T4  1
    X_U4_M1_T4  MBAL_U3_T4  1
    X_U4_M1_T4  MBAL_U4_T4  -0.9
    X_U4_M2_T4  NET_COST  28.4
    X_U4_M2_T4  CAPMAX_U4_M2_T4  1
    X_U4_M2_T4  CAPMIN_U4_M2_T4  1
    X_U4_M2_T4  MBAL_U3_T4  1
    X_U4_M2_T4  MBAL_U4_T4  -0.9
    X_U5_M0_T4  NET_COST  30.2
    X_U5_M0_T4  CAPMAX_U5_M0_T4  1
    X_U5_M0_T4  CAPMIN_U5_M0_T4  1
    X_U5_M0_T4  MBAL_U4_T4  1
    X_U5_M0_T4  MBAL_U5_T4  -0.9
    X_U5_M1_T4  NET_COST  31.7
    X_U5_M1_T4  CAPMAX_U5_M1_T4  1
    X_U5_M1_T4  CAPMIN_U5_M1_T4  1
    X_U5_M1_T4  MBAL_U4_T4  1
    X_U5_M1_T4  MBAL_U5_T4  -0.9
    X_U5_M2_T4  NET_COST  17.3
    X_U5_M2_T4  CAPMAX_U5_M2_T4  1
    X_U5_M2_T4  CAPMIN_U5_M2_T4  1
    X_U5_M2_T4  MBAL_U4_T4  1
    X_U5_M2_T4  MBAL_U5_T4  -0.9
    X_U6_M0_T4  NET_COST  26.9
    X_U6_M0_T4  CAPMAX_U6_M0_T4  1
    X_U6_M0_T4  CAPMIN_U6_M0_T4  1
    X_U6_M0_T4  MBAL_U5_T4  1
    X_U6_M0_T4  MBAL_U6_T4  -0.9
    X_U6_M1_T4  NET_COST  29.9
    X_U6_M1_T4  CAPMAX_U6_M1_T4  1
    X_U6_M1_T4  CAPMIN_U6_M1_T4  1
    X_U6_M1_T4  MBAL_U5_T4  1
    X_U6_M1_T4  MBAL_U6_T4  -0.9
    X_U6_M2_T4  NET_COST  36.5
    X_U6_M2_T4  CAPMAX_U6_M2_T4  1
    X_U6_M2_T4  CAPMIN_U6_M2_T4  1
    X_U6_M2_T4  MBAL_U5_T4  1
    X_U6_M2_T4  MBAL_U6_T4  -0.9
    X_U7_M0_T4  NET_COST  -67.7
    X_U7_M0_T4  CAPMAX_U7_M0_T4  1
    X_U7_M0_T4  CAPMIN_U7_M0_T4  1
    X_U7_M0_T4  MBAL_U6_T4  1
    X_U7_M0_T4  DEMAND_T4  1
    X_U7_M1_T4  NET_COST  -72.6
    X_U7_M1_T4  CAPMAX_U7_M1_T4  1
    X_U7_M1_T4  CAPMIN_U7_M1_T4  1
    X_U7_M1_T4  MBAL_U6_T4  1
    X_U7_M1_T4  DEMAND_T4  1
    X_U7_M2_T4  NET_COST  -60.9
    X_U7_M2_T4  CAPMAX_U7_M2_T4  1
    X_U7_M2_T4  CAPMIN_U7_M2_T4  1
    X_U7_M2_T4  MBAL_U6_T4  1
    X_U7_M2_T4  DEMAND_T4  1
    S_U0_T4   NET_COST  2
    S_U0_T4   MBAL_U0_T4  1
    S_U0_T4   MBAL_U0_T5  -1
    S_U1_T4   NET_COST  2
    S_U1_T4   MBAL_U1_T4  1
    S_U1_T4   MBAL_U1_T5  -1
    S_U2_T4   NET_COST  2
    S_U2_T4   MBAL_U2_T4  1
    S_U2_T4   MBAL_U2_T5  -1
    S_U3_T4   NET_COST  2
    S_U3_T4   MBAL_U3_T4  1
    S_U3_T4   MBAL_U3_T5  -1
    S_U4_T4   NET_COST  2
    S_U4_T4   MBAL_U4_T4  1
    S_U4_T4   MBAL_U4_T5  -1
    S_U5_T4   NET_COST  2
    S_U5_T4   MBAL_U5_T4  1
    S_U5_T4   MBAL_U5_T5  -1
    S_U6_T4   NET_COST  2
    S_U6_T4   MBAL_U6_T4  1
    S_U6_T4   MBAL_U6_T5  -1
    S_U7_T4   NET_COST  2
    MARK2400  'MARKER'                 'INTORG'
    Z_U0_M0_T5  NET_COST  228
    Z_U0_M0_T5  MODE_U0_T5  1
    Z_U0_M0_T5  CAPMAX_U0_M0_T5  -300
    Z_U0_M0_T5  CAPMIN_U0_M0_T5  -90
    MARK2410  'MARKER'                 'INTEND'
    MARK2420  'MARKER'                 'INTORG'
    Z_U0_M1_T5  NET_COST  281
    Z_U0_M1_T5  MODE_U0_T5  1
    Z_U0_M1_T5  CAPMAX_U0_M1_T5  -169
    Z_U0_M1_T5  CAPMIN_U0_M1_T5  -50.7
    MARK2430  'MARKER'                 'INTEND'
    MARK2440  'MARKER'                 'INTORG'
    Z_U0_M2_T5  NET_COST  175
    Z_U0_M2_T5  MODE_U0_T5  1
    Z_U0_M2_T5  CAPMAX_U0_M2_T5  -205
    Z_U0_M2_T5  CAPMIN_U0_M2_T5  -61.5
    MARK2450  'MARKER'                 'INTEND'
    MARK2460  'MARKER'                 'INTORG'
    Z_U1_M0_T5  NET_COST  102
    Z_U1_M0_T5  MODE_U1_T5  1
    Z_U1_M0_T5  CAPMAX_U1_M0_T5  -255
    Z_U1_M0_T5  CAPMIN_U1_M0_T5  -76.5
    MARK2470  'MARKER'                 'INTEND'
    MARK2480  'MARKER'                 'INTORG'
    Z_U1_M1_T5  NET_COST  227
    Z_U1_M1_T5  MODE_U1_T5  1
    Z_U1_M1_T5  CAPMAX_U1_M1_T5  -315
    Z_U1_M1_T5  CAPMIN_U1_M1_T5  -94.5
    MARK2490  'MARKER'                 'INTEND'
    MARK2500  'MARKER'                 'INTORG'
    Z_U1_M2_T5  NET_COST  251
    Z_U1_M2_T5  MODE_U1_T5  1
    Z_U1_M2_T5  CAPMAX_U1_M2_T5  -240
    Z_U1_M2_T5  CAPMIN_U1_M2_T5  -72
    MARK2510  'MARKER'                 'INTEND'
    MARK2520  'MARKER'                 'INTORG'
    Z_U2_M0_T5  NET_COST  113
    Z_U2_M0_T5  MODE_U2_T5  1
    Z_U2_M0_T5  CAPMAX_U2_M0_T5  -300
    Z_U2_M0_T5  CAPMIN_U2_M0_T5  -90
    MARK2530  'MARKER'                 'INTEND'
    MARK2540  'MARKER'                 'INTORG'
    Z_U2_M1_T5  NET_COST  185
    Z_U2_M1_T5  MODE_U2_T5  1
    Z_U2_M1_T5  CAPMAX_U2_M1_T5  -170
    Z_U2_M1_T5  CAPMIN_U2_M1_T5  -51
    MARK2550  'MARKER'                 'INTEND'
    MARK2560  'MARKER'                 'INTORG'
    Z_U2_M2_T5  NET_COST  119
    Z_U2_M2_T5  MODE_U2_T5  1
    Z_U2_M2_T5  CAPMAX_U2_M2_T5  -256
    Z_U2_M2_T5  CAPMIN_U2_M2_T5  -76.8
    MARK2570  'MARKER'                 'INTEND'
    MARK2580  'MARKER'                 'INTORG'
    Z_U3_M0_T5  NET_COST  255
    Z_U3_M0_T5  MODE_U3_T5  1
    Z_U3_M0_T5  CAPMAX_U3_M0_T5  -175
    Z_U3_M0_T5  CAPMIN_U3_M0_T5  -52.5
    MARK2590  'MARKER'                 'INTEND'
    MARK2600  'MARKER'                 'INTORG'
    Z_U3_M1_T5  NET_COST  165
    Z_U3_M1_T5  MODE_U3_T5  1
    Z_U3_M1_T5  CAPMAX_U3_M1_T5  -300
    Z_U3_M1_T5  CAPMIN_U3_M1_T5  -90
    MARK2610  'MARKER'                 'INTEND'
    MARK2620  'MARKER'                 'INTORG'
    Z_U3_M2_T5  NET_COST  109
    Z_U3_M2_T5  MODE_U3_T5  1
    Z_U3_M2_T5  CAPMAX_U3_M2_T5  -335
    Z_U3_M2_T5  CAPMIN_U3_M2_T5  -100.5
    MARK2630  'MARKER'                 'INTEND'
    MARK2640  'MARKER'                 'INTORG'
    Z_U4_M0_T5  NET_COST  183
    Z_U4_M0_T5  MODE_U4_T5  1
    Z_U4_M0_T5  CAPMAX_U4_M0_T5  -210
    Z_U4_M0_T5  CAPMIN_U4_M0_T5  -63
    MARK2650  'MARKER'                 'INTEND'
    MARK2660  'MARKER'                 'INTORG'
    Z_U4_M1_T5  NET_COST  240
    Z_U4_M1_T5  MODE_U4_T5  1
    Z_U4_M1_T5  CAPMAX_U4_M1_T5  -242
    Z_U4_M1_T5  CAPMIN_U4_M1_T5  -72.6
    MARK2670  'MARKER'                 'INTEND'
    MARK2680  'MARKER'                 'INTORG'
    Z_U4_M2_T5  NET_COST  198
    Z_U4_M2_T5  MODE_U4_T5  1
    Z_U4_M2_T5  CAPMAX_U4_M2_T5  -192
    Z_U4_M2_T5  CAPMIN_U4_M2_T5  -57.6
    MARK2690  'MARKER'                 'INTEND'
    MARK2700  'MARKER'                 'INTORG'
    Z_U5_M0_T5  NET_COST  199
    Z_U5_M0_T5  MODE_U5_T5  1
    Z_U5_M0_T5  CAPMAX_U5_M0_T5  -227
    Z_U5_M0_T5  CAPMIN_U5_M0_T5  -68.1
    MARK2710  'MARKER'                 'INTEND'
    MARK2720  'MARKER'                 'INTORG'
    Z_U5_M1_T5  NET_COST  183
    Z_U5_M1_T5  MODE_U5_T5  1
    Z_U5_M1_T5  CAPMAX_U5_M1_T5  -237
    Z_U5_M1_T5  CAPMIN_U5_M1_T5  -71.1
    MARK2730  'MARKER'                 'INTEND'
    MARK2740  'MARKER'                 'INTORG'
    Z_U5_M2_T5  NET_COST  115
    Z_U5_M2_T5  MODE_U5_T5  1
    Z_U5_M2_T5  CAPMAX_U5_M2_T5  -314
    Z_U5_M2_T5  CAPMIN_U5_M2_T5  -94.2
    MARK2750  'MARKER'                 'INTEND'
    MARK2760  'MARKER'                 'INTORG'
    Z_U6_M0_T5  NET_COST  189
    Z_U6_M0_T5  MODE_U6_T5  1
    Z_U6_M0_T5  CAPMAX_U6_M0_T5  -349
    Z_U6_M0_T5  CAPMIN_U6_M0_T5  -104.7
    MARK2770  'MARKER'                 'INTEND'
    MARK2780  'MARKER'                 'INTORG'
    Z_U6_M1_T5  NET_COST  224
    Z_U6_M1_T5  MODE_U6_T5  1
    Z_U6_M1_T5  CAPMAX_U6_M1_T5  -265
    Z_U6_M1_T5  CAPMIN_U6_M1_T5  -79.5
    MARK2790  'MARKER'                 'INTEND'
    MARK2800  'MARKER'                 'INTORG'
    Z_U6_M2_T5  NET_COST  195
    Z_U6_M2_T5  MODE_U6_T5  1
    Z_U6_M2_T5  CAPMAX_U6_M2_T5  -315
    Z_U6_M2_T5  CAPMIN_U6_M2_T5  -94.5
    MARK2810  'MARKER'                 'INTEND'
    MARK2820  'MARKER'                 'INTORG'
    Z_U7_M0_T5  NET_COST  189
    Z_U7_M0_T5  MODE_U7_T5  1
    Z_U7_M0_T5  CAPMAX_U7_M0_T5  -212
    Z_U7_M0_T5  CAPMIN_U7_M0_T5  -63.6
    MARK2830  'MARKER'                 'INTEND'
    MARK2840  'MARKER'                 'INTORG'
    Z_U7_M1_T5  NET_COST  205
    Z_U7_M1_T5  MODE_U7_T5  1
    Z_U7_M1_T5  CAPMAX_U7_M1_T5  -223
    Z_U7_M1_T5  CAPMIN_U7_M1_T5  -66.9
    MARK2850  'MARKER'                 'INTEND'
    MARK2860  'MARKER'                 'INTORG'
    Z_U7_M2_T5  NET_COST  161
    Z_U7_M2_T5  MODE_U7_T5  1
    Z_U7_M2_T5  CAPMAX_U7_M2_T5  -287
    Z_U7_M2_T5  CAPMIN_U7_M2_T5  -86.1
    MARK2870  'MARKER'                 'INTEND'
    X_U0_M0_T5  NET_COST  33.9
    X_U0_M0_T5  CAPMAX_U0_M0_T5  1
    X_U0_M0_T5  CAPMIN_U0_M0_T5  1
    X_U0_M0_T5  MBAL_U0_T5  -0.9
    X_U0_M1_T5  NET_COST  18.4
    X_U0_M1_T5  CAPMAX_U0_M1_T5  1
    X_U0_M1_T5  CAPMIN_U0_M1_T5  1
    X_U0_M1_T5  MBAL_U0_T5  -0.9
    X_U0_M2_T5  NET_COST  29.4
    X_U0_M2_T5  CAPMAX_U0_M2_T5  1
    X_U0_M2_T5  CAPMIN_U0_M2_T5  1
    X_U0_M2_T5  MBAL_U0_T5  -0.9
    X_U1_M0_T5  NET_COST  24.8
    X_U1_M0_T5  CAPMAX_U1_M0_T5  1
    X_U1_M0_T5  CAPMIN_U1_M0_T5  1
    X_U1_M0_T5  MBAL_U0_T5  1
    X_U1_M0_T5  MBAL_U1_T5  -0.9
    X_U1_M1_T5  NET_COST  32.1
    X_U1_M1_T5  CAPMAX_U1_M1_T5  1
    X_U1_M1_T5  CAPMIN_U1_M1_T5  1
    X_U1_M1_T5  MBAL_U0_T5  1
    X_U1_M1_T5  MBAL_U1_T5  -0.9
    X_U1_M2_T5  NET_COST  38.6
    X_U1_M2_T5  CAPMAX_U1_M2_T5  1
    X_U1_M2_T5  CAPMIN_U1_M2_T5  1
    X_U1_M2_T5  MBAL_U0_T5  1
    X_U1_M2_T5  MBAL_U1_T5  -0.9
    X_U2_M0_T5  NET_COST  16.2
    X_U2_M0_T5  CAPMAX_U2_M0_T5  1
    X_U2_M0_T5  CAPMIN_U2_M0_T5  1
    X_U2_M0_T5  MBAL_U1_T5  1
    X_U2_M0_T5  MBAL_U2_T5  -0.9
    X_U2_M1_T5  NET_COST  18.7
    X_U2_M1_T5  CAPMAX_U2_M1_T5  1
    X_U2_M1_T5  CAPMIN_U2_M1_T5  1
    X_U2_M1_T5  MBAL_U1_T5  1
    X_U2_M1_T5  MBAL_U2_T5  -0.9
    X_U2_M2_T5  NET_COST  18.6
    X_U2_M2_T5  CAPMAX_U2_M2_T5  1
    X_U2_M2_T5  CAPMIN_U2_M2_T5  1
    X_U2_M2_T5  MBAL_U1_T5  1
    X_U2_M2_T5  MBAL_U2_T5  -0.9
    X_U3_M0_T5  NET_COST  26.2
    X_U3_M0_T5  CAPMAX_U3_M0_T5  1
    X_U3_M0_T5  CAPMIN_U3_M0_T5  1
    X_U3_M0_T5  MBAL_U2_T5  1
    X_U3_M0_T5  MBAL_U3_T5  -0.9
    X_U3_M1_T5  NET_COST  33.6
    X_U3_M1_T5  CAPMAX_U3_M1_T5  1
    X_U3_M1_T5  CAPMIN_U3_M1_T5  1
    X_U3_M1_T5  MBAL_U2_T5  1
    X_U3_M1_T5  MBAL_U3_T5  -0.9
    X_U3_M2_T5  NET_COST  35.1
    X_U3_M2_T5  CAPMAX_U3_M2_T5  1
    X_U3_M2_T5  CAPMIN_U3_M2_T5  1
    X_U3_M2_T5  MBAL_U2_T5  1
    X_U3_M2_T5  MBAL_U3_T5  -0.9
    X_U4_M0_T5  NET_COST  33.6
    X_U4_M0_T5  CAPMAX_U4_M0_T5  1
    X_U4_M0_T5  CAPMIN_U4_M0_T5  1
    X_U4_M0_T5  MBAL_U3_T5  1
    X_U4_M0_T5  MBAL_U4_T5  -0.9
    X_U4_M1_T5  NET_COST  15.5
    X_U4_M1_T5  CAPMAX_U4_M1_T5  1
    X_U4_M1_T5  CAPMIN_U4_M1_T5  1
    X_U4_M1_T5  MBAL_U3_T5  1
    X_U4_M1_T5  MBAL_U4_T5  -0.9
    X_U4_M2_T5  NET_COST  28.4
    X_U4_M2_T5  CAPMAX_U4_M2_T5  1
    X_U4_M2_T5  CAPMIN_U4_M2_T5  1
    X_U4_M2_T5  MBAL_U3_T5  1
    X_U4_M2_T5  MBAL_U4_T5  -0.9
    X_U5_M0_T5  NET_COST  30.2
    X_U5_M0_T5  CAPMAX_U5_M0_T5  1
    X_U5_M0_T5  CAPMIN_U5_M0_T5  1
    X_U5_M0_T5  MBAL_U4_T5  1
    X_U5_M0_T5  MBAL_U5_T5  -0.9
    X_U5_M1_T5  NET_COST  31.7
    X_U5_M1_T5  CAPMAX_U5_M1_T5  1
    X_U5_M1_T5  CAPMIN_U5_M1_T5  1
    X_U5_M1_T5  MBAL_U4_T5  1
    X_U5_M1_T5  MBAL_U5_T5  -0.9
    X_U5_M2_T5  NET_COST  17.3
    X_U5_M2_T5  CAPMAX_U5_M2_T5  1
    X_U5_M2_T5  CAPMIN_U5_M2_T5  1
    X_U5_M2_T5  MBAL_U4_T5  1
    X_U5_M2_T5  MBAL_U5_T5  -0.9
    X_U6_M0_T5  NET_COST  26.9
    X_U6_M0_T5  CAPMAX_U6_M0_T5  1
    X_U6_M0_T5  CAPMIN_U6_M0_T5  1
    X_U6_M0_T5  MBAL_U5_T5  1
    X_U6_M0_T5  MBAL_U6_T5  -0.9
    X_U6_M1_T5  NET_COST  29.9
    X_U6_M1_T5  CAPMAX_U6_M1_T5  1
    X_U6_M1_T5  CAPMIN_U6_M1_T5  1
    X_U6_M1_T5  MBAL_U5_T5  1
    X_U6_M1_T5  MBAL_U6_T5  -0.9
    X_U6_M2_T5  NET_COST  36.5
    X_U6_M2_T5  CAPMAX_U6_M2_T5  1
    X_U6_M2_T5  CAPMIN_U6_M2_T5  1
    X_U6_M2_T5  MBAL_U5_T5  1
    X_U6_M2_T5  MBAL_U6_T5  -0.9
    X_U7_M0_T5  NET_COST  -67.7
    X_U7_M0_T5  CAPMAX_U7_M0_T5  1
    X_U7_M0_T5  CAPMIN_U7_M0_T5  1
    X_U7_M0_T5  MBAL_U6_T5  1
    X_U7_M0_T5  DEMAND_T5  1
    X_U7_M1_T5  NET_COST  -72.6
    X_U7_M1_T5  CAPMAX_U7_M1_T5  1
    X_U7_M1_T5  CAPMIN_U7_M1_T5  1
    X_U7_M1_T5  MBAL_U6_T5  1
    X_U7_M1_T5  DEMAND_T5  1
    X_U7_M2_T5  NET_COST  -60.9
    X_U7_M2_T5  CAPMAX_U7_M2_T5  1
    X_U7_M2_T5  CAPMIN_U7_M2_T5  1
    X_U7_M2_T5  MBAL_U6_T5  1
    X_U7_M2_T5  DEMAND_T5  1
    S_U0_T5   NET_COST  2
    S_U0_T5   MBAL_U0_T5  1
    S_U0_T5   MBAL_U0_T6  -1
    S_U1_T5   NET_COST  2
    S_U1_T5   MBAL_U1_T5  1
    S_U1_T5   MBAL_U1_T6  -1
    S_U2_T5   NET_COST  2
    S_U2_T5   MBAL_U2_T5  1
    S_U2_T5   MBAL_U2_T6  -1
    S_U3_T5   NET_COST  2
    S_U3_T5   MBAL_U3_T5  1
    S_U3_T5   MBAL_U3_T6  -1
    S_U4_T5   NET_COST  2
    S_U4_T5   MBAL_U4_T5  1
    S_U4_T5   MBAL_U4_T6  -1
    S_U5_T5   NET_COST  2
    S_U5_T5   MBAL_U5_T5  1
    S_U5_T5   MBAL_U5_T6  -1
    S_U6_T5   NET_COST  2
    S_U6_T5   MBAL_U6_T5  1
    S_U6_T5   MBAL_U6_T6  -1
    S_U7_T5   NET_COST  2
    MARK2880  'MARKER'                 'INTORG'
    Z_U0_M0_T6  NET_COST  228
    Z_U0_M0_T6  MODE_U0_T6  1
    Z_U0_M0_T6  CAPMAX_U0_M0_T6  -300
    Z_U0_M0_T6  CAPMIN_U0_M0_T6  -90
    MARK2890  'MARKER'                 'INTEND'
    MARK2900  'MARKER'                 'INTORG'
    Z_U0_M1_T6  NET_COST  281
    Z_U0_M1_T6  MODE_U0_T6  1
    Z_U0_M1_T6  CAPMAX_U0_M1_T6  -169
    Z_U0_M1_T6  CAPMIN_U0_M1_T6  -50.7
    MARK2910  'MARKER'                 'INTEND'
    MARK2920  'MARKER'                 'INTORG'
    Z_U0_M2_T6  NET_COST  175
    Z_U0_M2_T6  MODE_U0_T6  1
    Z_U0_M2_T6  CAPMAX_U0_M2_T6  -205
    Z_U0_M2_T6  CAPMIN_U0_M2_T6  -61.5
    MARK2930  'MARKER'                 'INTEND'
    MARK2940  'MARKER'                 'INTORG'
    Z_U1_M0_T6  NET_COST  102
    Z_U1_M0_T6  MODE_U1_T6  1
    Z_U1_M0_T6  CAPMAX_U1_M0_T6  -255
    Z_U1_M0_T6  CAPMIN_U1_M0_T6  -76.5
    MARK2950  'MARKER'                 'INTEND'
    MARK2960  'MARKER'                 'INTORG'
    Z_U1_M1_T6  NET_COST  227
    Z_U1_M1_T6  MODE_U1_T6  1
    Z_U1_M1_T6  CAPMAX_U1_M1_T6  -315
    Z_U1_M1_T6  CAPMIN_U1_M1_T6  -94.5
    MARK2970  'MARKER'                 'INTEND'
    MARK2980  'MARKER'                 'INTORG'
    Z_U1_M2_T6  NET_COST  251
    Z_U1_M2_T6  MODE_U1_T6  1
    Z_U1_M2_T6  CAPMAX_U1_M2_T6  -240
    Z_U1_M2_T6  CAPMIN_U1_M2_T6  -72
    MARK2990  'MARKER'                 'INTEND'
    MARK3000  'MARKER'                 'INTORG'
    Z_U2_M0_T6  NET_COST  113
    Z_U2_M0_T6  MODE_U2_T6  1
    Z_U2_M0_T6  CAPMAX_U2_M0_T6  -300
    Z_U2_M0_T6  CAPMIN_U2_M0_T6  -90
    MARK3010  'MARKER'                 'INTEND'
    MARK3020  'MARKER'                 'INTORG'
    Z_U2_M1_T6  NET_COST  185
    Z_U2_M1_T6  MODE_U2_T6  1
    Z_U2_M1_T6  CAPMAX_U2_M1_T6  -170
    Z_U2_M1_T6  CAPMIN_U2_M1_T6  -51
    MARK3030  'MARKER'                 'INTEND'
    MARK3040  'MARKER'                 'INTORG'
    Z_U2_M2_T6  NET_COST  119
    Z_U2_M2_T6  MODE_U2_T6  1
    Z_U2_M2_T6  CAPMAX_U2_M2_T6  -256
    Z_U2_M2_T6  CAPMIN_U2_M2_T6  -76.8
    MARK3050  'MARKER'                 'INTEND'
    MARK3060  'MARKER'                 'INTORG'
    Z_U3_M0_T6  NET_COST  255
    Z_U3_M0_T6  MODE_U3_T6  1
    Z_U3_M0_T6  CAPMAX_U3_M0_T6  -175
    Z_U3_M0_T6  CAPMIN_U3_M0_T6  -52.5
    MARK3070  'MARKER'                 'INTEND'
    MARK3080  'MARKER'                 'INTORG'
    Z_U3_M1_T6  NET_COST  165
    Z_U3_M1_T6  MODE_U3_T6  1
    Z_U3_M1_T6  CAPMAX_U3_M1_T6  -300
    Z_U3_M1_T6  CAPMIN_U3_M1_T6  -90
    MARK3090  'MARKER'                 'INTEND'
    MARK3100  'MARKER'                 'INTORG'
    Z_U3_M2_T6  NET_COST  109
    Z_U3_M2_T6  MODE_U3_T6  1
    Z_U3_M2_T6  CAPMAX_U3_M2_T6  -335
    Z_U3_M2_T6  CAPMIN_U3_M2_T6  -100.5
    MARK3110  'MARKER'                 'INTEND'
    MARK3120  'MARKER'                 'INTORG'
    Z_U4_M0_T6  NET_COST  183
    Z_U4_M0_T6  MODE_U4_T6  1
    Z_U4_M0_T6  CAPMAX_U4_M0_T6  -210
    Z_U4_M0_T6  CAPMIN_U4_M0_T6  -63
    MARK3130  'MARKER'                 'INTEND'
    MARK3140  'MARKER'                 'INTORG'
    Z_U4_M1_T6  NET_COST  240
    Z_U4_M1_T6  MODE_U4_T6  1
    Z_U4_M1_T6  CAPMAX_U4_M1_T6  -242
    Z_U4_M1_T6  CAPMIN_U4_M1_T6  -72.6
    MARK3150  'MARKER'                 'INTEND'
    MARK3160  'MARKER'                 'INTORG'
    Z_U4_M2_T6  NET_COST  198
    Z_U4_M2_T6  MODE_U4_T6  1
    Z_U4_M2_T6  CAPMAX_U4_M2_T6  -192
    Z_U4_M2_T6  CAPMIN_U4_M2_T6  -57.6
    MARK3170  'MARKER'                 'INTEND'
    MARK3180  'MARKER'                 'INTORG'
    Z_U5_M0_T6  NET_COST  199
    Z_U5_M0_T6  MODE_U5_T6  1
    Z_U5_M0_T6  CAPMAX_U5_M0_T6  -227
    Z_U5_M0_T6  CAPMIN_U5_M0_T6  -68.1
    MARK3190  'MARKER'                 'INTEND'
    MARK3200  'MARKER'                 'INTORG'
    Z_U5_M1_T6  NET_COST  183
    Z_U5_M1_T6  MODE_U5_T6  1
    Z_U5_M1_T6  CAPMAX_U5_M1_T6  -237
    Z_U5_M1_T6  CAPMIN_U5_M1_T6  -71.1
    MARK3210  'MARKER'                 'INTEND'
    MARK3220  'MARKER'                 'INTORG'
    Z_U5_M2_T6  NET_COST  115
    Z_U5_M2_T6  MODE_U5_T6  1
    Z_U5_M2_T6  CAPMAX_U5_M2_T6  -314
    Z_U5_M2_T6  CAPMIN_U5_M2_T6  -94.2
    MARK3230  'MARKER'                 'INTEND'
    MARK3240  'MARKER'                 'INTORG'
    Z_U6_M0_T6  NET_COST  189
    Z_U6_M0_T6  MODE_U6_T6  1
    Z_U6_M0_T6  CAPMAX_U6_M0_T6  -349
    Z_U6_M0_T6  CAPMIN_U6_M0_T6  -104.7
    MARK3250  'MARKER'                 'INTEND'
    MARK3260  'MARKER'                 'INTORG'
    Z_U6_M1_T6  NET_COST  224
    Z_U6_M1_T6  MODE_U6_T6  1
    Z_U6_M1_T6  CAPMAX_U6_M1_T6  -265
    Z_U6_M1_T6  CAPMIN_U6_M1_T6  -79.5
    MARK3270  'MARKER'                 'INTEND'
    MARK3280  'MARKER'                 'INTORG'
    Z_U6_M2_T6  NET_COST  195
    Z_U6_M2_T6  MODE_U6_T6  1
    Z_U6_M2_T6  CAPMAX_U6_M2_T6  -315
    Z_U6_M2_T6  CAPMIN_U6_M2_T6  -94.5
    MARK3290  'MARKER'                 'INTEND'
    MARK3300  'MARKER'                 'INTORG'
    Z_U7_M0_T6  NET_COST  189
    Z_U7_M0_T6  MODE_U7_T6  1
    Z_U7_M0_T6  CAPMAX_U7_M0_T6  -212
    Z_U7_M0_T6  CAPMIN_U7_M0_T6  -63.6
    MARK3310  'MARKER'                 'INTEND'
    MARK3320  'MARKER'                 'INTORG'
    Z_U7_M1_T6  NET_COST  205
    Z_U7_M1_T6  MODE_U7_T6  1
    Z_U7_M1_T6  CAPMAX_U7_M1_T6  -223
    Z_U7_M1_T6  CAPMIN_U7_M1_T6  -66.9
    MARK3330  'MARKER'                 'INTEND'
    MARK3340  'MARKER'                 'INTORG'
    Z_U7_M2_T6  NET_COST  161
    Z_U7_M2_T6  MODE_U7_T6  1
    Z_U7_M2_T6  CAPMAX_U7_M2_T6  -287
    Z_U7_M2_T6  CAPMIN_U7_M2_T6  -86.1
    MARK3350  'MARKER'                 'INTEND'
    X_U0_M0_T6  NET_COST  33.9
    X_U0_M0_T6  CAPMAX_U0_M0_T6  1
    X_U0_M0_T6  CAPMIN_U0_M0_T6  1
    X_U0_M0_T6  MBAL_U0_T6  -0.9
    X_U0_M1_T6  NET_COST  18.4
    X_U0_M1_T6  CAPMAX_U0_M1_T6  1
    X_U0_M1_T6  CAPMIN_U0_M1_T6  1
    X_U0_M1_T6  MBAL_U0_T6  -0.9
    X_U0_M2_T6  NET_COST  29.4
    X_U0_M2_T6  CAPMAX_U0_M2_T6  1
    X_U0_M2_T6  CAPMIN_U0_M2_T6  1
    X_U0_M2_T6  MBAL_U0_T6  -0.9
    X_U1_M0_T6  NET_COST  24.8
    X_U1_M0_T6  CAPMAX_U1_M0_T6  1
    X_U1_M0_T6  CAPMIN_U1_M0_T6  1
    X_U1_M0_T6  MBAL_U0_T6  1
    X_U1_M0_T6  MBAL_U1_T6  -0.9
    X_U1_M1_T6  NET_COST  32.1
    X_U1_M1_T6  CAPMAX_U1_M1_T6  1
    X_U1_M1_T6  CAPMIN_U1_M1_T6  1
    X_U1_M1_T6  MBAL_U0_T6  1
    X_U1_M1_T6  MBAL_U1_T6  -0.9
    X_U1_M2_T6  NET_COST  38.6
    X_U1_M2_T6  CAPMAX_U1_M2_T6  1
    X_U1_M2_T6  CAPMIN_U1_M2_T6  1
    X_U1_M2_T6  MBAL_U0_T6  1
    X_U1_M2_T6  MBAL_U1_T6  -0.9
    X_U2_M0_T6  NET_COST  16.2
    X_U2_M0_T6  CAPMAX_U2_M0_T6  1
    X_U2_M0_T6  CAPMIN_U2_M0_T6  1
    X_U2_M0_T6  MBAL_U1_T6  1
    X_U2_M0_T6  MBAL_U2_T6  -0.9
    X_U2_M1_T6  NET_COST  18.7
    X_U2_M1_T6  CAPMAX_U2_M1_T6  1
    X_U2_M1_T6  CAPMIN_U2_M1_T6  1
    X_U2_M1_T6  MBAL_U1_T6  1
    X_U2_M1_T6  MBAL_U2_T6  -0.9
    X_U2_M2_T6  NET_COST  18.6
    X_U2_M2_T6  CAPMAX_U2_M2_T6  1
    X_U2_M2_T6  CAPMIN_U2_M2_T6  1
    X_U2_M2_T6  MBAL_U1_T6  1
    X_U2_M2_T6  MBAL_U2_T6  -0.9
    X_U3_M0_T6  NET_COST  26.2
    X_U3_M0_T6  CAPMAX_U3_M0_T6  1
    X_U3_M0_T6  CAPMIN_U3_M0_T6  1
    X_U3_M0_T6  MBAL_U2_T6  1
    X_U3_M0_T6  MBAL_U3_T6  -0.9
    X_U3_M1_T6  NET_COST  33.6
    X_U3_M1_T6  CAPMAX_U3_M1_T6  1
    X_U3_M1_T6  CAPMIN_U3_M1_T6  1
    X_U3_M1_T6  MBAL_U2_T6  1
    X_U3_M1_T6  MBAL_U3_T6  -0.9
    X_U3_M2_T6  NET_COST  35.1
    X_U3_M2_T6  CAPMAX_U3_M2_T6  1
    X_U3_M2_T6  CAPMIN_U3_M2_T6  1
    X_U3_M2_T6  MBAL_U2_T6  1
    X_U3_M2_T6  MBAL_U3_T6  -0.9
    X_U4_M0_T6  NET_COST  33.6
    X_U4_M0_T6  CAPMAX_U4_M0_T6  1
    X_U4_M0_T6  CAPMIN_U4_M0_T6  1
    X_U4_M0_T6  MBAL_U3_T6  1
    X_U4_M0_T6  MBAL_U4_T6  -0.9
    X_U4_M1_T6  NET_COST  15.5
    X_U4_M1_T6  CAPMAX_U4_M1_T6  1
    X_U4_M1_T6  CAPMIN_U4_M1_T6  1
    X_U4_M1_T6  MBAL_U3_T6  1
    X_U4_M1_T6  MBAL_U4_T6  -0.9
    X_U4_M2_T6  NET_COST  28.4
    X_U4_M2_T6  CAPMAX_U4_M2_T6  1
    X_U4_M2_T6  CAPMIN_U4_M2_T6  1
    X_U4_M2_T6  MBAL_U3_T6  1
    X_U4_M2_T6  MBAL_U4_T6  -0.9
    X_U5_M0_T6  NET_COST  30.2
    X_U5_M0_T6  CAPMAX_U5_M0_T6  1
    X_U5_M0_T6  CAPMIN_U5_M0_T6  1
    X_U5_M0_T6  MBAL_U4_T6  1
    X_U5_M0_T6  MBAL_U5_T6  -0.9
    X_U5_M1_T6  NET_COST  31.7
    X_U5_M1_T6  CAPMAX_U5_M1_T6  1
    X_U5_M1_T6  CAPMIN_U5_M1_T6  1
    X_U5_M1_T6  MBAL_U4_T6  1
    X_U5_M1_T6  MBAL_U5_T6  -0.9
    X_U5_M2_T6  NET_COST  17.3
    X_U5_M2_T6  CAPMAX_U5_M2_T6  1
    X_U5_M2_T6  CAPMIN_U5_M2_T6  1
    X_U5_M2_T6  MBAL_U4_T6  1
    X_U5_M2_T6  MBAL_U5_T6  -0.9
    X_U6_M0_T6  NET_COST  26.9
    X_U6_M0_T6  CAPMAX_U6_M0_T6  1
    X_U6_M0_T6  CAPMIN_U6_M0_T6  1
    X_U6_M0_T6  MBAL_U5_T6  1
    X_U6_M0_T6  MBAL_U6_T6  -0.9
    X_U6_M1_T6  NET_COST  29.9
    X_U6_M1_T6  CAPMAX_U6_M1_T6  1
    X_U6_M1_T6  CAPMIN_U6_M1_T6  1
    X_U6_M1_T6  MBAL_U5_T6  1
    X_U6_M1_T6  MBAL_U6_T6  -0.9
    X_U6_M2_T6  NET_COST  36.5
    X_U6_M2_T6  CAPMAX_U6_M2_T6  1
    X_U6_M2_T6  CAPMIN_U6_M2_T6  1
    X_U6_M2_T6  MBAL_U5_T6  1
    X_U6_M2_T6  MBAL_U6_T6  -0.9
    X_U7_M0_T6  NET_COST  -67.7
    X_U7_M0_T6  CAPMAX_U7_M0_T6  1
    X_U7_M0_T6  CAPMIN_U7_M0_T6  1
    X_U7_M0_T6  MBAL_U6_T6  1
    X_U7_M0_T6  DEMAND_T6  1
    X_U7_M1_T6  NET_COST  -72.6
    X_U7_M1_T6  CAPMAX_U7_M1_T6  1
    X_U7_M1_T6  CAPMIN_U7_M1_T6  1
    X_U7_M1_T6  MBAL_U6_T6  1
    X_U7_M1_T6  DEMAND_T6  1
    X_U7_M2_T6  NET_COST  -60.9
    X_U7_M2_T6  CAPMAX_U7_M2_T6  1
    X_U7_M2_T6  CAPMIN_U7_M2_T6  1
    X_U7_M2_T6  MBAL_U6_T6  1
    X_U7_M2_T6  DEMAND_T6  1
    S_U0_T6   NET_COST  2
    S_U0_T6   MBAL_U0_T6  1
    S_U0_T6   MBAL_U0_T7  -1
    S_U1_T6   NET_COST  2
    S_U1_T6   MBAL_U1_T6  1
    S_U1_T6   MBAL_U1_T7  -1
    S_U2_T6   NET_COST  2
    S_U2_T6   MBAL_U2_T6  1
    S_U2_T6   MBAL_U2_T7  -1
    S_U3_T6   NET_COST  2
    S_U3_T6   MBAL_U3_T6  1
    S_U3_T6   MBAL_U3_T7  -1
    S_U4_T6   NET_COST  2
    S_U4_T6   MBAL_U4_T6  1
    S_U4_T6   MBAL_U4_T7  -1
    S_U5_T6   NET_COST  2
    S_U5_T6   MBAL_U5_T6  1
    S_U5_T6   MBAL_U5_T7  -1
    S_U6_T6   NET_COST  2
    S_U6_T6   MBAL_U6_T6  1
    S_U6_T6   MBAL_U6_T7  -1
    S_U7_T6   NET_COST  2
    MARK3360  'MARKER'                 'INTORG'
    Z_U0_M0_T7  NET_COST  228
    Z_U0_M0_T7  MODE_U0_T7  1
    Z_U0_M0_T7  CAPMAX_U0_M0_T7  -300
    Z_U0_M0_T7  CAPMIN_U0_M0_T7  -90
    MARK3370  'MARKER'                 'INTEND'
    MARK3380  'MARKER'                 'INTORG'
    Z_U0_M1_T7  NET_COST  281
    Z_U0_M1_T7  MODE_U0_T7  1
    Z_U0_M1_T7  CAPMAX_U0_M1_T7  -169
    Z_U0_M1_T7  CAPMIN_U0_M1_T7  -50.7
    MARK3390  'MARKER'                 'INTEND'
    MARK3400  'MARKER'                 'INTORG'
    Z_U0_M2_T7  NET_COST  175
    Z_U0_M2_T7  MODE_U0_T7  1
    Z_U0_M2_T7  CAPMAX_U0_M2_T7  -205
    Z_U0_M2_T7  CAPMIN_U0_M2_T7  -61.5
    MARK3410  'MARKER'                 'INTEND'
    MARK3420  'MARKER'                 'INTORG'
    Z_U1_M0_T7  NET_COST  102
    Z_U1_M0_T7  MODE_U1_T7  1
    Z_U1_M0_T7  CAPMAX_U1_M0_T7  -255
    Z_U1_M0_T7  CAPMIN_U1_M0_T7  -76.5
    MARK3430  'MARKER'                 'INTEND'
    MARK3440  'MARKER'                 'INTORG'
    Z_U1_M1_T7  NET_COST  227
    Z_U1_M1_T7  MODE_U1_T7  1
    Z_U1_M1_T7  CAPMAX_U1_M1_T7  -315
    Z_U1_M1_T7  CAPMIN_U1_M1_T7  -94.5
    MARK3450  'MARKER'                 'INTEND'
    MARK3460  'MARKER'                 'INTORG'
    Z_U1_M2_T7  NET_COST  251
    Z_U1_M2_T7  MODE_U1_T7  1
    Z_U1_M2_T7  CAPMAX_U1_M2_T7  -240
    Z_U1_M2_T7  CAPMIN_U1_M2_T7  -72
    MARK3470  'MARKER'                 'INTEND'
    MARK3480  'MARKER'                 'INTORG'
    Z_U2_M0_T7  NET_COST  113
    Z_U2_M0_T7  MODE_U2_T7  1
    Z_U2_M0_T7  CAPMAX_U2_M0_T7  -300
    Z_U2_M0_T7  CAPMIN_U2_M0_T7  -90
    MARK3490  'MARKER'                 'INTEND'
    MARK3500  'MARKER'                 'INTORG'
    Z_U2_M1_T7  NET_COST  185
    Z_U2_M1_T7  MODE_U2_T7  1
    Z_U2_M1_T7  CAPMAX_U2_M1_T7  -170
    Z_U2_M1_T7  CAPMIN_U2_M1_T7  -51
    MARK3510  'MARKER'                 'INTEND'
    MARK3520  'MARKER'                 'INTORG'
    Z_U2_M2_T7  NET_COST  119
    Z_U2_M2_T7  MODE_U2_T7  1
    Z_U2_M2_T7  CAPMAX_U2_M2_T7  -256
    Z_U2_M2_T7  CAPMIN_U2_M2_T7  -76.8
    MARK3530  'MARKER'                 'INTEND'
    MARK3540  'MARKER'                 'INTORG'
    Z_U3_M0_T7  NET_COST  255
    Z_U3_M0_T7  MODE_U3_T7  1
    Z_U3_M0_T7  CAPMAX_U3_M0_T7  -175
    Z_U3_M0_T7  CAPMIN_U3_M0_T7  -52.5
    MARK3550  'MARKER'                 'INTEND'
    MARK3560  'MARKER'                 'INTORG'
    Z_U3_M1_T7  NET_COST  165
    Z_U3_M1_T7  MODE_U3_T7  1
    Z_U3_M1_T7  CAPMAX_U3_M1_T7  -300
    Z_U3_M1_T7  CAPMIN_U3_M1_T7  -90
    MARK3570  'MARKER'                 'INTEND'
    MARK3580  'MARKER'                 'INTORG'
    Z_U3_M2_T7  NET_COST  109
    Z_U3_M2_T7  MODE_U3_T7  1
    Z_U3_M2_T7  CAPMAX_U3_M2_T7  -335
    Z_U3_M2_T7  CAPMIN_U3_M2_T7  -100.5
    MARK3590  'MARKER'                 'INTEND'
    MARK3600  'MARKER'                 'INTORG'
    Z_U4_M0_T7  NET_COST  183
    Z_U4_M0_T7  MODE_U4_T7  1
    Z_U4_M0_T7  CAPMAX_U4_M0_T7  -210
    Z_U4_M0_T7  CAPMIN_U4_M0_T7  -63
    MARK3610  'MARKER'                 'INTEND'
    MARK3620  'MARKER'                 'INTORG'
    Z_U4_M1_T7  NET_COST  240
    Z_U4_M1_T7  MODE_U4_T7  1
    Z_U4_M1_T7  CAPMAX_U4_M1_T7  -242
    Z_U4_M1_T7  CAPMIN_U4_M1_T7  -72.6
    MARK3630  'MARKER'                 'INTEND'
    MARK3640  'MARKER'                 'INTORG'
    Z_U4_M2_T7  NET_COST  198
    Z_U4_M2_T7  MODE_U4_T7  1
    Z_U4_M2_T7  CAPMAX_U4_M2_T7  -192
    Z_U4_M2_T7  CAPMIN_U4_M2_T7  -57.6
    MARK3650  'MARKER'                 'INTEND'
    MARK3660  'MARKER'                 'INTORG'
    Z_U5_M0_T7  NET_COST  199
    Z_U5_M0_T7  MODE_U5_T7  1
    Z_U5_M0_T7  CAPMAX_U5_M0_T7  -227
    Z_U5_M0_T7  CAPMIN_U5_M0_T7  -68.1
    MARK3670  'MARKER'                 'INTEND'
    MARK3680  'MARKER'                 'INTORG'
    Z_U5_M1_T7  NET_COST  183
    Z_U5_M1_T7  MODE_U5_T7  1
    Z_U5_M1_T7  CAPMAX_U5_M1_T7  -237
    Z_U5_M1_T7  CAPMIN_U5_M1_T7  -71.1
    MARK3690  'MARKER'                 'INTEND'
    MARK3700  'MARKER'                 'INTORG'
    Z_U5_M2_T7  NET_COST  115
    Z_U5_M2_T7  MODE_U5_T7  1
    Z_U5_M2_T7  CAPMAX_U5_M2_T7  -314
    Z_U5_M2_T7  CAPMIN_U5_M2_T7  -94.2
    MARK3710  'MARKER'                 'INTEND'
    MARK3720  'MARKER'                 'INTORG'
    Z_U6_M0_T7  NET_COST  189
    Z_U6_M0_T7  MODE_U6_T7  1
    Z_U6_M0_T7  CAPMAX_U6_M0_T7  -349
    Z_U6_M0_T7  CAPMIN_U6_M0_T7  -104.7
    MARK3730  'MARKER'                 'INTEND'
    MARK3740  'MARKER'                 'INTORG'
    Z_U6_M1_T7  NET_COST  224
    Z_U6_M1_T7  MODE_U6_T7  1
    Z_U6_M1_T7  CAPMAX_U6_M1_T7  -265
    Z_U6_M1_T7  CAPMIN_U6_M1_T7  -79.5
    MARK3750  'MARKER'                 'INTEND'
    MARK3760  'MARKER'                 'INTORG'
    Z_U6_M2_T7  NET_COST  195
    Z_U6_M2_T7  MODE_U6_T7  1
    Z_U6_M2_T7  CAPMAX_U6_M2_T7  -315
    Z_U6_M2_T7  CAPMIN_U6_M2_T7  -94.5
    MARK3770  'MARKER'                 'INTEND'
    MARK3780  'MARKER'                 'INTORG'
    Z_U7_M0_T7  NET_COST  189
    Z_U7_M0_T7  MODE_U7_T7  1
    Z_U7_M0_T7  CAPMAX_U7_M0_T7  -212
    Z_U7_M0_T7  CAPMIN_U7_M0_T7  -63.6
    MARK3790  'MARKER'                 'INTEND'
    MARK3800  'MARKER'                 'INTORG'
    Z_U7_M1_T7  NET_COST  205
    Z_U7_M1_T7  MODE_U7_T7  1
    Z_U7_M1_T7  CAPMAX_U7_M1_T7  -223
    Z_U7_M1_T7  CAPMIN_U7_M1_T7  -66.9
    MARK3810  'MARKER'                 'INTEND'
    MARK3820  'MARKER'                 'INTORG'
    Z_U7_M2_T7  NET_COST  161
    Z_U7_M2_T7  MODE_U7_T7  1
    Z_U7_M2_T7  CAPMAX_U7_M2_T7  -287
    Z_U7_M2_T7  CAPMIN_U7_M2_T7  -86.1
    MARK3830  'MARKER'                 'INTEND'
    X_U0_M0_T7  NET_COST  33.9
    X_U0_M0_T7  CAPMAX_U0_M0_T7  1
    X_U0_M0_T7  CAPMIN_U0_M0_T7  1
    X_U0_M0_T7  MBAL_U0_T7  -0.9
    X_U0_M1_T7  NET_COST  18.4
    X_U0_M1_T7  CAPMAX_U0_M1_T7  1
    X_U0_M1_T7  CAPMIN_U0_M1_T7  1
    X_U0_M1_T7  MBAL_U0_T7  -0.9
    X_U0_M2_T7  NET_COST  29.4
    X_U0_M2_T7  CAPMAX_U0_M2_T7  1
    X_U0_M2_T7  CAPMIN_U0_M2_T7  1
    X_U0_M2_T7  MBAL_U0_T7  -0.9
    X_U1_M0_T7  NET_COST  24.8
    X_U1_M0_T7  CAPMAX_U1_M0_T7  1
    X_U1_M0_T7  CAPMIN_U1_M0_T7  1
    X_U1_M0_T7  MBAL_U0_T7  1
    X_U1_M0_T7  MBAL_U1_T7  -0.9
    X_U1_M1_T7  NET_COST  32.1
    X_U1_M1_T7  CAPMAX_U1_M1_T7  1
    X_U1_M1_T7  CAPMIN_U1_M1_T7  1
    X_U1_M1_T7  MBAL_U0_T7  1
    X_U1_M1_T7  MBAL_U1_T7  -0.9
    X_U1_M2_T7  NET_COST  38.6
    X_U1_M2_T7  CAPMAX_U1_M2_T7  1
    X_U1_M2_T7  CAPMIN_U1_M2_T7  1
    X_U1_M2_T7  MBAL_U0_T7  1
    X_U1_M2_T7  MBAL_U1_T7  -0.9
    X_U2_M0_T7  NET_COST  16.2
    X_U2_M0_T7  CAPMAX_U2_M0_T7  1
    X_U2_M0_T7  CAPMIN_U2_M0_T7  1
    X_U2_M0_T7  MBAL_U1_T7  1
    X_U2_M0_T7  MBAL_U2_T7  -0.9
    X_U2_M1_T7  NET_COST  18.7
    X_U2_M1_T7  CAPMAX_U2_M1_T7  1
    X_U2_M1_T7  CAPMIN_U2_M1_T7  1
    X_U2_M1_T7  MBAL_U1_T7  1
    X_U2_M1_T7  MBAL_U2_T7  -0.9
    X_U2_M2_T7  NET_COST  18.6
    X_U2_M2_T7  CAPMAX_U2_M2_T7  1
    X_U2_M2_T7  CAPMIN_U2_M2_T7  1
    X_U2_M2_T7  MBAL_U1_T7  1
    X_U2_M2_T7  MBAL_U2_T7  -0.9
    X_U3_M0_T7  NET_COST  26.2
    X_U3_M0_T7  CAPMAX_U3_M0_T7  1
    X_U3_M0_T7  CAPMIN_U3_M0_T7  1
    X_U3_M0_T7  MBAL_U2_T7  1
    X_U3_M0_T7  MBAL_U3_T7  -0.9
    X_U3_M1_T7  NET_COST  33.6
    X_U3_M1_T7  CAPMAX_U3_M1_T7  1
    X_U3_M1_T7  CAPMIN_U3_M1_T7  1
    X_U3_M1_T7  MBAL_U2_T7  1
    X_U3_M1_T7  MBAL_U3_T7  -0.9
    X_U3_M2_T7  NET_COST  35.1
    X_U3_M2_T7  CAPMAX_U3_M2_T7  1
    X_U3_M2_T7  CAPMIN_U3_M2_T7  1
    X_U3_M2_T7  MBAL_U2_T7  1
    X_U3_M2_T7  MBAL_U3_T7  -0.9
    X_U4_M0_T7  NET_COST  33.6
    X_U4_M0_T7  CAPMAX_U4_M0_T7  1
    X_U4_M0_T7  CAPMIN_U4_M0_T7  1
    X_U4_M0_T7  MBAL_U3_T7  1
    X_U4_M0_T7  MBAL_U4_T7  -0.9
    X_U4_M1_T7  NET_COST  15.5
    X_U4_M1_T7  CAPMAX_U4_M1_T7  1
    X_U4_M1_T7  CAPMIN_U4_M1_T7  1
    X_U4_M1_T7  MBAL_U3_T7  1
    X_U4_M1_T7  MBAL_U4_T7  -0.9
    X_U4_M2_T7  NET_COST  28.4
    X_U4_M2_T7  CAPMAX_U4_M2_T7  1
    X_U4_M2_T7  CAPMIN_U4_M2_T7  1
    X_U4_M2_T7  MBAL_U3_T7  1
    X_U4_M2_T7  MBAL_U4_T7  -0.9
    X_U5_M0_T7  NET_COST  30.2
    X_U5_M0_T7  CAPMAX_U5_M0_T7  1
    X_U5_M0_T7  CAPMIN_U5_M0_T7  1
    X_U5_M0_T7  MBAL_U4_T7  1
    X_U5_M0_T7  MBAL_U5_T7  -0.9
    X_U5_M1_T7  NET_COST  31.7
    X_U5_M1_T7  CAPMAX_U5_M1_T7  1
    X_U5_M1_T7  CAPMIN_U5_M1_T7  1
    X_U5_M1_T7  MBAL_U4_T7  1
    X_U5_M1_T7  MBAL_U5_T7  -0.9
    X_U5_M2_T7  NET_COST  17.3
    X_U5_M2_T7  CAPMAX_U5_M2_T7  1
    X_U5_M2_T7  CAPMIN_U5_M2_T7  1
    X_U5_M2_T7  MBAL_U4_T7  1
    X_U5_M2_T7  MBAL_U5_T7  -0.9
    X_U6_M0_T7  NET_COST  26.9
    X_U6_M0_T7  CAPMAX_U6_M0_T7  1
    X_U6_M0_T7  CAPMIN_U6_M0_T7  1
    X_U6_M0_T7  MBAL_U5_T7  1
    X_U6_M0_T7  MBAL_U6_T7  -0.9
    X_U6_M1_T7  NET_COST  29.9
    X_U6_M1_T7  CAPMAX_U6_M1_T7  1
    X_U6_M1_T7  CAPMIN_U6_M1_T7  1
    X_U6_M1_T7  MBAL_U5_T7  1
    X_U6_M1_T7  MBAL_U6_T7  -0.9
    X_U6_M2_T7  NET_COST  36.5
    X_U6_M2_T7  CAPMAX_U6_M2_T7  1
    X_U6_M2_T7  CAPMIN_U6_M2_T7  1
    X_U6_M2_T7  MBAL_U5_T7  1
    X_U6_M2_T7  MBAL_U6_T7  -0.9
    X_U7_M0_T7  NET_COST  -67.7
    X_U7_M0_T7  CAPMAX_U7_M0_T7  1
    X_U7_M0_T7  CAPMIN_U7_M0_T7  1
    X_U7_M0_T7  MBAL_U6_T7  1
    X_U7_M0_T7  DEMAND_T7  1
    X_U7_M1_T7  NET_COST  -72.6
    X_U7_M1_T7  CAPMAX_U7_M1_T7  1
    X_U7_M1_T7  CAPMIN_U7_M1_T7  1
    X_U7_M1_T7  MBAL_U6_T7  1
    X_U7_M1_T7  DEMAND_T7  1
    X_U7_M2_T7  NET_COST  -60.9
    X_U7_M2_T7  CAPMAX_U7_M2_T7  1
    X_U7_M2_T7  CAPMIN_U7_M2_T7  1
    X_U7_M2_T7  MBAL_U6_T7  1
    X_U7_M2_T7  DEMAND_T7  1
    S_U0_T7   NET_COST  2
    S_U0_T7   MBAL_U0_T7  1
    S_U0_T7   MBAL_U0_T8  -1
    S_U1_T7   NET_COST  2
    S_U1_T7   MBAL_U1_T7  1
    S_U1_T7   MBAL_U1_T8  -1
    S_U2_T7   NET_COST  2
    S_U2_T7   MBAL_U2_T7  1
    S_U2_T7   MBAL_U2_T8  -1
    S_U3_T7   NET_COST  2
    S_U3_T7   MBAL_U3_T7  1
    S_U3_T7   MBAL_U3_T8  -1
    S_U4_T7   NET_COST  2
    S_U4_T7   MBAL_U4_T7  1
    S_U4_T7   MBAL_U4_T8  -1
    S_U5_T7   NET_COST  2
    S_U5_T7   MBAL_U5_T7  1
    S_U5_T7   MBAL_U5_T8  -1
    S_U6_T7   NET_COST  2
    S_U6_T7   MBAL_U6_T7  1
    S_U6_T7   MBAL_U6_T8  -1
    S_U7_T7   NET_COST  2
    MARK3840  'MARKER'                 'INTORG'
    Z_U0_M0_T8  NET_COST  228
    Z_U0_M0_T8  MODE_U0_T8  1
    Z_U0_M0_T8  CAPMAX_U0_M0_T8  -300
    Z_U0_M0_T8  CAPMIN_U0_M0_T8  -90
    MARK3850  'MARKER'                 'INTEND'
    MARK3860  'MARKER'                 'INTORG'
    Z_U0_M1_T8  NET_COST  281
    Z_U0_M1_T8  MODE_U0_T8  1
    Z_U0_M1_T8  CAPMAX_U0_M1_T8  -169
    Z_U0_M1_T8  CAPMIN_U0_M1_T8  -50.7
    MARK3870  'MARKER'                 'INTEND'
    MARK3880  'MARKER'                 'INTORG'
    Z_U0_M2_T8  NET_COST  175
    Z_U0_M2_T8  MODE_U0_T8  1
    Z_U0_M2_T8  CAPMAX_U0_M2_T8  -205
    Z_U0_M2_T8  CAPMIN_U0_M2_T8  -61.5
    MARK3890  'MARKER'                 'INTEND'
    MARK3900  'MARKER'                 'INTORG'
    Z_U1_M0_T8  NET_COST  102
    Z_U1_M0_T8  MODE_U1_T8  1
    Z_U1_M0_T8  CAPMAX_U1_M0_T8  -255
    Z_U1_M0_T8  CAPMIN_U1_M0_T8  -76.5
    MARK3910  'MARKER'                 'INTEND'
    MARK3920  'MARKER'                 'INTORG'
    Z_U1_M1_T8  NET_COST  227
    Z_U1_M1_T8  MODE_U1_T8  1
    Z_U1_M1_T8  CAPMAX_U1_M1_T8  -315
    Z_U1_M1_T8  CAPMIN_U1_M1_T8  -94.5
    MARK3930  'MARKER'                 'INTEND'
    MARK3940  'MARKER'                 'INTORG'
    Z_U1_M2_T8  NET_COST  251
    Z_U1_M2_T8  MODE_U1_T8  1
    Z_U1_M2_T8  CAPMAX_U1_M2_T8  -240
    Z_U1_M2_T8  CAPMIN_U1_M2_T8  -72
    MARK3950  'MARKER'                 'INTEND'
    MARK3960  'MARKER'                 'INTORG'
    Z_U2_M0_T8  NET_COST  113
    Z_U2_M0_T8  MODE_U2_T8  1
    Z_U2_M0_T8  CAPMAX_U2_M0_T8  -300
    Z_U2_M0_T8  CAPMIN_U2_M0_T8  -90
    MARK3970  'MARKER'                 'INTEND'
    MARK3980  'MARKER'                 'INTORG'
    Z_U2_M1_T8  NET_COST  185
    Z_U2_M1_T8  MODE_U2_T8  1
    Z_U2_M1_T8  CAPMAX_U2_M1_T8  -170
    Z_U2_M1_T8  CAPMIN_U2_M1_T8  -51
    MARK3990  'MARKER'                 'INTEND'
    MARK4000  'MARKER'                 'INTORG'
    Z_U2_M2_T8  NET_COST  119
    Z_U2_M2_T8  MODE_U2_T8  1
    Z_U2_M2_T8  CAPMAX_U2_M2_T8  -256
    Z_U2_M2_T8  CAPMIN_U2_M2_T8  -76.8
    MARK4010  'MARKER'                 'INTEND'
    MARK4020  'MARKER'                 'INTORG'
    Z_U3_M0_T8  NET_COST  255
    Z_U3_M0_T8  MODE_U3_T8  1
    Z_U3_M0_T8  CAPMAX_U3_M0_T8  -175
    Z_U3_M0_T8  CAPMIN_U3_M0_T8  -52.5
    MARK4030  'MARKER'                 'INTEND'
    MARK4040  'MARKER'                 'INTORG'
    Z_U3_M1_T8  NET_COST  165
    Z_U3_M1_T8  MODE_U3_T8  1
    Z_U3_M1_T8  CAPMAX_U3_M1_T8  -300
    Z_U3_M1_T8  CAPMIN_U3_M1_T8  -90
    MARK4050  'MARKER'                 'INTEND'
    MARK4060  'MARKER'                 'INTORG'
    Z_U3_M2_T8  NET_COST  109
    Z_U3_M2_T8  MODE_U3_T8  1
    Z_U3_M2_T8  CAPMAX_U3_M2_T8  -335
    Z_U3_M2_T8  CAPMIN_U3_M2_T8  -100.5
    MARK4070  'MARKER'                 'INTEND'
    MARK4080  'MARKER'                 'INTORG'
    Z_U4_M0_T8  NET_COST  183
    Z_U4_M0_T8  MODE_U4_T8  1
    Z_U4_M0_T8  CAPMAX_U4_M0_T8  -210
    Z_U4_M0_T8  CAPMIN_U4_M0_T8  -63
    MARK4090  'MARKER'                 'INTEND'
    MARK4100  'MARKER'                 'INTORG'
    Z_U4_M1_T8  NET_COST  240
    Z_U4_M1_T8  MODE_U4_T8  1
    Z_U4_M1_T8  CAPMAX_U4_M1_T8  -242
    Z_U4_M1_T8  CAPMIN_U4_M1_T8  -72.6
    MARK4110  'MARKER'                 'INTEND'
    MARK4120  'MARKER'                 'INTORG'
    Z_U4_M2_T8  NET_COST  198
    Z_U4_M2_T8  MODE_U4_T8  1
    Z_U4_M2_T8  CAPMAX_U4_M2_T8  -192
    Z_U4_M2_T8  CAPMIN_U4_M2_T8  -57.6
    MARK4130  'MARKER'                 'INTEND'
    MARK4140  'MARKER'                 'INTORG'
    Z_U5_M0_T8  NET_COST  199
    Z_U5_M0_T8  MODE_U5_T8  1
    Z_U5_M0_T8  CAPMAX_U5_M0_T8  -227
    Z_U5_M0_T8  CAPMIN_U5_M0_T8  -68.1
    MARK4150  'MARKER'                 'INTEND'
    MARK4160  'MARKER'                 'INTORG'
    Z_U5_M1_T8  NET_COST  183
    Z_U5_M1_T8  MODE_U5_T8  1
    Z_U5_M1_T8  CAPMAX_U5_M1_T8  -237
    Z_U5_M1_T8  CAPMIN_U5_M1_T8  -71.1
    MARK4170  'MARKER'                 'INTEND'
    MARK4180  'MARKER'                 'INTORG'
    Z_U5_M2_T8  NET_COST  115
    Z_U5_M2_T8  MODE_U5_T8  1
    Z_U5_M2_T8  CAPMAX_U5_M2_T8  -314
    Z_U5_M2_T8  CAPMIN_U5_M2_T8  -94.2
    MARK4190  'MARKER'                 'INTEND'
    MARK4200  'MARKER'                 'INTORG'
    Z_U6_M0_T8  NET_COST  189
    Z_U6_M0_T8  MODE_U6_T8  1
    Z_U6_M0_T8  CAPMAX_U6_M0_T8  -349
    Z_U6_M0_T8  CAPMIN_U6_M0_T8  -104.7
    MARK4210  'MARKER'                 'INTEND'
    MARK4220  'MARKER'                 'INTORG'
    Z_U6_M1_T8  NET_COST  224
    Z_U6_M1_T8  MODE_U6_T8  1
    Z_U6_M1_T8  CAPMAX_U6_M1_T8  -265
    Z_U6_M1_T8  CAPMIN_U6_M1_T8  -79.5
    MARK4230  'MARKER'                 'INTEND'
    MARK4240  'MARKER'                 'INTORG'
    Z_U6_M2_T8  NET_COST  195
    Z_U6_M2_T8  MODE_U6_T8  1
    Z_U6_M2_T8  CAPMAX_U6_M2_T8  -315
    Z_U6_M2_T8  CAPMIN_U6_M2_T8  -94.5
    MARK4250  'MARKER'                 'INTEND'
    MARK4260  'MARKER'                 'INTORG'
    Z_U7_M0_T8  NET_COST  189
    Z_U7_M0_T8  MODE_U7_T8  1
    Z_U7_M0_T8  CAPMAX_U7_M0_T8  -212
    Z_U7_M0_T8  CAPMIN_U7_M0_T8  -63.6
    MARK4270  'MARKER'                 'INTEND'
    MARK4280  'MARKER'                 'INTORG'
    Z_U7_M1_T8  NET_COST  205
    Z_U7_M1_T8  MODE_U7_T8  1
    Z_U7_M1_T8  CAPMAX_U7_M1_T8  -223
    Z_U7_M1_T8  CAPMIN_U7_M1_T8  -66.9
    MARK4290  'MARKER'                 'INTEND'
    MARK4300  'MARKER'                 'INTORG'
    Z_U7_M2_T8  NET_COST  161
    Z_U7_M2_T8  MODE_U7_T8  1
    Z_U7_M2_T8  CAPMAX_U7_M2_T8  -287
    Z_U7_M2_T8  CAPMIN_U7_M2_T8  -86.1
    MARK4310  'MARKER'                 'INTEND'
    X_U0_M0_T8  NET_COST  33.9
    X_U0_M0_T8  CAPMAX_U0_M0_T8  1
    X_U0_M0_T8  CAPMIN_U0_M0_T8  1
    X_U0_M0_T8  MBAL_U0_T8  -0.9
    X_U0_M1_T8  NET_COST  18.4
    X_U0_M1_T8  CAPMAX_U0_M1_T8  1
    X_U0_M1_T8  CAPMIN_U0_M1_T8  1
    X_U0_M1_T8  MBAL_U0_T8  -0.9
    X_U0_M2_T8  NET_COST  29.4
    X_U0_M2_T8  CAPMAX_U0_M2_T8  1
    X_U0_M2_T8  CAPMIN_U0_M2_T8  1
    X_U0_M2_T8  MBAL_U0_T8  -0.9
    X_U1_M0_T8  NET_COST  24.8
    X_U1_M0_T8  CAPMAX_U1_M0_T8  1
    X_U1_M0_T8  CAPMIN_U1_M0_T8  1
    X_U1_M0_T8  MBAL_U0_T8  1
    X_U1_M0_T8  MBAL_U1_T8  -0.9
    X_U1_M1_T8  NET_COST  32.1
    X_U1_M1_T8  CAPMAX_U1_M1_T8  1
    X_U1_M1_T8  CAPMIN_U1_M1_T8  1
    X_U1_M1_T8  MBAL_U0_T8  1
    X_U1_M1_T8  MBAL_U1_T8  -0.9
    X_U1_M2_T8  NET_COST  38.6
    X_U1_M2_T8  CAPMAX_U1_M2_T8  1
    X_U1_M2_T8  CAPMIN_U1_M2_T8  1
    X_U1_M2_T8  MBAL_U0_T8  1
    X_U1_M2_T8  MBAL_U1_T8  -0.9
    X_U2_M0_T8  NET_COST  16.2
    X_U2_M0_T8  CAPMAX_U2_M0_T8  1
    X_U2_M0_T8  CAPMIN_U2_M0_T8  1
    X_U2_M0_T8  MBAL_U1_T8  1
    X_U2_M0_T8  MBAL_U2_T8  -0.9
    X_U2_M1_T8  NET_COST  18.7
    X_U2_M1_T8  CAPMAX_U2_M1_T8  1
    X_U2_M1_T8  CAPMIN_U2_M1_T8  1
    X_U2_M1_T8  MBAL_U1_T8  1
    X_U2_M1_T8  MBAL_U2_T8  -0.9
    X_U2_M2_T8  NET_COST  18.6
    X_U2_M2_T8  CAPMAX_U2_M2_T8  1
    X_U2_M2_T8  CAPMIN_U2_M2_T8  1
    X_U2_M2_T8  MBAL_U1_T8  1
    X_U2_M2_T8  MBAL_U2_T8  -0.9
    X_U3_M0_T8  NET_COST  26.2
    X_U3_M0_T8  CAPMAX_U3_M0_T8  1
    X_U3_M0_T8  CAPMIN_U3_M0_T8  1
    X_U3_M0_T8  MBAL_U2_T8  1
    X_U3_M0_T8  MBAL_U3_T8  -0.9
    X_U3_M1_T8  NET_COST  33.6
    X_U3_M1_T8  CAPMAX_U3_M1_T8  1
    X_U3_M1_T8  CAPMIN_U3_M1_T8  1
    X_U3_M1_T8  MBAL_U2_T8  1
    X_U3_M1_T8  MBAL_U3_T8  -0.9
    X_U3_M2_T8  NET_COST  35.1
    X_U3_M2_T8  CAPMAX_U3_M2_T8  1
    X_U3_M2_T8  CAPMIN_U3_M2_T8  1
    X_U3_M2_T8  MBAL_U2_T8  1
    X_U3_M2_T8  MBAL_U3_T8  -0.9
    X_U4_M0_T8  NET_COST  33.6
    X_U4_M0_T8  CAPMAX_U4_M0_T8  1
    X_U4_M0_T8  CAPMIN_U4_M0_T8  1
    X_U4_M0_T8  MBAL_U3_T8  1
    X_U4_M0_T8  MBAL_U4_T8  -0.9
    X_U4_M1_T8  NET_COST  15.5
    X_U4_M1_T8  CAPMAX_U4_M1_T8  1
    X_U4_M1_T8  CAPMIN_U4_M1_T8  1
    X_U4_M1_T8  MBAL_U3_T8  1
    X_U4_M1_T8  MBAL_U4_T8  -0.9
    X_U4_M2_T8  NET_COST  28.4
    X_U4_M2_T8  CAPMAX_U4_M2_T8  1
    X_U4_M2_T8  CAPMIN_U4_M2_T8  1
    X_U4_M2_T8  MBAL_U3_T8  1
    X_U4_M2_T8  MBAL_U4_T8  -0.9
    X_U5_M0_T8  NET_COST  30.2
    X_U5_M0_T8  CAPMAX_U5_M0_T8  1
    X_U5_M0_T8  CAPMIN_U5_M0_T8  1
    X_U5_M0_T8  MBAL_U4_T8  1
    X_U5_M0_T8  MBAL_U5_T8  -0.9
    X_U5_M1_T8  NET_COST  31.7
    X_U5_M1_T8  CAPMAX_U5_M1_T8  1
    X_U5_M1_T8  CAPMIN_U5_M1_T8  1
    X_U5_M1_T8  MBAL_U4_T8  1
    X_U5_M1_T8  MBAL_U5_T8  -0.9
    X_U5_M2_T8  NET_COST  17.3
    X_U5_M2_T8  CAPMAX_U5_M2_T8  1
    X_U5_M2_T8  CAPMIN_U5_M2_T8  1
    X_U5_M2_T8  MBAL_U4_T8  1
    X_U5_M2_T8  MBAL_U5_T8  -0.9
    X_U6_M0_T8  NET_COST  26.9
    X_U6_M0_T8  CAPMAX_U6_M0_T8  1
    X_U6_M0_T8  CAPMIN_U6_M0_T8  1
    X_U6_M0_T8  MBAL_U5_T8  1
    X_U6_M0_T8  MBAL_U6_T8  -0.9
    X_U6_M1_T8  NET_COST  29.9
    X_U6_M1_T8  CAPMAX_U6_M1_T8  1
    X_U6_M1_T8  CAPMIN_U6_M1_T8  1
    X_U6_M1_T8  MBAL_U5_T8  1
    X_U6_M1_T8  MBAL_U6_T8  -0.9
    X_U6_M2_T8  NET_COST  36.5
    X_U6_M2_T8  CAPMAX_U6_M2_T8  1
    X_U6_M2_T8  CAPMIN_U6_M2_T8  1
    X_U6_M2_T8  MBAL_U5_T8  1
    X_U6_M2_T8  MBAL_U6_T8  -0.9
    X_U7_M0_T8  NET_COST  -67.7
    X_U7_M0_T8  CAPMAX_U7_M0_T8  1
    X_U7_M0_T8  CAPMIN_U7_M0_T8  1
    X_U7_M0_T8  MBAL_U6_T8  1
    X_U7_M0_T8  DEMAND_T8  1
    X_U7_M1_T8  NET_COST  -72.6
    X_U7_M1_T8  CAPMAX_U7_M1_T8  1
    X_U7_M1_T8  CAPMIN_U7_M1_T8  1
    X_U7_M1_T8  MBAL_U6_T8  1
    X_U7_M1_T8  DEMAND_T8  1
    X_U7_M2_T8  NET_COST  -60.9
    X_U7_M2_T8  CAPMAX_U7_M2_T8  1
    X_U7_M2_T8  CAPMIN_U7_M2_T8  1
    X_U7_M2_T8  MBAL_U6_T8  1
    X_U7_M2_T8  DEMAND_T8  1
    S_U0_T8   NET_COST  2
    S_U0_T8   MBAL_U0_T8  1
    S_U0_T8   MBAL_U0_T9  -1
    S_U1_T8   NET_COST  2
    S_U1_T8   MBAL_U1_T8  1
    S_U1_T8   MBAL_U1_T9  -1
    S_U2_T8   NET_COST  2
    S_U2_T8   MBAL_U2_T8  1
    S_U2_T8   MBAL_U2_T9  -1
    S_U3_T8   NET_COST  2
    S_U3_T8   MBAL_U3_T8  1
    S_U3_T8   MBAL_U3_T9  -1
    S_U4_T8   NET_COST  2
    S_U4_T8   MBAL_U4_T8  1
    S_U4_T8   MBAL_U4_T9  -1
    S_U5_T8   NET_COST  2
    S_U5_T8   MBAL_U5_T8  1
    S_U5_T8   MBAL_U5_T9  -1
    S_U6_T8   NET_COST  2
    S_U6_T8   MBAL_U6_T8  1
    S_U6_T8   MBAL_U6_T9  -1
    S_U7_T8   NET_COST  2
    MARK4320  'MARKER'                 'INTORG'
    Z_U0_M0_T9  NET_COST  228
    Z_U0_M0_T9  MODE_U0_T9  1
    Z_U0_M0_T9  CAPMAX_U0_M0_T9  -300
    Z_U0_M0_T9  CAPMIN_U0_M0_T9  -90
    MARK4330  'MARKER'                 'INTEND'
    MARK4340  'MARKER'                 'INTORG'
    Z_U0_M1_T9  NET_COST  281
    Z_U0_M1_T9  MODE_U0_T9  1
    Z_U0_M1_T9  CAPMAX_U0_M1_T9  -169
    Z_U0_M1_T9  CAPMIN_U0_M1_T9  -50.7
    MARK4350  'MARKER'                 'INTEND'
    MARK4360  'MARKER'                 'INTORG'
    Z_U0_M2_T9  NET_COST  175
    Z_U0_M2_T9  MODE_U0_T9  1
    Z_U0_M2_T9  CAPMAX_U0_M2_T9  -205
    Z_U0_M2_T9  CAPMIN_U0_M2_T9  -61.5
    MARK4370  'MARKER'                 'INTEND'
    MARK4380  'MARKER'                 'INTORG'
    Z_U1_M0_T9  NET_COST  102
    Z_U1_M0_T9  MODE_U1_T9  1
    Z_U1_M0_T9  CAPMAX_U1_M0_T9  -255
    Z_U1_M0_T9  CAPMIN_U1_M0_T9  -76.5
    MARK4390  'MARKER'                 'INTEND'
    MARK4400  'MARKER'                 'INTORG'
    Z_U1_M1_T9  NET_COST  227
    Z_U1_M1_T9  MODE_U1_T9  1
    Z_U1_M1_T9  CAPMAX_U1_M1_T9  -315
    Z_U1_M1_T9  CAPMIN_U1_M1_T9  -94.5
    MARK4410  'MARKER'                 'INTEND'
    MARK4420  'MARKER'                 'INTORG'
    Z_U1_M2_T9  NET_COST  251
    Z_U1_M2_T9  MODE_U1_T9  1
    Z_U1_M2_T9  CAPMAX_U1_M2_T9  -240
    Z_U1_M2_T9  CAPMIN_U1_M2_T9  -72
    MARK4430  'MARKER'                 'INTEND'
    MARK4440  'MARKER'                 'INTORG'
    Z_U2_M0_T9  NET_COST  113
    Z_U2_M0_T9  MODE_U2_T9  1
    Z_U2_M0_T9  CAPMAX_U2_M0_T9  -300
    Z_U2_M0_T9  CAPMIN_U2_M0_T9  -90
    MARK4450  'MARKER'                 'INTEND'
    MARK4460  'MARKER'                 'INTORG'
    Z_U2_M1_T9  NET_COST  185
    Z_U2_M1_T9  MODE_U2_T9  1
    Z_U2_M1_T9  CAPMAX_U2_M1_T9  -170
    Z_U2_M1_T9  CAPMIN_U2_M1_T9  -51
    MARK4470  'MARKER'                 'INTEND'
    MARK4480  'MARKER'                 'INTORG'
    Z_U2_M2_T9  NET_COST  119
    Z_U2_M2_T9  MODE_U2_T9  1
    Z_U2_M2_T9  CAPMAX_U2_M2_T9  -256
    Z_U2_M2_T9  CAPMIN_U2_M2_T9  -76.8
    MARK4490  'MARKER'                 'INTEND'
    MARK4500  'MARKER'                 'INTORG'
    Z_U3_M0_T9  NET_COST  255
    Z_U3_M0_T9  MODE_U3_T9  1
    Z_U3_M0_T9  CAPMAX_U3_M0_T9  -175
    Z_U3_M0_T9  CAPMIN_U3_M0_T9  -52.5
    MARK4510  'MARKER'                 'INTEND'
    MARK4520  'MARKER'                 'INTORG'
    Z_U3_M1_T9  NET_COST  165
    Z_U3_M1_T9  MODE_U3_T9  1
    Z_U3_M1_T9  CAPMAX_U3_M1_T9  -300
    Z_U3_M1_T9  CAPMIN_U3_M1_T9  -90
    MARK4530  'MARKER'                 'INTEND'
    MARK4540  'MARKER'                 'INTORG'
    Z_U3_M2_T9  NET_COST  109
    Z_U3_M2_T9  MODE_U3_T9  1
    Z_U3_M2_T9  CAPMAX_U3_M2_T9  -335
    Z_U3_M2_T9  CAPMIN_U3_M2_T9  -100.5
    MARK4550  'MARKER'                 'INTEND'
    MARK4560  'MARKER'                 'INTORG'
    Z_U4_M0_T9  NET_COST  183
    Z_U4_M0_T9  MODE_U4_T9  1
    Z_U4_M0_T9  CAPMAX_U4_M0_T9  -210
    Z_U4_M0_T9  CAPMIN_U4_M0_T9  -63
    MARK4570  'MARKER'                 'INTEND'
    MARK4580  'MARKER'                 'INTORG'
    Z_U4_M1_T9  NET_COST  240
    Z_U4_M1_T9  MODE_U4_T9  1
    Z_U4_M1_T9  CAPMAX_U4_M1_T9  -242
    Z_U4_M1_T9  CAPMIN_U4_M1_T9  -72.6
    MARK4590  'MARKER'                 'INTEND'
    MARK4600  'MARKER'                 'INTORG'
    Z_U4_M2_T9  NET_COST  198
    Z_U4_M2_T9  MODE_U4_T9  1
    Z_U4_M2_T9  CAPMAX_U4_M2_T9  -192
    Z_U4_M2_T9  CAPMIN_U4_M2_T9  -57.6
    MARK4610  'MARKER'                 'INTEND'
    MARK4620  'MARKER'                 'INTORG'
    Z_U5_M0_T9  NET_COST  199
    Z_U5_M0_T9  MODE_U5_T9  1
    Z_U5_M0_T9  CAPMAX_U5_M0_T9  -227
    Z_U5_M0_T9  CAPMIN_U5_M0_T9  -68.1
    MARK4630  'MARKER'                 'INTEND'
    MARK4640  'MARKER'                 'INTORG'
    Z_U5_M1_T9  NET_COST  183
    Z_U5_M1_T9  MODE_U5_T9  1
    Z_U5_M1_T9  CAPMAX_U5_M1_T9  -237
    Z_U5_M1_T9  CAPMIN_U5_M1_T9  -71.1
    MARK4650  'MARKER'                 'INTEND'
    MARK4660  'MARKER'                 'INTORG'
    Z_U5_M2_T9  NET_COST  115
    Z_U5_M2_T9  MODE_U5_T9  1
    Z_U5_M2_T9  CAPMAX_U5_M2_T9  -314
    Z_U5_M2_T9  CAPMIN_U5_M2_T9  -94.2
    MARK4670  'MARKER'                 'INTEND'
    MARK4680  'MARKER'                 'INTORG'
    Z_U6_M0_T9  NET_COST  189
    Z_U6_M0_T9  MODE_U6_T9  1
    Z_U6_M0_T9  CAPMAX_U6_M0_T9  -349
    Z_U6_M0_T9  CAPMIN_U6_M0_T9  -104.7
    MARK4690  'MARKER'                 'INTEND'
    MARK4700  'MARKER'                 'INTORG'
    Z_U6_M1_T9  NET_COST  224
    Z_U6_M1_T9  MODE_U6_T9  1
    Z_U6_M1_T9  CAPMAX_U6_M1_T9  -265
    Z_U6_M1_T9  CAPMIN_U6_M1_T9  -79.5
    MARK4710  'MARKER'                 'INTEND'
    MARK4720  'MARKER'                 'INTORG'
    Z_U6_M2_T9  NET_COST  195
    Z_U6_M2_T9  MODE_U6_T9  1
    Z_U6_M2_T9  CAPMAX_U6_M2_T9  -315
    Z_U6_M2_T9  CAPMIN_U6_M2_T9  -94.5
    MARK4730  'MARKER'                 'INTEND'
    MARK4740  'MARKER'                 'INTORG'
    Z_U7_M0_T9  NET_COST  189
    Z_U7_M0_T9  MODE_U7_T9  1
    Z_U7_M0_T9  CAPMAX_U7_M0_T9  -212
    Z_U7_M0_T9  CAPMIN_U7_M0_T9  -63.6
    MARK4750  'MARKER'                 'INTEND'
    MARK4760  'MARKER'                 'INTORG'
    Z_U7_M1_T9  NET_COST  205
    Z_U7_M1_T9  MODE_U7_T9  1
    Z_U7_M1_T9  CAPMAX_U7_M1_T9  -223
    Z_U7_M1_T9  CAPMIN_U7_M1_T9  -66.9
    MARK4770  'MARKER'                 'INTEND'
    MARK4780  'MARKER'                 'INTORG'
    Z_U7_M2_T9  NET_COST  161
    Z_U7_M2_T9  MODE_U7_T9  1
    Z_U7_M2_T9  CAPMAX_U7_M2_T9  -287
    Z_U7_M2_T9  CAPMIN_U7_M2_T9  -86.1
    MARK4790  'MARKER'                 'INTEND'
    X_U0_M0_T9  NET_COST  33.9
    X_U0_M0_T9  CAPMAX_U0_M0_T9  1
    X_U0_M0_T9  CAPMIN_U0_M0_T9  1
    X_U0_M0_T9  MBAL_U0_T9  -0.9
    X_U0_M1_T9  NET_COST  18.4
    X_U0_M1_T9  CAPMAX_U0_M1_T9  1
    X_U0_M1_T9  CAPMIN_U0_M1_T9  1
    X_U0_M1_T9  MBAL_U0_T9  -0.9
    X_U0_M2_T9  NET_COST  29.4
    X_U0_M2_T9  CAPMAX_U0_M2_T9  1
    X_U0_M2_T9  CAPMIN_U0_M2_T9  1
    X_U0_M2_T9  MBAL_U0_T9  -0.9
    X_U1_M0_T9  NET_COST  24.8
    X_U1_M0_T9  CAPMAX_U1_M0_T9  1
    X_U1_M0_T9  CAPMIN_U1_M0_T9  1
    X_U1_M0_T9  MBAL_U0_T9  1
    X_U1_M0_T9  MBAL_U1_T9  -0.9
    X_U1_M1_T9  NET_COST  32.1
    X_U1_M1_T9  CAPMAX_U1_M1_T9  1
    X_U1_M1_T9  CAPMIN_U1_M1_T9  1
    X_U1_M1_T9  MBAL_U0_T9  1
    X_U1_M1_T9  MBAL_U1_T9  -0.9
    X_U1_M2_T9  NET_COST  38.6
    X_U1_M2_T9  CAPMAX_U1_M2_T9  1
    X_U1_M2_T9  CAPMIN_U1_M2_T9  1
    X_U1_M2_T9  MBAL_U0_T9  1
    X_U1_M2_T9  MBAL_U1_T9  -0.9
    X_U2_M0_T9  NET_COST  16.2
    X_U2_M0_T9  CAPMAX_U2_M0_T9  1
    X_U2_M0_T9  CAPMIN_U2_M0_T9  1
    X_U2_M0_T9  MBAL_U1_T9  1
    X_U2_M0_T9  MBAL_U2_T9  -0.9
    X_U2_M1_T9  NET_COST  18.7
    X_U2_M1_T9  CAPMAX_U2_M1_T9  1
    X_U2_M1_T9  CAPMIN_U2_M1_T9  1
    X_U2_M1_T9  MBAL_U1_T9  1
    X_U2_M1_T9  MBAL_U2_T9  -0.9
    X_U2_M2_T9  NET_COST  18.6
    X_U2_M2_T9  CAPMAX_U2_M2_T9  1
    X_U2_M2_T9  CAPMIN_U2_M2_T9  1
    X_U2_M2_T9  MBAL_U1_T9  1
    X_U2_M2_T9  MBAL_U2_T9  -0.9
    X_U3_M0_T9  NET_COST  26.2
    X_U3_M0_T9  CAPMAX_U3_M0_T9  1
    X_U3_M0_T9  CAPMIN_U3_M0_T9  1
    X_U3_M0_T9  MBAL_U2_T9  1
    X_U3_M0_T9  MBAL_U3_T9  -0.9
    X_U3_M1_T9  NET_COST  33.6
    X_U3_M1_T9  CAPMAX_U3_M1_T9  1
    X_U3_M1_T9  CAPMIN_U3_M1_T9  1
    X_U3_M1_T9  MBAL_U2_T9  1
    X_U3_M1_T9  MBAL_U3_T9  -0.9
    X_U3_M2_T9  NET_COST  35.1
    X_U3_M2_T9  CAPMAX_U3_M2_T9  1
    X_U3_M2_T9  CAPMIN_U3_M2_T9  1
    X_U3_M2_T9  MBAL_U2_T9  1
    X_U3_M2_T9  MBAL_U3_T9  -0.9
    X_U4_M0_T9  NET_COST  33.6
    X_U4_M0_T9  CAPMAX_U4_M0_T9  1
    X_U4_M0_T9  CAPMIN_U4_M0_T9  1
    X_U4_M0_T9  MBAL_U3_T9  1
    X_U4_M0_T9  MBAL_U4_T9  -0.9
    X_U4_M1_T9  NET_COST  15.5
    X_U4_M1_T9  CAPMAX_U4_M1_T9  1
    X_U4_M1_T9  CAPMIN_U4_M1_T9  1
    X_U4_M1_T9  MBAL_U3_T9  1
    X_U4_M1_T9  MBAL_U4_T9  -0.9
    X_U4_M2_T9  NET_COST  28.4
    X_U4_M2_T9  CAPMAX_U4_M2_T9  1
    X_U4_M2_T9  CAPMIN_U4_M2_T9  1
    X_U4_M2_T9  MBAL_U3_T9  1
    X_U4_M2_T9  MBAL_U4_T9  -0.9
    X_U5_M0_T9  NET_COST  30.2
    X_U5_M0_T9  CAPMAX_U5_M0_T9  1
    X_U5_M0_T9  CAPMIN_U5_M0_T9  1
    X_U5_M0_T9  MBAL_U4_T9  1
    X_U5_M0_T9  MBAL_U5_T9  -0.9
    X_U5_M1_T9  NET_COST  31.7
    X_U5_M1_T9  CAPMAX_U5_M1_T9  1
    X_U5_M1_T9  CAPMIN_U5_M1_T9  1
    X_U5_M1_T9  MBAL_U4_T9  1
    X_U5_M1_T9  MBAL_U5_T9  -0.9
    X_U5_M2_T9  NET_COST  17.3
    X_U5_M2_T9  CAPMAX_U5_M2_T9  1
    X_U5_M2_T9  CAPMIN_U5_M2_T9  1
    X_U5_M2_T9  MBAL_U4_T9  1
    X_U5_M2_T9  MBAL_U5_T9  -0.9
    X_U6_M0_T9  NET_COST  26.9
    X_U6_M0_T9  CAPMAX_U6_M0_T9  1
    X_U6_M0_T9  CAPMIN_U6_M0_T9  1
    X_U6_M0_T9  MBAL_U5_T9  1
    X_U6_M0_T9  MBAL_U6_T9  -0.9
    X_U6_M1_T9  NET_COST  29.9
    X_U6_M1_T9  CAPMAX_U6_M1_T9  1
    X_U6_M1_T9  CAPMIN_U6_M1_T9  1
    X_U6_M1_T9  MBAL_U5_T9  1
    X_U6_M1_T9  MBAL_U6_T9  -0.9
    X_U6_M2_T9  NET_COST  36.5
    X_U6_M2_T9  CAPMAX_U6_M2_T9  1
    X_U6_M2_T9  CAPMIN_U6_M2_T9  1
    X_U6_M2_T9  MBAL_U5_T9  1
    X_U6_M2_T9  MBAL_U6_T9  -0.9
    X_U7_M0_T9  NET_COST  -67.7
    X_U7_M0_T9  CAPMAX_U7_M0_T9  1
    X_U7_M0_T9  CAPMIN_U7_M0_T9  1
    X_U7_M0_T9  MBAL_U6_T9  1
    X_U7_M0_T9  DEMAND_T9  1
    X_U7_M1_T9  NET_COST  -72.6
    X_U7_M1_T9  CAPMAX_U7_M1_T9  1
    X_U7_M1_T9  CAPMIN_U7_M1_T9  1
    X_U7_M1_T9  MBAL_U6_T9  1
    X_U7_M1_T9  DEMAND_T9  1
    X_U7_M2_T9  NET_COST  -60.9
    X_U7_M2_T9  CAPMAX_U7_M2_T9  1
    X_U7_M2_T9  CAPMIN_U7_M2_T9  1
    X_U7_M2_T9  MBAL_U6_T9  1
    X_U7_M2_T9  DEMAND_T9  1
    S_U0_T9   NET_COST  2
    S_U0_T9   MBAL_U0_T9  1
    S_U0_T9   MBAL_U0_T10  -1
    S_U1_T9   NET_COST  2
    S_U1_T9   MBAL_U1_T9  1
    S_U1_T9   MBAL_U1_T10  -1
    S_U2_T9   NET_COST  2
    S_U2_T9   MBAL_U2_T9  1
    S_U2_T9   MBAL_U2_T10  -1
    S_U3_T9   NET_COST  2
    S_U3_T9   MBAL_U3_T9  1
    S_U3_T9   MBAL_U3_T10  -1
    S_U4_T9   NET_COST  2
    S_U4_T9   MBAL_U4_T9  1
    S_U4_T9   MBAL_U4_T10  -1
    S_U5_T9   NET_COST  2
    S_U5_T9   MBAL_U5_T9  1
    S_U5_T9   MBAL_U5_T10  -1
    S_U6_T9   NET_COST  2
    S_U6_T9   MBAL_U6_T9  1
    S_U6_T9   MBAL_U6_T10  -1
    S_U7_T9   NET_COST  2
    MARK4800  'MARKER'                 'INTORG'
    Z_U0_M0_T10  NET_COST  228
    Z_U0_M0_T10  MODE_U0_T10  1
    Z_U0_M0_T10  CAPMAX_U0_M0_T10  -300
    Z_U0_M0_T10  CAPMIN_U0_M0_T10  -90
    MARK4810  'MARKER'                 'INTEND'
    MARK4820  'MARKER'                 'INTORG'
    Z_U0_M1_T10  NET_COST  281
    Z_U0_M1_T10  MODE_U0_T10  1
    Z_U0_M1_T10  CAPMAX_U0_M1_T10  -169
    Z_U0_M1_T10  CAPMIN_U0_M1_T10  -50.7
    MARK4830  'MARKER'                 'INTEND'
    MARK4840  'MARKER'                 'INTORG'
    Z_U0_M2_T10  NET_COST  175
    Z_U0_M2_T10  MODE_U0_T10  1
    Z_U0_M2_T10  CAPMAX_U0_M2_T10  -205
    Z_U0_M2_T10  CAPMIN_U0_M2_T10  -61.5
    MARK4850  'MARKER'                 'INTEND'
    MARK4860  'MARKER'                 'INTORG'
    Z_U1_M0_T10  NET_COST  102
    Z_U1_M0_T10  MODE_U1_T10  1
    Z_U1_M0_T10  CAPMAX_U1_M0_T10  -255
    Z_U1_M0_T10  CAPMIN_U1_M0_T10  -76.5
    MARK4870  'MARKER'                 'INTEND'
    MARK4880  'MARKER'                 'INTORG'
    Z_U1_M1_T10  NET_COST  227
    Z_U1_M1_T10  MODE_U1_T10  1
    Z_U1_M1_T10  CAPMAX_U1_M1_T10  -315
    Z_U1_M1_T10  CAPMIN_U1_M1_T10  -94.5
    MARK4890  'MARKER'                 'INTEND'
    MARK4900  'MARKER'                 'INTORG'
    Z_U1_M2_T10  NET_COST  251
    Z_U1_M2_T10  MODE_U1_T10  1
    Z_U1_M2_T10  CAPMAX_U1_M2_T10  -240
    Z_U1_M2_T10  CAPMIN_U1_M2_T10  -72
    MARK4910  'MARKER'                 'INTEND'
    MARK4920  'MARKER'                 'INTORG'
    Z_U2_M0_T10  NET_COST  113
    Z_U2_M0_T10  MODE_U2_T10  1
    Z_U2_M0_T10  CAPMAX_U2_M0_T10  -300
    Z_U2_M0_T10  CAPMIN_U2_M0_T10  -90
    MARK4930  'MARKER'                 'INTEND'
    MARK4940  'MARKER'                 'INTORG'
    Z_U2_M1_T10  NET_COST  185
    Z_U2_M1_T10  MODE_U2_T10  1
    Z_U2_M1_T10  CAPMAX_U2_M1_T10  -170
    Z_U2_M1_T10  CAPMIN_U2_M1_T10  -51
    MARK4950  'MARKER'                 'INTEND'
    MARK4960  'MARKER'                 'INTORG'
    Z_U2_M2_T10  NET_COST  119
    Z_U2_M2_T10  MODE_U2_T10  1
    Z_U2_M2_T10  CAPMAX_U2_M2_T10  -256
    Z_U2_M2_T10  CAPMIN_U2_M2_T10  -76.8
    MARK4970  'MARKER'                 'INTEND'
    MARK4980  'MARKER'                 'INTORG'
    Z_U3_M0_T10  NET_COST  255
    Z_U3_M0_T10  MODE_U3_T10  1
    Z_U3_M0_T10  CAPMAX_U3_M0_T10  -175
    Z_U3_M0_T10  CAPMIN_U3_M0_T10  -52.5
    MARK4990  'MARKER'                 'INTEND'
    MARK5000  'MARKER'                 'INTORG'
    Z_U3_M1_T10  NET_COST  165
    Z_U3_M1_T10  MODE_U3_T10  1
    Z_U3_M1_T10  CAPMAX_U3_M1_T10  -300
    Z_U3_M1_T10  CAPMIN_U3_M1_T10  -90
    MARK5010  'MARKER'                 'INTEND'
    MARK5020  'MARKER'                 'INTORG'
    Z_U3_M2_T10  NET_COST  109
    Z_U3_M2_T10  MODE_U3_T10  1
    Z_U3_M2_T10  CAPMAX_U3_M2_T10  -335
    Z_U3_M2_T10  CAPMIN_U3_M2_T10  -100.5
    MARK5030  'MARKER'                 'INTEND'
    MARK5040  'MARKER'                 'INTORG'
    Z_U4_M0_T10  NET_COST  183
    Z_U4_M0_T10  MODE_U4_T10  1
    Z_U4_M0_T10  CAPMAX_U4_M0_T10  -210
    Z_U4_M0_T10  CAPMIN_U4_M0_T10  -63
    MARK5050  'MARKER'                 'INTEND'
    MARK5060  'MARKER'                 'INTORG'
    Z_U4_M1_T10  NET_COST  240
    Z_U4_M1_T10  MODE_U4_T10  1
    Z_U4_M1_T10  CAPMAX_U4_M1_T10  -242
    Z_U4_M1_T10  CAPMIN_U4_M1_T10  -72.6
    MARK5070  'MARKER'                 'INTEND'
    MARK5080  'MARKER'                 'INTORG'
    Z_U4_M2_T10  NET_COST  198
    Z_U4_M2_T10  MODE_U4_T10  1
    Z_U4_M2_T10  CAPMAX_U4_M2_T10  -192
    Z_U4_M2_T10  CAPMIN_U4_M2_T10  -57.6
    MARK5090  'MARKER'                 'INTEND'
    MARK5100  'MARKER'                 'INTORG'
    Z_U5_M0_T10  NET_COST  199
    Z_U5_M0_T10  MODE_U5_T10  1
    Z_U5_M0_T10  CAPMAX_U5_M0_T10  -227
    Z_U5_M0_T10  CAPMIN_U5_M0_T10  -68.1
    MARK5110  'MARKER'                 'INTEND'
    MARK5120  'MARKER'                 'INTORG'
    Z_U5_M1_T10  NET_COST  183
    Z_U5_M1_T10  MODE_U5_T10  1
    Z_U5_M1_T10  CAPMAX_U5_M1_T10  -237
    Z_U5_M1_T10  CAPMIN_U5_M1_T10  -71.1
    MARK5130  'MARKER'                 'INTEND'
    MARK5140  'MARKER'                 'INTORG'
    Z_U5_M2_T10  NET_COST  115
    Z_U5_M2_T10  MODE_U5_T10  1
    Z_U5_M2_T10  CAPMAX_U5_M2_T10  -314
    Z_U5_M2_T10  CAPMIN_U5_M2_T10  -94.2
    MARK5150  'MARKER'                 'INTEND'
    MARK5160  'MARKER'                 'INTORG'
    Z_U6_M0_T10  NET_COST  189
    Z_U6_M0_T10  MODE_U6_T10  1
    Z_U6_M0_T10  CAPMAX_U6_M0_T10  -349
    Z_U6_M0_T10  CAPMIN_U6_M0_T10  -104.7
    MARK5170  'MARKER'                 'INTEND'
    MARK5180  'MARKER'                 'INTORG'
    Z_U6_M1_T10  NET_COST  224
    Z_U6_M1_T10  MODE_U6_T10  1
    Z_U6_M1_T10  CAPMAX_U6_M1_T10  -265
    Z_U6_M1_T10  CAPMIN_U6_M1_T10  -79.5
    MARK5190  'MARKER'                 'INTEND'
    MARK5200  'MARKER'                 'INTORG'
    Z_U6_M2_T10  NET_COST  195
    Z_U6_M2_T10  MODE_U6_T10  1
    Z_U6_M2_T10  CAPMAX_U6_M2_T10  -315
    Z_U6_M2_T10  CAPMIN_U6_M2_T10  -94.5
    MARK5210  'MARKER'                 'INTEND'
    MARK5220  'MARKER'                 'INTORG'
    Z_U7_M0_T10  NET_COST  189
    Z_U7_M0_T10  MODE_U7_T10  1
    Z_U7_M0_T10  CAPMAX_U7_M0_T10  -212
    Z_U7_M0_T10  CAPMIN_U7_M0_T10  -63.6
    MARK5230  'MARKER'                 'INTEND'
    MARK5240  'MARKER'                 'INTORG'
    Z_U7_M1_T10  NET_COST  205
    Z_U7_M1_T10  MODE_U7_T10  1
    Z_U7_M1_T10  CAPMAX_U7_M1_T10  -223
    Z_U7_M1_T10  CAPMIN_U7_M1_T10  -66.9
    MARK5250  'MARKER'                 'INTEND'
    MARK5260  'MARKER'                 'INTORG'
    Z_U7_M2_T10  NET_COST  161
    Z_U7_M2_T10  MODE_U7_T10  1
    Z_U7_M2_T10  CAPMAX_U7_M2_T10  -287
    Z_U7_M2_T10  CAPMIN_U7_M2_T10  -86.1
    MARK5270  'MARKER'                 'INTEND'
    X_U0_M0_T10  NET_COST  33.9
    X_U0_M0_T10  CAPMAX_U0_M0_T10  1
    X_U0_M0_T10  CAPMIN_U0_M0_T10  1
    X_U0_M0_T10  MBAL_U0_T10  -0.9
    X_U0_M1_T10  NET_COST  18.4
    X_U0_M1_T10  CAPMAX_U0_M1_T10  1
    X_U0_M1_T10  CAPMIN_U0_M1_T10  1
    X_U0_M1_T10  MBAL_U0_T10  -0.9
    X_U0_M2_T10  NET_COST  29.4
    X_U0_M2_T10  CAPMAX_U0_M2_T10  1
    X_U0_M2_T10  CAPMIN_U0_M2_T10  1
    X_U0_M2_T10  MBAL_U0_T10  -0.9
    X_U1_M0_T10  NET_COST  24.8
    X_U1_M0_T10  CAPMAX_U1_M0_T10  1
    X_U1_M0_T10  CAPMIN_U1_M0_T10  1
    X_U1_M0_T10  MBAL_U0_T10  1
    X_U1_M0_T10  MBAL_U1_T10  -0.9
    X_U1_M1_T10  NET_COST  32.1
    X_U1_M1_T10  CAPMAX_U1_M1_T10  1
    X_U1_M1_T10  CAPMIN_U1_M1_T10  1
    X_U1_M1_T10  MBAL_U0_T10  1
    X_U1_M1_T10  MBAL_U1_T10  -0.9
    X_U1_M2_T10  NET_COST  38.6
    X_U1_M2_T10  CAPMAX_U1_M2_T10  1
    X_U1_M2_T10  CAPMIN_U1_M2_T10  1
    X_U1_M2_T10  MBAL_U0_T10  1
    X_U1_M2_T10  MBAL_U1_T10  -0.9
    X_U2_M0_T10  NET_COST  16.2
    X_U2_M0_T10  CAPMAX_U2_M0_T10  1
    X_U2_M0_T10  CAPMIN_U2_M0_T10  1
    X_U2_M0_T10  MBAL_U1_T10  1
    X_U2_M0_T10  MBAL_U2_T10  -0.9
    X_U2_M1_T10  NET_COST  18.7
    X_U2_M1_T10  CAPMAX_U2_M1_T10  1
    X_U2_M1_T10  CAPMIN_U2_M1_T10  1
    X_U2_M1_T10  MBAL_U1_T10  1
    X_U2_M1_T10  MBAL_U2_T10  -0.9
    X_U2_M2_T10  NET_COST  18.6
    X_U2_M2_T10  CAPMAX_U2_M2_T10  1
    X_U2_M2_T10  CAPMIN_U2_M2_T10  1
    X_U2_M2_T10  MBAL_U1_T10  1
    X_U2_M2_T10  MBAL_U2_T10  -0.9
    X_U3_M0_T10  NET_COST  26.2
    X_U3_M0_T10  CAPMAX_U3_M0_T10  1
    X_U3_M0_T10  CAPMIN_U3_M0_T10  1
    X_U3_M0_T10  MBAL_U2_T10  1
    X_U3_M0_T10  MBAL_U3_T10  -0.9
    X_U3_M1_T10  NET_COST  33.6
    X_U3_M1_T10  CAPMAX_U3_M1_T10  1
    X_U3_M1_T10  CAPMIN_U3_M1_T10  1
    X_U3_M1_T10  MBAL_U2_T10  1
    X_U3_M1_T10  MBAL_U3_T10  -0.9
    X_U3_M2_T10  NET_COST  35.1
    X_U3_M2_T10  CAPMAX_U3_M2_T10  1
    X_U3_M2_T10  CAPMIN_U3_M2_T10  1
    X_U3_M2_T10  MBAL_U2_T10  1
    X_U3_M2_T10  MBAL_U3_T10  -0.9
    X_U4_M0_T10  NET_COST  33.6
    X_U4_M0_T10  CAPMAX_U4_M0_T10  1
    X_U4_M0_T10  CAPMIN_U4_M0_T10  1
    X_U4_M0_T10  MBAL_U3_T10  1
    X_U4_M0_T10  MBAL_U4_T10  -0.9
    X_U4_M1_T10  NET_COST  15.5
    X_U4_M1_T10  CAPMAX_U4_M1_T10  1
    X_U4_M1_T10  CAPMIN_U4_M1_T10  1
    X_U4_M1_T10  MBAL_U3_T10  1
    X_U4_M1_T10  MBAL_U4_T10  -0.9
    X_U4_M2_T10  NET_COST  28.4
    X_U4_M2_T10  CAPMAX_U4_M2_T10  1
    X_U4_M2_T10  CAPMIN_U4_M2_T10  1
    X_U4_M2_T10  MBAL_U3_T10  1
    X_U4_M2_T10  MBAL_U4_T10  -0.9
    X_U5_M0_T10  NET_COST  30.2
    X_U5_M0_T10  CAPMAX_U5_M0_T10  1
    X_U5_M0_T10  CAPMIN_U5_M0_T10  1
    X_U5_M0_T10  MBAL_U4_T10  1
    X_U5_M0_T10  MBAL_U5_T10  -0.9
    X_U5_M1_T10  NET_COST  31.7
    X_U5_M1_T10  CAPMAX_U5_M1_T10  1
    X_U5_M1_T10  CAPMIN_U5_M1_T10  1
    X_U5_M1_T10  MBAL_U4_T10  1
    X_U5_M1_T10  MBAL_U5_T10  -0.9
    X_U5_M2_T10  NET_COST  17.3
    X_U5_M2_T10  CAPMAX_U5_M2_T10  1
    X_U5_M2_T10  CAPMIN_U5_M2_T10  1
    X_U5_M2_T10  MBAL_U4_T10  1
    X_U5_M2_T10  MBAL_U5_T10  -0.9
    X_U6_M0_T10  NET_COST  26.9
    X_U6_M0_T10  CAPMAX_U6_M0_T10  1
    X_U6_M0_T10  CAPMIN_U6_M0_T10  1
    X_U6_M0_T10  MBAL_U5_T10  1
    X_U6_M0_T10  MBAL_U6_T10  -0.9
    X_U6_M1_T10  NET_COST  29.9
    X_U6_M1_T10  CAPMAX_U6_M1_T10  1
    X_U6_M1_T10  CAPMIN_U6_M1_T10  1
    X_U6_M1_T10  MBAL_U5_T10  1
    X_U6_M1_T10  MBAL_U6_T10  -0.9
    X_U6_M2_T10  NET_COST  36.5
    X_U6_M2_T10  CAPMAX_U6_M2_T10  1
    X_U6_M2_T10  CAPMIN_U6_M2_T10  1
    X_U6_M2_T10  MBAL_U5_T10  1
    X_U6_M2_T10  MBAL_U6_T10  -0.9
    X_U7_M0_T10  NET_COST  -67.7
    X_U7_M0_T10  CAPMAX_U7_M0_T10  1
    X_U7_M0_T10  CAPMIN_U7_M0_T10  1
    X_U7_M0_T10  MBAL_U6_T10  1
    X_U7_M0_T10  DEMAND_T10  1
    X_U7_M1_T10  NET_COST  -72.6
    X_U7_M1_T10  CAPMAX_U7_M1_T10  1
    X_U7_M1_T10  CAPMIN_U7_M1_T10  1
    X_U7_M1_T10  MBAL_U6_T10  1
    X_U7_M1_T10  DEMAND_T10  1
    X_U7_M2_T10  NET_COST  -60.9
    X_U7_M2_T10  CAPMAX_U7_M2_T10  1
    X_U7_M2_T10  CAPMIN_U7_M2_T10  1
    X_U7_M2_T10  MBAL_U6_T10  1
    X_U7_M2_T10  DEMAND_T10  1
    S_U0_T10  NET_COST  2
    S_U0_T10  MBAL_U0_T10  1
    S_U0_T10  MBAL_U0_T11  -1
    S_U1_T10  NET_COST  2
    S_U1_T10  MBAL_U1_T10  1
    S_U1_T10  MBAL_U1_T11  -1
    S_U2_T10  NET_COST  2
    S_U2_T10  MBAL_U2_T10  1
    S_U2_T10  MBAL_U2_T11  -1
    S_U3_T10  NET_COST  2
    S_U3_T10  MBAL_U3_T10  1
    S_U3_T10  MBAL_U3_T11  -1
    S_U4_T10  NET_COST  2
    S_U4_T10  MBAL_U4_T10  1
    S_U4_T10  MBAL_U4_T11  -1
    S_U5_T10  NET_COST  2
    S_U5_T10  MBAL_U5_T10  1
    S_U5_T10  MBAL_U5_T11  -1
    S_U6_T10  NET_COST  2
    S_U6_T10  MBAL_U6_T10  1
    S_U6_T10  MBAL_U6_T11  -1
    S_U7_T10  NET_COST  2
    MARK5280  'MARKER'                 'INTORG'
    Z_U0_M0_T11  NET_COST  228
    Z_U0_M0_T11  MODE_U0_T11  1
    Z_U0_M0_T11  CAPMAX_U0_M0_T11  -300
    Z_U0_M0_T11  CAPMIN_U0_M0_T11  -90
    MARK5290  'MARKER'                 'INTEND'
    MARK5300  'MARKER'                 'INTORG'
    Z_U0_M1_T11  NET_COST  281
    Z_U0_M1_T11  MODE_U0_T11  1
    Z_U0_M1_T11  CAPMAX_U0_M1_T11  -169
    Z_U0_M1_T11  CAPMIN_U0_M1_T11  -50.7
    MARK5310  'MARKER'                 'INTEND'
    MARK5320  'MARKER'                 'INTORG'
    Z_U0_M2_T11  NET_COST  175
    Z_U0_M2_T11  MODE_U0_T11  1
    Z_U0_M2_T11  CAPMAX_U0_M2_T11  -205
    Z_U0_M2_T11  CAPMIN_U0_M2_T11  -61.5
    MARK5330  'MARKER'                 'INTEND'
    MARK5340  'MARKER'                 'INTORG'
    Z_U1_M0_T11  NET_COST  102
    Z_U1_M0_T11  MODE_U1_T11  1
    Z_U1_M0_T11  CAPMAX_U1_M0_T11  -255
    Z_U1_M0_T11  CAPMIN_U1_M0_T11  -76.5
    MARK5350  'MARKER'                 'INTEND'
    MARK5360  'MARKER'                 'INTORG'
    Z_U1_M1_T11  NET_COST  227
    Z_U1_M1_T11  MODE_U1_T11  1
    Z_U1_M1_T11  CAPMAX_U1_M1_T11  -315
    Z_U1_M1_T11  CAPMIN_U1_M1_T11  -94.5
    MARK5370  'MARKER'                 'INTEND'
    MARK5380  'MARKER'                 'INTORG'
    Z_U1_M2_T11  NET_COST  251
    Z_U1_M2_T11  MODE_U1_T11  1
    Z_U1_M2_T11  CAPMAX_U1_M2_T11  -240
    Z_U1_M2_T11  CAPMIN_U1_M2_T11  -72
    MARK5390  'MARKER'                 'INTEND'
    MARK5400  'MARKER'                 'INTORG'
    Z_U2_M0_T11  NET_COST  113
    Z_U2_M0_T11  MODE_U2_T11  1
    Z_U2_M0_T11  CAPMAX_U2_M0_T11  -300
    Z_U2_M0_T11  CAPMIN_U2_M0_T11  -90
    MARK5410  'MARKER'                 'INTEND'
    MARK5420  'MARKER'                 'INTORG'
    Z_U2_M1_T11  NET_COST  185
    Z_U2_M1_T11  MODE_U2_T11  1
    Z_U2_M1_T11  CAPMAX_U2_M1_T11  -170
    Z_U2_M1_T11  CAPMIN_U2_M1_T11  -51
    MARK5430  'MARKER'                 'INTEND'
    MARK5440  'MARKER'                 'INTORG'
    Z_U2_M2_T11  NET_COST  119
    Z_U2_M2_T11  MODE_U2_T11  1
    Z_U2_M2_T11  CAPMAX_U2_M2_T11  -256
    Z_U2_M2_T11  CAPMIN_U2_M2_T11  -76.8
    MARK5450  'MARKER'                 'INTEND'
    MARK5460  'MARKER'                 'INTORG'
    Z_U3_M0_T11  NET_COST  255
    Z_U3_M0_T11  MODE_U3_T11  1
    Z_U3_M0_T11  CAPMAX_U3_M0_T11  -175
    Z_U3_M0_T11  CAPMIN_U3_M0_T11  -52.5
    MARK5470  'MARKER'                 'INTEND'
    MARK5480  'MARKER'                 'INTORG'
    Z_U3_M1_T11  NET_COST  165
    Z_U3_M1_T11  MODE_U3_T11  1
    Z_U3_M1_T11  CAPMAX_U3_M1_T11  -300
    Z_U3_M1_T11  CAPMIN_U3_M1_T11  -90
    MARK5490  'MARKER'                 'INTEND'
    MARK5500  'MARKER'                 'INTORG'
    Z_U3_M2_T11  NET_COST  109
    Z_U3_M2_T11  MODE_U3_T11  1
    Z_U3_M2_T11  CAPMAX_U3_M2_T11  -335
    Z_U3_M2_T11  CAPMIN_U3_M2_T11  -100.5
    MARK5510  'MARKER'                 'INTEND'
    MARK5520  'MARKER'                 'INTORG'
    Z_U4_M0_T11  NET_COST  183
    Z_U4_M0_T11  MODE_U4_T11  1
    Z_U4_M0_T11  CAPMAX_U4_M0_T11  -210
    Z_U4_M0_T11  CAPMIN_U4_M0_T11  -63
    MARK5530  'MARKER'                 'INTEND'
    MARK5540  'MARKER'                 'INTORG'
    Z_U4_M1_T11  NET_COST  240
    Z_U4_M1_T11  MODE_U4_T11  1
    Z_U4_M1_T11  CAPMAX_U4_M1_T11  -242
    Z_U4_M1_T11  CAPMIN_U4_M1_T11  -72.6
    MARK5550  'MARKER'                 'INTEND'
    MARK5560  'MARKER'                 'INTORG'
    Z_U4_M2_T11  NET_COST  198
    Z_U4_M2_T11  MODE_U4_T11  1
    Z_U4_M2_T11  CAPMAX_U4_M2_T11  -192
    Z_U4_M2_T11  CAPMIN_U4_M2_T11  -57.6
    MARK5570  'MARKER'                 'INTEND'
    MARK5580  'MARKER'                 'INTORG'
    Z_U5_M0_T11  NET_COST  199
    Z_U5_M0_T11  MODE_U5_T11  1
    Z_U5_M0_T11  CAPMAX_U5_M0_T11  -227
    Z_U5_M0_T11  CAPMIN_U5_M0_T11  -68.1
    MARK5590  'MARKER'                 'INTEND'
    MARK5600  'MARKER'                 'INTORG'
    Z_U5_M1_T11  NET_COST  183
    Z_U5_M1_T11  MODE_U5_T11  1
    Z_U5_M1_T11  CAPMAX_U5_M1_T11  -237
    Z_U5_M1_T11  CAPMIN_U5_M1_T11  -71.1
    MARK5610  'MARKER'                 'INTEND'
    MARK5620  'MARKER'                 'INTORG'
    Z_U5_M2_T11  NET_COST  115
    Z_U5_M2_T11  MODE_U5_T11  1
    Z_U5_M2_T11  CAPMAX_U5_M2_T11  -314
    Z_U5_M2_T11  CAPMIN_U5_M2_T11  -94.2
    MARK5630  'MARKER'                 'INTEND'
    MARK5640  'MARKER'                 'INTORG'
    Z_U6_M0_T11  NET_COST  189
    Z_U6_M0_T11  MODE_U6_T11  1
    Z_U6_M0_T11  CAPMAX_U6_M0_T11  -349
    Z_U6_M0_T11  CAPMIN_U6_M0_T11  -104.7
    MARK5650  'MARKER'                 'INTEND'
    MARK5660  'MARKER'                 'INTORG'
    Z_U6_M1_T11  NET_COST  224
    Z_U6_M1_T11  MODE_U6_T11  1
    Z_U6_M1_T11  CAPMAX_U6_M1_T11  -265
    Z_U6_M1_T11  CAPMIN_U6_M1_T11  -79.5
    MARK5670  'MARKER'                 'INTEND'
    MARK5680  'MARKER'                 'INTORG'
    Z_U6_M2_T11  NET_COST  195
    Z_U6_M2_T11  MODE_U6_T11  1
    Z_U6_M2_T11  CAPMAX_U6_M2_T11  -315
    Z_U6_M2_T11  CAPMIN_U6_M2_T11  -94.5
    MARK5690  'MARKER'                 'INTEND'
    MARK5700  'MARKER'                 'INTORG'
    Z_U7_M0_T11  NET_COST  189
    Z_U7_M0_T11  MODE_U7_T11  1
    Z_U7_M0_T11  CAPMAX_U7_M0_T11  -212
    Z_U7_M0_T11  CAPMIN_U7_M0_T11  -63.6
    MARK5710  'MARKER'                 'INTEND'
    MARK5720  'MARKER'                 'INTORG'
    Z_U7_M1_T11  NET_COST  205
    Z_U7_M1_T11  MODE_U7_T11  1
    Z_U7_M1_T11  CAPMAX_U7_M1_T11  -223
    Z_U7_M1_T11  CAPMIN_U7_M1_T11  -66.9
    MARK5730  'MARKER'                 'INTEND'
    MARK5740  'MARKER'                 'INTORG'
    Z_U7_M2_T11  NET_COST  161
    Z_U7_M2_T11  MODE_U7_T11  1
    Z_U7_M2_T11  CAPMAX_U7_M2_T11  -287
    Z_U7_M2_T11  CAPMIN_U7_M2_T11  -86.1
    MARK5750  'MARKER'                 'INTEND'
    X_U0_M0_T11  NET_COST  33.9
    X_U0_M0_T11  CAPMAX_U0_M0_T11  1
    X_U0_M0_T11  CAPMIN_U0_M0_T11  1
    X_U0_M0_T11  MBAL_U0_T11  -0.9
    X_U0_M1_T11  NET_COST  18.4
    X_U0_M1_T11  CAPMAX_U0_M1_T11  1
    X_U0_M1_T11  CAPMIN_U0_M1_T11  1
    X_U0_M1_T11  MBAL_U0_T11  -0.9
    X_U0_M2_T11  NET_COST  29.4
    X_U0_M2_T11  CAPMAX_U0_M2_T11  1
    X_U0_M2_T11  CAPMIN_U0_M2_T11  1
    X_U0_M2_T11  MBAL_U0_T11  -0.9
    X_U1_M0_T11  NET_COST  24.8
    X_U1_M0_T11  CAPMAX_U1_M0_T11  1
    X_U1_M0_T11  CAPMIN_U1_M0_T11  1
    X_U1_M0_T11  MBAL_U0_T11  1
    X_U1_M0_T11  MBAL_U1_T11  -0.9
    X_U1_M1_T11  NET_COST  32.1
    X_U1_M1_T11  CAPMAX_U1_M1_T11  1
    X_U1_M1_T11  CAPMIN_U1_M1_T11  1
    X_U1_M1_T11  MBAL_U0_T11  1
    X_U1_M1_T11  MBAL_U1_T11  -0.9
    X_U1_M2_T11  NET_COST  38.6
    X_U1_M2_T11  CAPMAX_U1_M2_T11  1
    X_U1_M2_T11  CAPMIN_U1_M2_T11  1
    X_U1_M2_T11  MBAL_U0_T11  1
    X_U1_M2_T11  MBAL_U1_T11  -0.9
    X_U2_M0_T11  NET_COST  16.2
    X_U2_M0_T11  CAPMAX_U2_M0_T11  1
    X_U2_M0_T11  CAPMIN_U2_M0_T11  1
    X_U2_M0_T11  MBAL_U1_T11  1
    X_U2_M0_T11  MBAL_U2_T11  -0.9
    X_U2_M1_T11  NET_COST  18.7
    X_U2_M1_T11  CAPMAX_U2_M1_T11  1
    X_U2_M1_T11  CAPMIN_U2_M1_T11  1
    X_U2_M1_T11  MBAL_U1_T11  1
    X_U2_M1_T11  MBAL_U2_T11  -0.9
    X_U2_M2_T11  NET_COST  18.6
    X_U2_M2_T11  CAPMAX_U2_M2_T11  1
    X_U2_M2_T11  CAPMIN_U2_M2_T11  1
    X_U2_M2_T11  MBAL_U1_T11  1
    X_U2_M2_T11  MBAL_U2_T11  -0.9
    X_U3_M0_T11  NET_COST  26.2
    X_U3_M0_T11  CAPMAX_U3_M0_T11  1
    X_U3_M0_T11  CAPMIN_U3_M0_T11  1
    X_U3_M0_T11  MBAL_U2_T11  1
    X_U3_M0_T11  MBAL_U3_T11  -0.9
    X_U3_M1_T11  NET_COST  33.6
    X_U3_M1_T11  CAPMAX_U3_M1_T11  1
    X_U3_M1_T11  CAPMIN_U3_M1_T11  1
    X_U3_M1_T11  MBAL_U2_T11  1
    X_U3_M1_T11  MBAL_U3_T11  -0.9
    X_U3_M2_T11  NET_COST  35.1
    X_U3_M2_T11  CAPMAX_U3_M2_T11  1
    X_U3_M2_T11  CAPMIN_U3_M2_T11  1
    X_U3_M2_T11  MBAL_U2_T11  1
    X_U3_M2_T11  MBAL_U3_T11  -0.9
    X_U4_M0_T11  NET_COST  33.6
    X_U4_M0_T11  CAPMAX_U4_M0_T11  1
    X_U4_M0_T11  CAPMIN_U4_M0_T11  1
    X_U4_M0_T11  MBAL_U3_T11  1
    X_U4_M0_T11  MBAL_U4_T11  -0.9
    X_U4_M1_T11  NET_COST  15.5
    X_U4_M1_T11  CAPMAX_U4_M1_T11  1
    X_U4_M1_T11  CAPMIN_U4_M1_T11  1
    X_U4_M1_T11  MBAL_U3_T11  1
    X_U4_M1_T11  MBAL_U4_T11  -0.9
    X_U4_M2_T11  NET_COST  28.4
    X_U4_M2_T11  CAPMAX_U4_M2_T11  1
    X_U4_M2_T11  CAPMIN_U4_M2_T11  1
    X_U4_M2_T11  MBAL_U3_T11  1
    X_U4_M2_T11  MBAL_U4_T11  -0.9
    X_U5_M0_T11  NET_COST  30.2
    X_U5_M0_T11  CAPMAX_U5_M0_T11  1
    X_U5_M0_T11  CAPMIN_U5_M0_T11  1
    X_U5_M0_T11  MBAL_U4_T11  1
    X_U5_M0_T11  MBAL_U5_T11  -0.9
    X_U5_M1_T11  NET_COST  31.7
    X_U5_M1_T11  CAPMAX_U5_M1_T11  1
    X_U5_M1_T11  CAPMIN_U5_M1_T11  1
    X_U5_M1_T11  MBAL_U4_T11  1
    X_U5_M1_T11  MBAL_U5_T11  -0.9
    X_U5_M2_T11  NET_COST  17.3
    X_U5_M2_T11  CAPMAX_U5_M2_T11  1
    X_U5_M2_T11  CAPMIN_U5_M2_T11  1
    X_U5_M2_T11  MBAL_U4_T11  1
    X_U5_M2_T11  MBAL_U5_T11  -0.9
    X_U6_M0_T11  NET_COST  26.9
    X_U6_M0_T11  CAPMAX_U6_M0_T11  1
    X_U6_M0_T11  CAPMIN_U6_M0_T11  1
    X_U6_M0_T11  MBAL_U5_T11  1
    X_U6_M0_T11  MBAL_U6_T11  -0.9
    X_U6_M1_T11  NET_COST  29.9
    X_U6_M1_T11  CAPMAX_U6_M1_T11  1
    X_U6_M1_T11  CAPMIN_U6_M1_T11  1
    X_U6_M1_T11  MBAL_U5_T11  1
    X_U6_M1_T11  MBAL_U6_T11  -0.9
    X_U6_M2_T11  NET_COST  36.5
    X_U6_M2_T11  CAPMAX_U6_M2_T11  1
    X_U6_M2_T11  CAPMIN_U6_M2_T11  1
    X_U6_M2_T11  MBAL_U5_T11  1
    X_U6_M2_T11  MBAL_U6_T11  -0.9
    X_U7_M0_T11  NET_COST  -67.7
    X_U7_M0_T11  CAPMAX_U7_M0_T11  1
    X_U7_M0_T11  CAPMIN_U7_M0_T11  1
    X_U7_M0_T11  MBAL_U6_T11  1
    X_U7_M0_T11  DEMAND_T11  1
    X_U7_M1_T11  NET_COST  -72.6
    X_U7_M1_T11  CAPMAX_U7_M1_T11  1
    X_U7_M1_T11  CAPMIN_U7_M1_T11  1
    X_U7_M1_T11  MBAL_U6_T11  1
    X_U7_M1_T11  DEMAND_T11  1
    X_U7_M2_T11  NET_COST  -60.9
    X_U7_M2_T11  CAPMAX_U7_M2_T11  1
    X_U7_M2_T11  CAPMIN_U7_M2_T11  1
    X_U7_M2_T11  MBAL_U6_T11  1
    X_U7_M2_T11  DEMAND_T11  1
    S_U0_T11  NET_COST  2
    S_U0_T11  MBAL_U0_T11  1
    S_U0_T11  MBAL_U0_T12  -1
    S_U1_T11  NET_COST  2
    S_U1_T11  MBAL_U1_T11  1
    S_U1_T11  MBAL_U1_T12  -1
    S_U2_T11  NET_COST  2
    S_U2_T11  MBAL_U2_T11  1
    S_U2_T11  MBAL_U2_T12  -1
    S_U3_T11  NET_COST  2
    S_U3_T11  MBAL_U3_T11  1
    S_U3_T11  MBAL_U3_T12  -1
    S_U4_T11  NET_COST  2
    S_U4_T11  MBAL_U4_T11  1
    S_U4_T11  MBAL_U4_T12  -1
    S_U5_T11  NET_COST  2
    S_U5_T11  MBAL_U5_T11  1
    S_U5_T11  MBAL_U5_T12  -1
    S_U6_T11  NET_COST  2
    S_U6_T11  MBAL_U6_T11  1
    S_U6_T11  MBAL_U6_T12  -1
    S_U7_T11  NET_COST  2
    MARK5760  'MARKER'                 'INTORG'
    Z_U0_M0_T12  NET_COST  228
    Z_U0_M0_T12  MODE_U0_T12  1
    Z_U0_M0_T12  CAPMAX_U0_M0_T12  -300
    Z_U0_M0_T12  CAPMIN_U0_M0_T12  -90
    MARK5770  'MARKER'                 'INTEND'
    MARK5780  'MARKER'                 'INTORG'
    Z_U0_M1_T12  NET_COST  281
    Z_U0_M1_T12  MODE_U0_T12  1
    Z_U0_M1_T12  CAPMAX_U0_M1_T12  -169
    Z_U0_M1_T12  CAPMIN_U0_M1_T12  -50.7
    MARK5790  'MARKER'                 'INTEND'
    MARK5800  'MARKER'                 'INTORG'
    Z_U0_M2_T12  NET_COST  175
    Z_U0_M2_T12  MODE_U0_T12  1
    Z_U0_M2_T12  CAPMAX_U0_M2_T12  -205
    Z_U0_M2_T12  CAPMIN_U0_M2_T12  -61.5
    MARK5810  'MARKER'                 'INTEND'
    MARK5820  'MARKER'                 'INTORG'
    Z_U1_M0_T12  NET_COST  102
    Z_U1_M0_T12  MODE_U1_T12  1
    Z_U1_M0_T12  CAPMAX_U1_M0_T12  -255
    Z_U1_M0_T12  CAPMIN_U1_M0_T12  -76.5
    MARK5830  'MARKER'                 'INTEND'
    MARK5840  'MARKER'                 'INTORG'
    Z_U1_M1_T12  NET_COST  227
    Z_U1_M1_T12  MODE_U1_T12  1
    Z_U1_M1_T12  CAPMAX_U1_M1_T12  -315
    Z_U1_M1_T12  CAPMIN_U1_M1_T12  -94.5
    MARK5850  'MARKER'                 'INTEND'
    MARK5860  'MARKER'                 'INTORG'
    Z_U1_M2_T12  NET_COST  251
    Z_U1_M2_T12  MODE_U1_T12  1
    Z_U1_M2_T12  CAPMAX_U1_M2_T12  -240
    Z_U1_M2_T12  CAPMIN_U1_M2_T12  -72
    MARK5870  'MARKER'                 'INTEND'
    MARK5880  'MARKER'                 'INTORG'
    Z_U2_M0_T12  NET_COST  113
    Z_U2_M0_T12  MODE_U2_T12  1
    Z_U2_M0_T12  CAPMAX_U2_M0_T12  -300
    Z_U2_M0_T12  CAPMIN_U2_M0_T12  -90
    MARK5890  'MARKER'                 'INTEND'
    MARK5900  'MARKER'                 'INTORG'
    Z_U2_M1_T12  NET_COST  185
    Z_U2_M1_T12  MODE_U2_T12  1
    Z_U2_M1_T12  CAPMAX_U2_M1_T12  -170
    Z_U2_M1_T12  CAPMIN_U2_M1_T12  -51
    MARK5910  'MARKER'                 'INTEND'
    MARK5920  'MARKER'                 'INTORG'
    Z_U2_M2_T12  NET_COST  119
    Z_U2_M2_T12  MODE_U2_T12  1
    Z_U2_M2_T12  CAPMAX_U2_M2_T12  -256
    Z_U2_M2_T12  CAPMIN_U2_M2_T12  -76.8
    MARK5930  'MARKER'                 'INTEND'
    MARK5940  'MARKER'                 'INTORG'
    Z_U3_M0_T12  NET_COST  255
    Z_U3_M0_T12  MODE_U3_T12  1
    Z_U3_M0_T12  CAPMAX_U3_M0_T12  -175
    Z_U3_M0_T12  CAPMIN_U3_M0_T12  -52.5
    MARK5950  'MARKER'                 'INTEND'
    MARK5960  'MARKER'                 'INTORG'
    Z_U3_M1_T12  NET_COST  165
    Z_U3_M1_T12  MODE_U3_T12  1
    Z_U3_M1_T12  CAPMAX_U3_M1_T12  -300
    Z_U3_M1_T12  CAPMIN_U3_M1_T12  -90
    MARK5970  'MARKER'                 'INTEND'
    MARK5980  'MARKER'                 'INTORG'
    Z_U3_M2_T12  NET_COST  109
    Z_U3_M2_T12  MODE_U3_T12  1
    Z_U3_M2_T12  CAPMAX_U3_M2_T12  -335
    Z_U3_M2_T12  CAPMIN_U3_M2_T12  -100.5
    MARK5990  'MARKER'                 'INTEND'
    MARK6000  'MARKER'                 'INTORG'
    Z_U4_M0_T12  NET_COST  183
    Z_U4_M0_T12  MODE_U4_T12  1
    Z_U4_M0_T12  CAPMAX_U4_M0_T12  -210
    Z_U4_M0_T12  CAPMIN_U4_M0_T12  -63
    MARK6010  'MARKER'                 'INTEND'
    MARK6020  'MARKER'                 'INTORG'
    Z_U4_M1_T12  NET_COST  240
    Z_U4_M1_T12  MODE_U4_T12  1
    Z_U4_M1_T12  CAPMAX_U4_M1_T12  -242
    Z_U4_M1_T12  CAPMIN_U4_M1_T12  -72.6
    MARK6030  'MARKER'                 'INTEND'
    MARK6040  'MARKER'                 'INTORG'
    Z_U4_M2_T12  NET_COST  198
    Z_U4_M2_T12  MODE_U4_T12  1
    Z_U4_M2_T12  CAPMAX_U4_M2_T12  -192
    Z_U4_M2_T12  CAPMIN_U4_M2_T12  -57.6
    MARK6050  'MARKER'                 'INTEND'
    MARK6060  'MARKER'                 'INTORG'
    Z_U5_M0_T12  NET_COST  199
    Z_U5_M0_T12  MODE_U5_T12  1
    Z_U5_M0_T12  CAPMAX_U5_M0_T12  -227
    Z_U5_M0_T12  CAPMIN_U5_M0_T12  -68.1
    MARK6070  'MARKER'                 'INTEND'
    MARK6080  'MARKER'                 'INTORG'
    Z_U5_M1_T12  NET_COST  183
    Z_U5_M1_T12  MODE_U5_T12  1
    Z_U5_M1_T12  CAPMAX_U5_M1_T12  -237
    Z_U5_M1_T12  CAPMIN_U5_M1_T12  -71.1
    MARK6090  'MARKER'                 'INTEND'
    MARK6100  'MARKER'                 'INTORG'
    Z_U5_M2_T12  NET_COST  115
    Z_U5_M2_T12  MODE_U5_T12  1
    Z_U5_M2_T12  CAPMAX_U5_M2_T12  -314
    Z_U5_M2_T12  CAPMIN_U5_M2_T12  -94.2
    MARK6110  'MARKER'                 'INTEND'
    MARK6120  'MARKER'                 'INTORG'
    Z_U6_M0_T12  NET_COST  189
    Z_U6_M0_T12  MODE_U6_T12  1
    Z_U6_M0_T12  CAPMAX_U6_M0_T12  -349
    Z_U6_M0_T12  CAPMIN_U6_M0_T12  -104.7
    MARK6130  'MARKER'                 'INTEND'
    MARK6140  'MARKER'                 'INTORG'
    Z_U6_M1_T12  NET_COST  224
    Z_U6_M1_T12  MODE_U6_T12  1
    Z_U6_M1_T12  CAPMAX_U6_M1_T12  -265
    Z_U6_M1_T12  CAPMIN_U6_M1_T12  -79.5
    MARK6150  'MARKER'                 'INTEND'
    MARK6160  'MARKER'                 'INTORG'
    Z_U6_M2_T12  NET_COST  195
    Z_U6_M2_T12  MODE_U6_T12  1
    Z_U6_M2_T12  CAPMAX_U6_M2_T12  -315
    Z_U6_M2_T12  CAPMIN_U6_M2_T12  -94.5
    MARK6170  'MARKER'                 'INTEND'
    MARK6180  'MARKER'                 'INTORG'
    Z_U7_M0_T12  NET_COST  189
    Z_U7_M0_T12  MODE_U7_T12  1
    Z_U7_M0_T12  CAPMAX_U7_M0_T12  -212
    Z_U7_M0_T12  CAPMIN_U7_M0_T12  -63.6
    MARK6190  'MARKER'                 'INTEND'
    MARK6200  'MARKER'                 'INTORG'
    Z_U7_M1_T12  NET_COST  205
    Z_U7_M1_T12  MODE_U7_T12  1
    Z_U7_M1_T12  CAPMAX_U7_M1_T12  -223
    Z_U7_M1_T12  CAPMIN_U7_M1_T12  -66.9
    MARK6210  'MARKER'                 'INTEND'
    MARK6220  'MARKER'                 'INTORG'
    Z_U7_M2_T12  NET_COST  161
    Z_U7_M2_T12  MODE_U7_T12  1
    Z_U7_M2_T12  CAPMAX_U7_M2_T12  -287
    Z_U7_M2_T12  CAPMIN_U7_M2_T12  -86.1
    MARK6230  'MARKER'                 'INTEND'
    X_U0_M0_T12  NET_COST  33.9
    X_U0_M0_T12  CAPMAX_U0_M0_T12  1
    X_U0_M0_T12  CAPMIN_U0_M0_T12  1
    X_U0_M0_T12  MBAL_U0_T12  -0.9
    X_U0_M1_T12  NET_COST  18.4
    X_U0_M1_T12  CAPMAX_U0_M1_T12  1
    X_U0_M1_T12  CAPMIN_U0_M1_T12  1
    X_U0_M1_T12  MBAL_U0_T12  -0.9
    X_U0_M2_T12  NET_COST  29.4
    X_U0_M2_T12  CAPMAX_U0_M2_T12  1
    X_U0_M2_T12  CAPMIN_U0_M2_T12  1
    X_U0_M2_T12  MBAL_U0_T12  -0.9
    X_U1_M0_T12  NET_COST  24.8
    X_U1_M0_T12  CAPMAX_U1_M0_T12  1
    X_U1_M0_T12  CAPMIN_U1_M0_T12  1
    X_U1_M0_T12  MBAL_U0_T12  1
    X_U1_M0_T12  MBAL_U1_T12  -0.9
    X_U1_M1_T12  NET_COST  32.1
    X_U1_M1_T12  CAPMAX_U1_M1_T12  1
    X_U1_M1_T12  CAPMIN_U1_M1_T12  1
    X_U1_M1_T12  MBAL_U0_T12  1
    X_U1_M1_T12  MBAL_U1_T12  -0.9
    X_U1_M2_T12  NET_COST  38.6
    X_U1_M2_T12  CAPMAX_U1_M2_T12  1
    X_U1_M2_T12  CAPMIN_U1_M2_T12  1
    X_U1_M2_T12  MBAL_U0_T12  1
    X_U1_M2_T12  MBAL_U1_T12  -0.9
    X_U2_M0_T12  NET_COST  16.2
    X_U2_M0_T12  CAPMAX_U2_M0_T12  1
    X_U2_M0_T12  CAPMIN_U2_M0_T12  1
    X_U2_M0_T12  MBAL_U1_T12  1
    X_U2_M0_T12  MBAL_U2_T12  -0.9
    X_U2_M1_T12  NET_COST  18.7
    X_U2_M1_T12  CAPMAX_U2_M1_T12  1
    X_U2_M1_T12  CAPMIN_U2_M1_T12  1
    X_U2_M1_T12  MBAL_U1_T12  1
    X_U2_M1_T12  MBAL_U2_T12  -0.9
    X_U2_M2_T12  NET_COST  18.6
    X_U2_M2_T12  CAPMAX_U2_M2_T12  1
    X_U2_M2_T12  CAPMIN_U2_M2_T12  1
    X_U2_M2_T12  MBAL_U1_T12  1
    X_U2_M2_T12  MBAL_U2_T12  -0.9
    X_U3_M0_T12  NET_COST  26.2
    X_U3_M0_T12  CAPMAX_U3_M0_T12  1
    X_U3_M0_T12  CAPMIN_U3_M0_T12  1
    X_U3_M0_T12  MBAL_U2_T12  1
    X_U3_M0_T12  MBAL_U3_T12  -0.9
    X_U3_M1_T12  NET_COST  33.6
    X_U3_M1_T12  CAPMAX_U3_M1_T12  1
    X_U3_M1_T12  CAPMIN_U3_M1_T12  1
    X_U3_M1_T12  MBAL_U2_T12  1
    X_U3_M1_T12  MBAL_U3_T12  -0.9
    X_U3_M2_T12  NET_COST  35.1
    X_U3_M2_T12  CAPMAX_U3_M2_T12  1
    X_U3_M2_T12  CAPMIN_U3_M2_T12  1
    X_U3_M2_T12  MBAL_U2_T12  1
    X_U3_M2_T12  MBAL_U3_T12  -0.9
    X_U4_M0_T12  NET_COST  33.6
    X_U4_M0_T12  CAPMAX_U4_M0_T12  1
    X_U4_M0_T12  CAPMIN_U4_M0_T12  1
    X_U4_M0_T12  MBAL_U3_T12  1
    X_U4_M0_T12  MBAL_U4_T12  -0.9
    X_U4_M1_T12  NET_COST  15.5
    X_U4_M1_T12  CAPMAX_U4_M1_T12  1
    X_U4_M1_T12  CAPMIN_U4_M1_T12  1
    X_U4_M1_T12  MBAL_U3_T12  1
    X_U4_M1_T12  MBAL_U4_T12  -0.9
    X_U4_M2_T12  NET_COST  28.4
    X_U4_M2_T12  CAPMAX_U4_M2_T12  1
    X_U4_M2_T12  CAPMIN_U4_M2_T12  1
    X_U4_M2_T12  MBAL_U3_T12  1
    X_U4_M2_T12  MBAL_U4_T12  -0.9
    X_U5_M0_T12  NET_COST  30.2
    X_U5_M0_T12  CAPMAX_U5_M0_T12  1
    X_U5_M0_T12  CAPMIN_U5_M0_T12  1
    X_U5_M0_T12  MBAL_U4_T12  1
    X_U5_M0_T12  MBAL_U5_T12  -0.9
    X_U5_M1_T12  NET_COST  31.7
    X_U5_M1_T12  CAPMAX_U5_M1_T12  1
    X_U5_M1_T12  CAPMIN_U5_M1_T12  1
    X_U5_M1_T12  MBAL_U4_T12  1
    X_U5_M1_T12  MBAL_U5_T12  -0.9
    X_U5_M2_T12  NET_COST  17.3
    X_U5_M2_T12  CAPMAX_U5_M2_T12  1
    X_U5_M2_T12  CAPMIN_U5_M2_T12  1
    X_U5_M2_T12  MBAL_U4_T12  1
    X_U5_M2_T12  MBAL_U5_T12  -0.9
    X_U6_M0_T12  NET_COST  26.9
    X_U6_M0_T12  CAPMAX_U6_M0_T12  1
    X_U6_M0_T12  CAPMIN_U6_M0_T12  1
    X_U6_M0_T12  MBAL_U5_T12  1
    X_U6_M0_T12  MBAL_U6_T12  -0.9
    X_U6_M1_T12  NET_COST  29.9
    X_U6_M1_T12  CAPMAX_U6_M1_T12  1
    X_U6_M1_T12  CAPMIN_U6_M1_T12  1
    X_U6_M1_T12  MBAL_U5_T12  1
    X_U6_M1_T12  MBAL_U6_T12  -0.9
    X_U6_M2_T12  NET_COST  36.5
    X_U6_M2_T12  CAPMAX_U6_M2_T12  1
    X_U6_M2_T12  CAPMIN_U6_M2_T12  1
    X_U6_M2_T12  MBAL_U5_T12  1
    X_U6_M2_T12  MBAL_U6_T12  -0.9
    X_U7_M0_T12  NET_COST  -67.7
    X_U7_M0_T12  CAPMAX_U7_M0_T12  1
    X_U7_M0_T12  CAPMIN_U7_M0_T12  1
    X_U7_M0_T12  MBAL_U6_T12  1
    X_U7_M0_T12  DEMAND_T12  1
    X_U7_M1_T12  NET_COST  -72.6
    X_U7_M1_T12  CAPMAX_U7_M1_T12  1
    X_U7_M1_T12  CAPMIN_U7_M1_T12  1
    X_U7_M1_T12  MBAL_U6_T12  1
    X_U7_M1_T12  DEMAND_T12  1
    X_U7_M2_T12  NET_COST  -60.9
    X_U7_M2_T12  CAPMAX_U7_M2_T12  1
    X_U7_M2_T12  CAPMIN_U7_M2_T12  1
    X_U7_M2_T12  MBAL_U6_T12  1
    X_U7_M2_T12  DEMAND_T12  1
    S_U0_T12  NET_COST  2
    S_U0_T12  MBAL_U0_T12  1
    S_U0_T12  MBAL_U0_T13  -1
    S_U1_T12  NET_COST  2
    S_U1_T12  MBAL_U1_T12  1
    S_U1_T12  MBAL_U1_T13  -1
    S_U2_T12  NET_COST  2
    S_U2_T12  MBAL_U2_T12  1
    S_U2_T12  MBAL_U2_T13  -1
    S_U3_T12  NET_COST  2
    S_U3_T12  MBAL_U3_T12  1
    S_U3_T12  MBAL_U3_T13  -1
    S_U4_T12  NET_COST  2
    S_U4_T12  MBAL_U4_T12  1
    S_U4_T12  MBAL_U4_T13  -1
    S_U5_T12  NET_COST  2
    S_U5_T12  MBAL_U5_T12  1
    S_U5_T12  MBAL_U5_T13  -1
    S_U6_T12  NET_COST  2
    S_U6_T12  MBAL_U6_T12  1
    S_U6_T12  MBAL_U6_T13  -1
    S_U7_T12  NET_COST  2
    MARK6240  'MARKER'                 'INTORG'
    Z_U0_M0_T13  NET_COST  228
    Z_U0_M0_T13  MODE_U0_T13  1
    Z_U0_M0_T13  CAPMAX_U0_M0_T13  -300
    Z_U0_M0_T13  CAPMIN_U0_M0_T13  -90
    MARK6250  'MARKER'                 'INTEND'
    MARK6260  'MARKER'                 'INTORG'
    Z_U0_M1_T13  NET_COST  281
    Z_U0_M1_T13  MODE_U0_T13  1
    Z_U0_M1_T13  CAPMAX_U0_M1_T13  -169
    Z_U0_M1_T13  CAPMIN_U0_M1_T13  -50.7
    MARK6270  'MARKER'                 'INTEND'
    MARK6280  'MARKER'                 'INTORG'
    Z_U0_M2_T13  NET_COST  175
    Z_U0_M2_T13  MODE_U0_T13  1
    Z_U0_M2_T13  CAPMAX_U0_M2_T13  -205
    Z_U0_M2_T13  CAPMIN_U0_M2_T13  -61.5
    MARK6290  'MARKER'                 'INTEND'
    MARK6300  'MARKER'                 'INTORG'
    Z_U1_M0_T13  NET_COST  102
    Z_U1_M0_T13  MODE_U1_T13  1
    Z_U1_M0_T13  CAPMAX_U1_M0_T13  -255
    Z_U1_M0_T13  CAPMIN_U1_M0_T13  -76.5
    MARK6310  'MARKER'                 'INTEND'
    MARK6320  'MARKER'                 'INTORG'
    Z_U1_M1_T13  NET_COST  227
    Z_U1_M1_T13  MODE_U1_T13  1
    Z_U1_M1_T13  CAPMAX_U1_M1_T13  -315
    Z_U1_M1_T13  CAPMIN_U1_M1_T13  -94.5
    MARK6330  'MARKER'                 'INTEND'
    MARK6340  'MARKER'                 'INTORG'
    Z_U1_M2_T13  NET_COST  251
    Z_U1_M2_T13  MODE_U1_T13  1
    Z_U1_M2_T13  CAPMAX_U1_M2_T13  -240
    Z_U1_M2_T13  CAPMIN_U1_M2_T13  -72
    MARK6350  'MARKER'                 'INTEND'
    MARK6360  'MARKER'                 'INTORG'
    Z_U2_M0_T13  NET_COST  113
    Z_U2_M0_T13  MODE_U2_T13  1
    Z_U2_M0_T13  CAPMAX_U2_M0_T13  -300
    Z_U2_M0_T13  CAPMIN_U2_M0_T13  -90
    MARK6370  'MARKER'                 'INTEND'
    MARK6380  'MARKER'                 'INTORG'
    Z_U2_M1_T13  NET_COST  185
    Z_U2_M1_T13  MODE_U2_T13  1
    Z_U2_M1_T13  CAPMAX_U2_M1_T13  -170
    Z_U2_M1_T13  CAPMIN_U2_M1_T13  -51
    MARK6390  'MARKER'                 'INTEND'
    MARK6400  'MARKER'                 'INTORG'
    Z_U2_M2_T13  NET_COST  119
    Z_U2_M2_T13  MODE_U2_T13  1
    Z_U2_M2_T13  CAPMAX_U2_M2_T13  -256
    Z_U2_M2_T13  CAPMIN_U2_M2_T13  -76.8
    MARK6410  'MARKER'                 'INTEND'
    MARK6420  'MARKER'                 'INTORG'
    Z_U3_M0_T13  NET_COST  255
    Z_U3_M0_T13  MODE_U3_T13  1
    Z_U3_M0_T13  CAPMAX_U3_M0_T13  -175
    Z_U3_M0_T13  CAPMIN_U3_M0_T13  -52.5
    MARK6430  'MARKER'                 'INTEND'
    MARK6440  'MARKER'                 'INTORG'
    Z_U3_M1_T13  NET_COST  165
    Z_U3_M1_T13  MODE_U3_T13  1
    Z_U3_M1_T13  CAPMAX_U3_M1_T13  -300
    Z_U3_M1_T13  CAPMIN_U3_M1_T13  -90
    MARK6450  'MARKER'                 'INTEND'
    MARK6460  'MARKER'                 'INTORG'
    Z_U3_M2_T13  NET_COST  109
    Z_U3_M2_T13  MODE_U3_T13  1
    Z_U3_M2_T13  CAPMAX_U3_M2_T13  -335
    Z_U3_M2_T13  CAPMIN_U3_M2_T13  -100.5
    MARK6470  'MARKER'                 'INTEND'
    MARK6480  'MARKER'                 'INTORG'
    Z_U4_M0_T13  NET_COST  183
    Z_U4_M0_T13  MODE_U4_T13  1
    Z_U4_M0_T13  CAPMAX_U4_M0_T13  -210
    Z_U4_M0_T13  CAPMIN_U4_M0_T13  -63
    MARK6490  'MARKER'                 'INTEND'
    MARK6500  'MARKER'                 'INTORG'
    Z_U4_M1_T13  NET_COST  240
    Z_U4_M1_T13  MODE_U4_T13  1
    Z_U4_M1_T13  CAPMAX_U4_M1_T13  -242
    Z_U4_M1_T13  CAPMIN_U4_M1_T13  -72.6
    MARK6510  'MARKER'                 'INTEND'
    MARK6520  'MARKER'                 'INTORG'
    Z_U4_M2_T13  NET_COST  198
    Z_U4_M2_T13  MODE_U4_T13  1
    Z_U4_M2_T13  CAPMAX_U4_M2_T13  -192
    Z_U4_M2_T13  CAPMIN_U4_M2_T13  -57.6
    MARK6530  'MARKER'                 'INTEND'
    MARK6540  'MARKER'                 'INTORG'
    Z_U5_M0_T13  NET_COST  199
    Z_U5_M0_T13  MODE_U5_T13  1
    Z_U5_M0_T13  CAPMAX_U5_M0_T13  -227
    Z_U5_M0_T13  CAPMIN_U5_M0_T13  -68.1
    MARK6550  'MARKER'                 'INTEND'
    MARK6560  'MARKER'                 'INTORG'
    Z_U5_M1_T13  NET_COST  183
    Z_U5_M1_T13  MODE_U5_T13  1
    Z_U5_M1_T13  CAPMAX_U5_M1_T13  -237
    Z_U5_M1_T13  CAPMIN_U5_M1_T13  -71.1
    MARK6570  'MARKER'                 'INTEND'
    MARK6580  'MARKER'                 'INTORG'
    Z_U5_M2_T13  NET_COST  115
    Z_U5_M2_T13  MODE_U5_T13  1
    Z_U5_M2_T13  CAPMAX_U5_M2_T13  -314
    Z_U5_M2_T13  CAPMIN_U5_M2_T13  -94.2
    MARK6590  'MARKER'                 'INTEND'
    MARK6600  'MARKER'                 'INTORG'
    Z_U6_M0_T13  NET_COST  189
    Z_U6_M0_T13  MODE_U6_T13  1
    Z_U6_M0_T13  CAPMAX_U6_M0_T13  -349
    Z_U6_M0_T13  CAPMIN_U6_M0_T13  -104.7
    MARK6610  'MARKER'                 'INTEND'
    MARK6620  'MARKER'                 'INTORG'
    Z_U6_M1_T13  NET_COST  224
    Z_U6_M1_T13  MODE_U6_T13  1
    Z_U6_M1_T13  CAPMAX_U6_M1_T13  -265
    Z_U6_M1_T13  CAPMIN_U6_M1_T13  -79.5
    MARK6630  'MARKER'                 'INTEND'
    MARK6640  'MARKER'                 'INTORG'
    Z_U6_M2_T13  NET_COST  195
    Z_U6_M2_T13  MODE_U6_T13  1
    Z_U6_M2_T13  CAPMAX_U6_M2_T13  -315
    Z_U6_M2_T13  CAPMIN_U6_M2_T13  -94.5
    MARK6650  'MARKER'                 'INTEND'
    MARK6660  'MARKER'                 'INTORG'
    Z_U7_M0_T13  NET_COST  189
    Z_U7_M0_T13  MODE_U7_T13  1
    Z_U7_M0_T13  CAPMAX_U7_M0_T13  -212
    Z_U7_M0_T13  CAPMIN_U7_M0_T13  -63.6
    MARK6670  'MARKER'                 'INTEND'
    MARK6680  'MARKER'                 'INTORG'
    Z_U7_M1_T13  NET_COST  205
    Z_U7_M1_T13  MODE_U7_T13  1
    Z_U7_M1_T13  CAPMAX_U7_M1_T13  -223
    Z_U7_M1_T13  CAPMIN_U7_M1_T13  -66.9
    MARK6690  'MARKER'                 'INTEND'
    MARK6700  'MARKER'                 'INTORG'
    Z_U7_M2_T13  NET_COST  161
    Z_U7_M2_T13  MODE_U7_T13  1
    Z_U7_M2_T13  CAPMAX_U7_M2_T13  -287
    Z_U7_M2_T13  CAPMIN_U7_M2_T13  -86.1
    MARK6710  'MARKER'                 'INTEND'
    X_U0_M0_T13  NET_COST  33.9
    X_U0_M0_T13  CAPMAX_U0_M0_T13  1
    X_U0_M0_T13  CAPMIN_U0_M0_T13  1
    X_U0_M0_T13  MBAL_U0_T13  -0.9
    X_U0_M1_T13  NET_COST  18.4
    X_U0_M1_T13  CAPMAX_U0_M1_T13  1
    X_U0_M1_T13  CAPMIN_U0_M1_T13  1
    X_U0_M1_T13  MBAL_U0_T13  -0.9
    X_U0_M2_T13  NET_COST  29.4
    X_U0_M2_T13  CAPMAX_U0_M2_T13  1
    X_U0_M2_T13  CAPMIN_U0_M2_T13  1
    X_U0_M2_T13  MBAL_U0_T13  -0.9
    X_U1_M0_T13  NET_COST  24.8
    X_U1_M0_T13  CAPMAX_U1_M0_T13  1
    X_U1_M0_T13  CAPMIN_U1_M0_T13  1
    X_U1_M0_T13  MBAL_U0_T13  1
    X_U1_M0_T13  MBAL_U1_T13  -0.9
    X_U1_M1_T13  NET_COST  32.1
    X_U1_M1_T13  CAPMAX_U1_M1_T13  1
    X_U1_M1_T13  CAPMIN_U1_M1_T13  1
    X_U1_M1_T13  MBAL_U0_T13  1
    X_U1_M1_T13  MBAL_U1_T13  -0.9
    X_U1_M2_T13  NET_COST  38.6
    X_U1_M2_T13  CAPMAX_U1_M2_T13  1
    X_U1_M2_T13  CAPMIN_U1_M2_T13  1
    X_U1_M2_T13  MBAL_U0_T13  1
    X_U1_M2_T13  MBAL_U1_T13  -0.9
    X_U2_M0_T13  NET_COST  16.2
    X_U2_M0_T13  CAPMAX_U2_M0_T13  1
    X_U2_M0_T13  CAPMIN_U2_M0_T13  1
    X_U2_M0_T13  MBAL_U1_T13  1
    X_U2_M0_T13  MBAL_U2_T13  -0.9
    X_U2_M1_T13  NET_COST  18.7
    X_U2_M1_T13  CAPMAX_U2_M1_T13  1
    X_U2_M1_T13  CAPMIN_U2_M1_T13  1
    X_U2_M1_T13  MBAL_U1_T13  1
    X_U2_M1_T13  MBAL_U2_T13  -0.9
    X_U2_M2_T13  NET_COST  18.6
    X_U2_M2_T13  CAPMAX_U2_M2_T13  1
    X_U2_M2_T13  CAPMIN_U2_M2_T13  1
    X_U2_M2_T13  MBAL_U1_T13  1
    X_U2_M2_T13  MBAL_U2_T13  -0.9
    X_U3_M0_T13  NET_COST  26.2
    X_U3_M0_T13  CAPMAX_U3_M0_T13  1
    X_U3_M0_T13  CAPMIN_U3_M0_T13  1
    X_U3_M0_T13  MBAL_U2_T13  1
    X_U3_M0_T13  MBAL_U3_T13  -0.9
    X_U3_M1_T13  NET_COST  33.6
    X_U3_M1_T13  CAPMAX_U3_M1_T13  1
    X_U3_M1_T13  CAPMIN_U3_M1_T13  1
    X_U3_M1_T13  MBAL_U2_T13  1
    X_U3_M1_T13  MBAL_U3_T13  -0.9
    X_U3_M2_T13  NET_COST  35.1
    X_U3_M2_T13  CAPMAX_U3_M2_T13  1
    X_U3_M2_T13  CAPMIN_U3_M2_T13  1
    X_U3_M2_T13  MBAL_U2_T13  1
    X_U3_M2_T13  MBAL_U3_T13  -0.9
    X_U4_M0_T13  NET_COST  33.6
    X_U4_M0_T13  CAPMAX_U4_M0_T13  1
    X_U4_M0_T13  CAPMIN_U4_M0_T13  1
    X_U4_M0_T13  MBAL_U3_T13  1
    X_U4_M0_T13  MBAL_U4_T13  -0.9
    X_U4_M1_T13  NET_COST  15.5
    X_U4_M1_T13  CAPMAX_U4_M1_T13  1
    X_U4_M1_T13  CAPMIN_U4_M1_T13  1
    X_U4_M1_T13  MBAL_U3_T13  1
    X_U4_M1_T13  MBAL_U4_T13  -0.9
    X_U4_M2_T13  NET_COST  28.4
    X_U4_M2_T13  CAPMAX_U4_M2_T13  1
    X_U4_M2_T13  CAPMIN_U4_M2_T13  1
    X_U4_M2_T13  MBAL_U3_T13  1
    X_U4_M2_T13  MBAL_U4_T13  -0.9
    X_U5_M0_T13  NET_COST  30.2
    X_U5_M0_T13  CAPMAX_U5_M0_T13  1
    X_U5_M0_T13  CAPMIN_U5_M0_T13  1
    X_U5_M0_T13  MBAL_U4_T13  1
    X_U5_M0_T13  MBAL_U5_T13  -0.9
    X_U5_M1_T13  NET_COST  31.7
    X_U5_M1_T13  CAPMAX_U5_M1_T13  1
    X_U5_M1_T13  CAPMIN_U5_M1_T13  1
    X_U5_M1_T13  MBAL_U4_T13  1
    X_U5_M1_T13  MBAL_U5_T13  -0.9
    X_U5_M2_T13  NET_COST  17.3
    X_U5_M2_T13  CAPMAX_U5_M2_T13  1
    X_U5_M2_T13  CAPMIN_U5_M2_T13  1
    X_U5_M2_T13  MBAL_U4_T13  1
    X_U5_M2_T13  MBAL_U5_T13  -0.9
    X_U6_M0_T13  NET_COST  26.9
    X_U6_M0_T13  CAPMAX_U6_M0_T13  1
    X_U6_M0_T13  CAPMIN_U6_M0_T13  1
    X_U6_M0_T13  MBAL_U5_T13  1
    X_U6_M0_T13  MBAL_U6_T13  -0.9
    X_U6_M1_T13  NET_COST  29.9
    X_U6_M1_T13  CAPMAX_U6_M1_T13  1
    X_U6_M1_T13  CAPMIN_U6_M1_T13  1
    X_U6_M1_T13  MBAL_U5_T13  1
    X_U6_M1_T13  MBAL_U6_T13  -0.9
    X_U6_M2_T13  NET_COST  36.5
    X_U6_M2_T13  CAPMAX_U6_M2_T13  1
    X_U6_M2_T13  CAPMIN_U6_M2_T13  1
    X_U6_M2_T13  MBAL_U5_T13  1
    X_U6_M2_T13  MBAL_U6_T13  -0.9
    X_U7_M0_T13  NET_COST  -67.7
    X_U7_M0_T13  CAPMAX_U7_M0_T13  1
    X_U7_M0_T13  CAPMIN_U7_M0_T13  1
    X_U7_M0_T13  MBAL_U6_T13  1
    X_U7_M0_T13  DEMAND_T13  1
    X_U7_M1_T13  NET_COST  -72.6
    X_U7_M1_T13  CAPMAX_U7_M1_T13  1
    X_U7_M1_T13  CAPMIN_U7_M1_T13  1
    X_U7_M1_T13  MBAL_U6_T13  1
    X_U7_M1_T13  DEMAND_T13  1
    X_U7_M2_T13  NET_COST  -60.9
    X_U7_M2_T13  CAPMAX_U7_M2_T13  1
    X_U7_M2_T13  CAPMIN_U7_M2_T13  1
    X_U7_M2_T13  MBAL_U6_T13  1
    X_U7_M2_T13  DEMAND_T13  1
    S_U0_T13  NET_COST  2
    S_U0_T13  MBAL_U0_T13  1
    S_U0_T13  MBAL_U0_T14  -1
    S_U1_T13  NET_COST  2
    S_U1_T13  MBAL_U1_T13  1
    S_U1_T13  MBAL_U1_T14  -1
    S_U2_T13  NET_COST  2
    S_U2_T13  MBAL_U2_T13  1
    S_U2_T13  MBAL_U2_T14  -1
    S_U3_T13  NET_COST  2
    S_U3_T13  MBAL_U3_T13  1
    S_U3_T13  MBAL_U3_T14  -1
    S_U4_T13  NET_COST  2
    S_U4_T13  MBAL_U4_T13  1
    S_U4_T13  MBAL_U4_T14  -1
    S_U5_T13  NET_COST  2
    S_U5_T13  MBAL_U5_T13  1
    S_U5_T13  MBAL_U5_T14  -1
    S_U6_T13  NET_COST  2
    S_U6_T13  MBAL_U6_T13  1
    S_U6_T13  MBAL_U6_T14  -1
    S_U7_T13  NET_COST  2
    MARK6720  'MARKER'                 'INTORG'
    Z_U0_M0_T14  NET_COST  228
    Z_U0_M0_T14  MODE_U0_T14  1
    Z_U0_M0_T14  CAPMAX_U0_M0_T14  -300
    Z_U0_M0_T14  CAPMIN_U0_M0_T14  -90
    MARK6730  'MARKER'                 'INTEND'
    MARK6740  'MARKER'                 'INTORG'
    Z_U0_M1_T14  NET_COST  281
    Z_U0_M1_T14  MODE_U0_T14  1
    Z_U0_M1_T14  CAPMAX_U0_M1_T14  -169
    Z_U0_M1_T14  CAPMIN_U0_M1_T14  -50.7
    MARK6750  'MARKER'                 'INTEND'
    MARK6760  'MARKER'                 'INTORG'
    Z_U0_M2_T14  NET_COST  175
    Z_U0_M2_T14  MODE_U0_T14  1
    Z_U0_M2_T14  CAPMAX_U0_M2_T14  -205
    Z_U0_M2_T14  CAPMIN_U0_M2_T14  -61.5
    MARK6770  'MARKER'                 'INTEND'
    MARK6780  'MARKER'                 'INTORG'
    Z_U1_M0_T14  NET_COST  102
    Z_U1_M0_T14  MODE_U1_T14  1
    Z_U1_M0_T14  CAPMAX_U1_M0_T14  -255
    Z_U1_M0_T14  CAPMIN_U1_M0_T14  -76.5
    MARK6790  'MARKER'                 'INTEND'
    MARK6800  'MARKER'                 'INTORG'
    Z_U1_M1_T14  NET_COST  227
    Z_U1_M1_T14  MODE_U1_T14  1
    Z_U1_M1_T14  CAPMAX_U1_M1_T14  -315
    Z_U1_M1_T14  CAPMIN_U1_M1_T14  -94.5
    MARK6810  'MARKER'                 'INTEND'
    MARK6820  'MARKER'                 'INTORG'
    Z_U1_M2_T14  NET_COST  251
    Z_U1_M2_T14  MODE_U1_T14  1
    Z_U1_M2_T14  CAPMAX_U1_M2_T14  -240
    Z_U1_M2_T14  CAPMIN_U1_M2_T14  -72
    MARK6830  'MARKER'                 'INTEND'
    MARK6840  'MARKER'                 'INTORG'
    Z_U2_M0_T14  NET_COST  113
    Z_U2_M0_T14  MODE_U2_T14  1
    Z_U2_M0_T14  CAPMAX_U2_M0_T14  -300
    Z_U2_M0_T14  CAPMIN_U2_M0_T14  -90
    MARK6850  'MARKER'                 'INTEND'
    MARK6860  'MARKER'                 'INTORG'
    Z_U2_M1_T14  NET_COST  185
    Z_U2_M1_T14  MODE_U2_T14  1
    Z_U2_M1_T14  CAPMAX_U2_M1_T14  -170
    Z_U2_M1_T14  CAPMIN_U2_M1_T14  -51
    MARK6870  'MARKER'                 'INTEND'
    MARK6880  'MARKER'                 'INTORG'
    Z_U2_M2_T14  NET_COST  119
    Z_U2_M2_T14  MODE_U2_T14  1
    Z_U2_M2_T14  CAPMAX_U2_M2_T14  -256
    Z_U2_M2_T14  CAPMIN_U2_M2_T14  -76.8
    MARK6890  'MARKER'                 'INTEND'
    MARK6900  'MARKER'                 'INTORG'
    Z_U3_M0_T14  NET_COST  255
    Z_U3_M0_T14  MODE_U3_T14  1
    Z_U3_M0_T14  CAPMAX_U3_M0_T14  -175
    Z_U3_M0_T14  CAPMIN_U3_M0_T14  -52.5
    MARK6910  'MARKER'                 'INTEND'
    MARK6920  'MARKER'                 'INTORG'
    Z_U3_M1_T14  NET_COST  165
    Z_U3_M1_T14  MODE_U3_T14  1
    Z_U3_M1_T14  CAPMAX_U3_M1_T14  -300
    Z_U3_M1_T14  CAPMIN_U3_M1_T14  -90
    MARK6930  'MARKER'                 'INTEND'
    MARK6940  'MARKER'                 'INTORG'
    Z_U3_M2_T14  NET_COST  109
    Z_U3_M2_T14  MODE_U3_T14  1
    Z_U3_M2_T14  CAPMAX_U3_M2_T14  -335
    Z_U3_M2_T14  CAPMIN_U3_M2_T14  -100.5
    MARK6950  'MARKER'                 'INTEND'
    MARK6960  'MARKER'                 'INTORG'
    Z_U4_M0_T14  NET_COST  183
    Z_U4_M0_T14  MODE_U4_T14  1
    Z_U4_M0_T14  CAPMAX_U4_M0_T14  -210
    Z_U4_M0_T14  CAPMIN_U4_M0_T14  -63
    MARK6970  'MARKER'                 'INTEND'
    MARK6980  'MARKER'                 'INTORG'
    Z_U4_M1_T14  NET_COST  240
    Z_U4_M1_T14  MODE_U4_T14  1
    Z_U4_M1_T14  CAPMAX_U4_M1_T14  -242
    Z_U4_M1_T14  CAPMIN_U4_M1_T14  -72.6
    MARK6990  'MARKER'                 'INTEND'
    MARK7000  'MARKER'                 'INTORG'
    Z_U4_M2_T14  NET_COST  198
    Z_U4_M2_T14  MODE_U4_T14  1
    Z_U4_M2_T14  CAPMAX_U4_M2_T14  -192
    Z_U4_M2_T14  CAPMIN_U4_M2_T14  -57.6
    MARK7010  'MARKER'                 'INTEND'
    MARK7020  'MARKER'                 'INTORG'
    Z_U5_M0_T14  NET_COST  199
    Z_U5_M0_T14  MODE_U5_T14  1
    Z_U5_M0_T14  CAPMAX_U5_M0_T14  -227
    Z_U5_M0_T14  CAPMIN_U5_M0_T14  -68.1
    MARK7030  'MARKER'                 'INTEND'
    MARK7040  'MARKER'                 'INTORG'
    Z_U5_M1_T14  NET_COST  183
    Z_U5_M1_T14  MODE_U5_T14  1
    Z_U5_M1_T14  CAPMAX_U5_M1_T14  -237
    Z_U5_M1_T14  CAPMIN_U5_M1_T14  -71.1
    MARK7050  'MARKER'                 'INTEND'
    MARK7060  'MARKER'                 'INTORG'
    Z_U5_M2_T14  NET_COST  115
    Z_U5_M2_T14  MODE_U5_T14  1
    Z_U5_M2_T14  CAPMAX_U5_M2_T14  -314
    Z_U5_M2_T14  CAPMIN_U5_M2_T14  -94.2
    MARK7070  'MARKER'                 'INTEND'
    MARK7080  'MARKER'                 'INTORG'
    Z_U6_M0_T14  NET_COST  189
    Z_U6_M0_T14  MODE_U6_T14  1
    Z_U6_M0_T14  CAPMAX_U6_M0_T14  -349
    Z_U6_M0_T14  CAPMIN_U6_M0_T14  -104.7
    MARK7090  'MARKER'                 'INTEND'
    MARK7100  'MARKER'                 'INTORG'
    Z_U6_M1_T14  NET_COST  224
    Z_U6_M1_T14  MODE_U6_T14  1
    Z_U6_M1_T14  CAPMAX_U6_M1_T14  -265
    Z_U6_M1_T14  CAPMIN_U6_M1_T14  -79.5
    MARK7110  'MARKER'                 'INTEND'
    MARK7120  'MARKER'                 'INTORG'
    Z_U6_M2_T14  NET_COST  195
    Z_U6_M2_T14  MODE_U6_T14  1
    Z_U6_M2_T14  CAPMAX_U6_M2_T14  -315
    Z_U6_M2_T14  CAPMIN_U6_M2_T14  -94.5
    MARK7130  'MARKER'                 'INTEND'
    MARK7140  'MARKER'                 'INTORG'
    Z_U7_M0_T14  NET_COST  189
    Z_U7_M0_T14  MODE_U7_T14  1
    Z_U7_M0_T14  CAPMAX_U7_M0_T14  -212
    Z_U7_M0_T14  CAPMIN_U7_M0_T14  -63.6
    MARK7150  'MARKER'                 'INTEND'
    MARK7160  'MARKER'                 'INTORG'
    Z_U7_M1_T14  NET_COST  205
    Z_U7_M1_T14  MODE_U7_T14  1
    Z_U7_M1_T14  CAPMAX_U7_M1_T14  -223
    Z_U7_M1_T14  CAPMIN_U7_M1_T14  -66.9
    MARK7170  'MARKER'                 'INTEND'
    MARK7180  'MARKER'                 'INTORG'
    Z_U7_M2_T14  NET_COST  161
    Z_U7_M2_T14  MODE_U7_T14  1
    Z_U7_M2_T14  CAPMAX_U7_M2_T14  -287
    Z_U7_M2_T14  CAPMIN_U7_M2_T14  -86.1
    MARK7190  'MARKER'                 'INTEND'
    X_U0_M0_T14  NET_COST  33.9
    X_U0_M0_T14  CAPMAX_U0_M0_T14  1
    X_U0_M0_T14  CAPMIN_U0_M0_T14  1
    X_U0_M0_T14  MBAL_U0_T14  -0.9
    X_U0_M1_T14  NET_COST  18.4
    X_U0_M1_T14  CAPMAX_U0_M1_T14  1
    X_U0_M1_T14  CAPMIN_U0_M1_T14  1
    X_U0_M1_T14  MBAL_U0_T14  -0.9
    X_U0_M2_T14  NET_COST  29.4
    X_U0_M2_T14  CAPMAX_U0_M2_T14  1
    X_U0_M2_T14  CAPMIN_U0_M2_T14  1
    X_U0_M2_T14  MBAL_U0_T14  -0.9
    X_U1_M0_T14  NET_COST  24.8
    X_U1_M0_T14  CAPMAX_U1_M0_T14  1
    X_U1_M0_T14  CAPMIN_U1_M0_T14  1
    X_U1_M0_T14  MBAL_U0_T14  1
    X_U1_M0_T14  MBAL_U1_T14  -0.9
    X_U1_M1_T14  NET_COST  32.1
    X_U1_M1_T14  CAPMAX_U1_M1_T14  1
    X_U1_M1_T14  CAPMIN_U1_M1_T14  1
    X_U1_M1_T14  MBAL_U0_T14  1
    X_U1_M1_T14  MBAL_U1_T14  -0.9
    X_U1_M2_T14  NET_COST  38.6
    X_U1_M2_T14  CAPMAX_U1_M2_T14  1
    X_U1_M2_T14  CAPMIN_U1_M2_T14  1
    X_U1_M2_T14  MBAL_U0_T14  1
    X_U1_M2_T14  MBAL_U1_T14  -0.9
    X_U2_M0_T14  NET_COST  16.2
    X_U2_M0_T14  CAPMAX_U2_M0_T14  1
    X_U2_M0_T14  CAPMIN_U2_M0_T14  1
    X_U2_M0_T14  MBAL_U1_T14  1
    X_U2_M0_T14  MBAL_U2_T14  -0.9
    X_U2_M1_T14  NET_COST  18.7
    X_U2_M1_T14  CAPMAX_U2_M1_T14  1
    X_U2_M1_T14  CAPMIN_U2_M1_T14  1
    X_U2_M1_T14  MBAL_U1_T14  1
    X_U2_M1_T14  MBAL_U2_T14  -0.9
    X_U2_M2_T14  NET_COST  18.6
    X_U2_M2_T14  CAPMAX_U2_M2_T14  1
    X_U2_M2_T14  CAPMIN_U2_M2_T14  1
    X_U2_M2_T14  MBAL_U1_T14  1
    X_U2_M2_T14  MBAL_U2_T14  -0.9
    X_U3_M0_T14  NET_COST  26.2
    X_U3_M0_T14  CAPMAX_U3_M0_T14  1
    X_U3_M0_T14  CAPMIN_U3_M0_T14  1
    X_U3_M0_T14  MBAL_U2_T14  1
    X_U3_M0_T14  MBAL_U3_T14  -0.9
    X_U3_M1_T14  NET_COST  33.6
    X_U3_M1_T14  CAPMAX_U3_M1_T14  1
    X_U3_M1_T14  CAPMIN_U3_M1_T14  1
    X_U3_M1_T14  MBAL_U2_T14  1
    X_U3_M1_T14  MBAL_U3_T14  -0.9
    X_U3_M2_T14  NET_COST  35.1
    X_U3_M2_T14  CAPMAX_U3_M2_T14  1
    X_U3_M2_T14  CAPMIN_U3_M2_T14  1
    X_U3_M2_T14  MBAL_U2_T14  1
    X_U3_M2_T14  MBAL_U3_T14  -0.9
    X_U4_M0_T14  NET_COST  33.6
    X_U4_M0_T14  CAPMAX_U4_M0_T14  1
    X_U4_M0_T14  CAPMIN_U4_M0_T14  1
    X_U4_M0_T14  MBAL_U3_T14  1
    X_U4_M0_T14  MBAL_U4_T14  -0.9
    X_U4_M1_T14  NET_COST  15.5
    X_U4_M1_T14  CAPMAX_U4_M1_T14  1
    X_U4_M1_T14  CAPMIN_U4_M1_T14  1
    X_U4_M1_T14  MBAL_U3_T14  1
    X_U4_M1_T14  MBAL_U4_T14  -0.9
    X_U4_M2_T14  NET_COST  28.4
    X_U4_M2_T14  CAPMAX_U4_M2_T14  1
    X_U4_M2_T14  CAPMIN_U4_M2_T14  1
    X_U4_M2_T14  MBAL_U3_T14  1
    X_U4_M2_T14  MBAL_U4_T14  -0.9
    X_U5_M0_T14  NET_COST  30.2
    X_U5_M0_T14  CAPMAX_U5_M0_T14  1
    X_U5_M0_T14  CAPMIN_U5_M0_T14  1
    X_U5_M0_T14  MBAL_U4_T14  1
    X_U5_M0_T14  MBAL_U5_T14  -0.9
    X_U5_M1_T14  NET_COST  31.7
    X_U5_M1_T14  CAPMAX_U5_M1_T14  1
    X_U5_M1_T14  CAPMIN_U5_M1_T14  1
    X_U5_M1_T14  MBAL_U4_T14  1
    X_U5_M1_T14  MBAL_U5_T14  -0.9
    X_U5_M2_T14  NET_COST  17.3
    X_U5_M2_T14  CAPMAX_U5_M2_T14  1
    X_U5_M2_T14  CAPMIN_U5_M2_T14  1
    X_U5_M2_T14  MBAL_U4_T14  1
    X_U5_M2_T14  MBAL_U5_T14  -0.9
    X_U6_M0_T14  NET_COST  26.9
    X_U6_M0_T14  CAPMAX_U6_M0_T14  1
    X_U6_M0_T14  CAPMIN_U6_M0_T14  1
    X_U6_M0_T14  MBAL_U5_T14  1
    X_U6_M0_T14  MBAL_U6_T14  -0.9
    X_U6_M1_T14  NET_COST  29.9
    X_U6_M1_T14  CAPMAX_U6_M1_T14  1
    X_U6_M1_T14  CAPMIN_U6_M1_T14  1
    X_U6_M1_T14  MBAL_U5_T14  1
    X_U6_M1_T14  MBAL_U6_T14  -0.9
    X_U6_M2_T14  NET_COST  36.5
    X_U6_M2_T14  CAPMAX_U6_M2_T14  1
    X_U6_M2_T14  CAPMIN_U6_M2_T14  1
    X_U6_M2_T14  MBAL_U5_T14  1
    X_U6_M2_T14  MBAL_U6_T14  -0.9
    X_U7_M0_T14  NET_COST  -67.7
    X_U7_M0_T14  CAPMAX_U7_M0_T14  1
    X_U7_M0_T14  CAPMIN_U7_M0_T14  1
    X_U7_M0_T14  MBAL_U6_T14  1
    X_U7_M0_T14  DEMAND_T14  1
    X_U7_M1_T14  NET_COST  -72.6
    X_U7_M1_T14  CAPMAX_U7_M1_T14  1
    X_U7_M1_T14  CAPMIN_U7_M1_T14  1
    X_U7_M1_T14  MBAL_U6_T14  1
    X_U7_M1_T14  DEMAND_T14  1
    X_U7_M2_T14  NET_COST  -60.9
    X_U7_M2_T14  CAPMAX_U7_M2_T14  1
    X_U7_M2_T14  CAPMIN_U7_M2_T14  1
    X_U7_M2_T14  MBAL_U6_T14  1
    X_U7_M2_T14  DEMAND_T14  1
    S_U0_T14  NET_COST  2
    S_U0_T14  MBAL_U0_T14  1
    S_U0_T14  MBAL_U0_T15  -1
    S_U1_T14  NET_COST  2
    S_U1_T14  MBAL_U1_T14  1
    S_U1_T14  MBAL_U1_T15  -1
    S_U2_T14  NET_COST  2
    S_U2_T14  MBAL_U2_T14  1
    S_U2_T14  MBAL_U2_T15  -1
    S_U3_T14  NET_COST  2
    S_U3_T14  MBAL_U3_T14  1
    S_U3_T14  MBAL_U3_T15  -1
    S_U4_T14  NET_COST  2
    S_U4_T14  MBAL_U4_T14  1
    S_U4_T14  MBAL_U4_T15  -1
    S_U5_T14  NET_COST  2
    S_U5_T14  MBAL_U5_T14  1
    S_U5_T14  MBAL_U5_T15  -1
    S_U6_T14  NET_COST  2
    S_U6_T14  MBAL_U6_T14  1
    S_U6_T14  MBAL_U6_T15  -1
    S_U7_T14  NET_COST  2
    MARK7200  'MARKER'                 'INTORG'
    Z_U0_M0_T15  NET_COST  228
    Z_U0_M0_T15  MODE_U0_T15  1
    Z_U0_M0_T15  CAPMAX_U0_M0_T15  -300
    Z_U0_M0_T15  CAPMIN_U0_M0_T15  -90
    MARK7210  'MARKER'                 'INTEND'
    MARK7220  'MARKER'                 'INTORG'
    Z_U0_M1_T15  NET_COST  281
    Z_U0_M1_T15  MODE_U0_T15  1
    Z_U0_M1_T15  CAPMAX_U0_M1_T15  -169
    Z_U0_M1_T15  CAPMIN_U0_M1_T15  -50.7
    MARK7230  'MARKER'                 'INTEND'
    MARK7240  'MARKER'                 'INTORG'
    Z_U0_M2_T15  NET_COST  175
    Z_U0_M2_T15  MODE_U0_T15  1
    Z_U0_M2_T15  CAPMAX_U0_M2_T15  -205
    Z_U0_M2_T15  CAPMIN_U0_M2_T15  -61.5
    MARK7250  'MARKER'                 'INTEND'
    MARK7260  'MARKER'                 'INTORG'
    Z_U1_M0_T15  NET_COST  102
    Z_U1_M0_T15  MODE_U1_T15  1
    Z_U1_M0_T15  CAPMAX_U1_M0_T15  -255
    Z_U1_M0_T15  CAPMIN_U1_M0_T15  -76.5
    MARK7270  'MARKER'                 'INTEND'
    MARK7280  'MARKER'                 'INTORG'
    Z_U1_M1_T15  NET_COST  227
    Z_U1_M1_T15  MODE_U1_T15  1
    Z_U1_M1_T15  CAPMAX_U1_M1_T15  -315
    Z_U1_M1_T15  CAPMIN_U1_M1_T15  -94.5
    MARK7290  'MARKER'                 'INTEND'
    MARK7300  'MARKER'                 'INTORG'
    Z_U1_M2_T15  NET_COST  251
    Z_U1_M2_T15  MODE_U1_T15  1
    Z_U1_M2_T15  CAPMAX_U1_M2_T15  -240
    Z_U1_M2_T15  CAPMIN_U1_M2_T15  -72
    MARK7310  'MARKER'                 'INTEND'
    MARK7320  'MARKER'                 'INTORG'
    Z_U2_M0_T15  NET_COST  113
    Z_U2_M0_T15  MODE_U2_T15  1
    Z_U2_M0_T15  CAPMAX_U2_M0_T15  -300
    Z_U2_M0_T15  CAPMIN_U2_M0_T15  -90
    MARK7330  'MARKER'                 'INTEND'
    MARK7340  'MARKER'                 'INTORG'
    Z_U2_M1_T15  NET_COST  185
    Z_U2_M1_T15  MODE_U2_T15  1
    Z_U2_M1_T15  CAPMAX_U2_M1_T15  -170
    Z_U2_M1_T15  CAPMIN_U2_M1_T15  -51
    MARK7350  'MARKER'                 'INTEND'
    MARK7360  'MARKER'                 'INTORG'
    Z_U2_M2_T15  NET_COST  119
    Z_U2_M2_T15  MODE_U2_T15  1
    Z_U2_M2_T15  CAPMAX_U2_M2_T15  -256
    Z_U2_M2_T15  CAPMIN_U2_M2_T15  -76.8
    MARK7370  'MARKER'                 'INTEND'
    MARK7380  'MARKER'                 'INTORG'
    Z_U3_M0_T15  NET_COST  255
    Z_U3_M0_T15  MODE_U3_T15  1
    Z_U3_M0_T15  CAPMAX_U3_M0_T15  -175
    Z_U3_M0_T15  CAPMIN_U3_M0_T15  -52.5
    MARK7390  'MARKER'                 'INTEND'
    MARK7400  'MARKER'                 'INTORG'
    Z_U3_M1_T15  NET_COST  165
    Z_U3_M1_T15  MODE_U3_T15  1
    Z_U3_M1_T15  CAPMAX_U3_M1_T15  -300
    Z_U3_M1_T15  CAPMIN_U3_M1_T15  -90
    MARK7410  'MARKER'                 'INTEND'
    MARK7420  'MARKER'                 'INTORG'
    Z_U3_M2_T15  NET_COST  109
    Z_U3_M2_T15  MODE_U3_T15  1
    Z_U3_M2_T15  CAPMAX_U3_M2_T15  -335
    Z_U3_M2_T15  CAPMIN_U3_M2_T15  -100.5
    MARK7430  'MARKER'                 'INTEND'
    MARK7440  'MARKER'                 'INTORG'
    Z_U4_M0_T15  NET_COST  183
    Z_U4_M0_T15  MODE_U4_T15  1
    Z_U4_M0_T15  CAPMAX_U4_M0_T15  -210
    Z_U4_M0_T15  CAPMIN_U4_M0_T15  -63
    MARK7450  'MARKER'                 'INTEND'
    MARK7460  'MARKER'                 'INTORG'
    Z_U4_M1_T15  NET_COST  240
    Z_U4_M1_T15  MODE_U4_T15  1
    Z_U4_M1_T15  CAPMAX_U4_M1_T15  -242
    Z_U4_M1_T15  CAPMIN_U4_M1_T15  -72.6
    MARK7470  'MARKER'                 'INTEND'
    MARK7480  'MARKER'                 'INTORG'
    Z_U4_M2_T15  NET_COST  198
    Z_U4_M2_T15  MODE_U4_T15  1
    Z_U4_M2_T15  CAPMAX_U4_M2_T15  -192
    Z_U4_M2_T15  CAPMIN_U4_M2_T15  -57.6
    MARK7490  'MARKER'                 'INTEND'
    MARK7500  'MARKER'                 'INTORG'
    Z_U5_M0_T15  NET_COST  199
    Z_U5_M0_T15  MODE_U5_T15  1
    Z_U5_M0_T15  CAPMAX_U5_M0_T15  -227
    Z_U5_M0_T15  CAPMIN_U5_M0_T15  -68.1
    MARK7510  'MARKER'                 'INTEND'
    MARK7520  'MARKER'                 'INTORG'
    Z_U5_M1_T15  NET_COST  183
    Z_U5_M1_T15  MODE_U5_T15  1
    Z_U5_M1_T15  CAPMAX_U5_M1_T15  -237
    Z_U5_M1_T15  CAPMIN_U5_M1_T15  -71.1
    MARK7530  'MARKER'                 'INTEND'
    MARK7540  'MARKER'                 'INTORG'
    Z_U5_M2_T15  NET_COST  115
    Z_U5_M2_T15  MODE_U5_T15  1
    Z_U5_M2_T15  CAPMAX_U5_M2_T15  -314
    Z_U5_M2_T15  CAPMIN_U5_M2_T15  -94.2
    MARK7550  'MARKER'                 'INTEND'
    MARK7560  'MARKER'                 'INTORG'
    Z_U6_M0_T15  NET_COST  189
    Z_U6_M0_T15  MODE_U6_T15  1
    Z_U6_M0_T15  CAPMAX_U6_M0_T15  -349
    Z_U6_M0_T15  CAPMIN_U6_M0_T15  -104.7
    MARK7570  'MARKER'                 'INTEND'
    MARK7580  'MARKER'                 'INTORG'
    Z_U6_M1_T15  NET_COST  224
    Z_U6_M1_T15  MODE_U6_T15  1
    Z_U6_M1_T15  CAPMAX_U6_M1_T15  -265
    Z_U6_M1_T15  CAPMIN_U6_M1_T15  -79.5
    MARK7590  'MARKER'                 'INTEND'
    MARK7600  'MARKER'                 'INTORG'
    Z_U6_M2_T15  NET_COST  195
    Z_U6_M2_T15  MODE_U6_T15  1
    Z_U6_M2_T15  CAPMAX_U6_M2_T15  -315
    Z_U6_M2_T15  CAPMIN_U6_M2_T15  -94.5
    MARK7610  'MARKER'                 'INTEND'
    MARK7620  'MARKER'                 'INTORG'
    Z_U7_M0_T15  NET_COST  189
    Z_U7_M0_T15  MODE_U7_T15  1
    Z_U7_M0_T15  CAPMAX_U7_M0_T15  -212
    Z_U7_M0_T15  CAPMIN_U7_M0_T15  -63.6
    MARK7630  'MARKER'                 'INTEND'
    MARK7640  'MARKER'                 'INTORG'
    Z_U7_M1_T15  NET_COST  205
    Z_U7_M1_T15  MODE_U7_T15  1
    Z_U7_M1_T15  CAPMAX_U7_M1_T15  -223
    Z_U7_M1_T15  CAPMIN_U7_M1_T15  -66.9
    MARK7650  'MARKER'                 'INTEND'
    MARK7660  'MARKER'                 'INTORG'
    Z_U7_M2_T15  NET_COST  161
    Z_U7_M2_T15  MODE_U7_T15  1
    Z_U7_M2_T15  CAPMAX_U7_M2_T15  -287
    Z_U7_M2_T15  CAPMIN_U7_M2_T15  -86.1
    MARK7670  'MARKER'                 'INTEND'
    X_U0_M0_T15  NET_COST  33.9
    X_U0_M0_T15  CAPMAX_U0_M0_T15  1
    X_U0_M0_T15  CAPMIN_U0_M0_T15  1
    X_U0_M0_T15  MBAL_U0_T15  -0.9
    X_U0_M1_T15  NET_COST  18.4
    X_U0_M1_T15  CAPMAX_U0_M1_T15  1
    X_U0_M1_T15  CAPMIN_U0_M1_T15  1
    X_U0_M1_T15  MBAL_U0_T15  -0.9
    X_U0_M2_T15  NET_COST  29.4
    X_U0_M2_T15  CAPMAX_U0_M2_T15  1
    X_U0_M2_T15  CAPMIN_U0_M2_T15  1
    X_U0_M2_T15  MBAL_U0_T15  -0.9
    X_U1_M0_T15  NET_COST  24.8
    X_U1_M0_T15  CAPMAX_U1_M0_T15  1
    X_U1_M0_T15  CAPMIN_U1_M0_T15  1
    X_U1_M0_T15  MBAL_U0_T15  1
    X_U1_M0_T15  MBAL_U1_T15  -0.9
    X_U1_M1_T15  NET_COST  32.1
    X_U1_M1_T15  CAPMAX_U1_M1_T15  1
    X_U1_M1_T15  CAPMIN_U1_M1_T15  1
    X_U1_M1_T15  MBAL_U0_T15  1
    X_U1_M1_T15  MBAL_U1_T15  -0.9
    X_U1_M2_T15  NET_COST  38.6
    X_U1_M2_T15  CAPMAX_U1_M2_T15  1
    X_U1_M2_T15  CAPMIN_U1_M2_T15  1
    X_U1_M2_T15  MBAL_U0_T15  1
    X_U1_M2_T15  MBAL_U1_T15  -0.9
    X_U2_M0_T15  NET_COST  16.2
    X_U2_M0_T15  CAPMAX_U2_M0_T15  1
    X_U2_M0_T15  CAPMIN_U2_M0_T15  1
    X_U2_M0_T15  MBAL_U1_T15  1
    X_U2_M0_T15  MBAL_U2_T15  -0.9
    X_U2_M1_T15  NET_COST  18.7
    X_U2_M1_T15  CAPMAX_U2_M1_T15  1
    X_U2_M1_T15  CAPMIN_U2_M1_T15  1
    X_U2_M1_T15  MBAL_U1_T15  1
    X_U2_M1_T15  MBAL_U2_T15  -0.9
    X_U2_M2_T15  NET_COST  18.6
    X_U2_M2_T15  CAPMAX_U2_M2_T15  1
    X_U2_M2_T15  CAPMIN_U2_M2_T15  1
    X_U2_M2_T15  MBAL_U1_T15  1
    X_U2_M2_T15  MBAL_U2_T15  -0.9
    X_U3_M0_T15  NET_COST  26.2
    X_U3_M0_T15  CAPMAX_U3_M0_T15  1
    X_U3_M0_T15  CAPMIN_U3_M0_T15  1
    X_U3_M0_T15  MBAL_U2_T15  1
    X_U3_M0_T15  MBAL_U3_T15  -0.9
    X_U3_M1_T15  NET_COST  33.6
    X_U3_M1_T15  CAPMAX_U3_M1_T15  1
    X_U3_M1_T15  CAPMIN_U3_M1_T15  1
    X_U3_M1_T15  MBAL_U2_T15  1
    X_U3_M1_T15  MBAL_U3_T15  -0.9
    X_U3_M2_T15  NET_COST  35.1
    X_U3_M2_T15  CAPMAX_U3_M2_T15  1
    X_U3_M2_T15  CAPMIN_U3_M2_T15  1
    X_U3_M2_T15  MBAL_U2_T15  1
    X_U3_M2_T15  MBAL_U3_T15  -0.9
    X_U4_M0_T15  NET_COST  33.6
    X_U4_M0_T15  CAPMAX_U4_M0_T15  1
    X_U4_M0_T15  CAPMIN_U4_M0_T15  1
    X_U4_M0_T15  MBAL_U3_T15  1
    X_U4_M0_T15  MBAL_U4_T15  -0.9
    X_U4_M1_T15  NET_COST  15.5
    X_U4_M1_T15  CAPMAX_U4_M1_T15  1
    X_U4_M1_T15  CAPMIN_U4_M1_T15  1
    X_U4_M1_T15  MBAL_U3_T15  1
    X_U4_M1_T15  MBAL_U4_T15  -0.9
    X_U4_M2_T15  NET_COST  28.4
    X_U4_M2_T15  CAPMAX_U4_M2_T15  1
    X_U4_M2_T15  CAPMIN_U4_M2_T15  1
    X_U4_M2_T15  MBAL_U3_T15  1
    X_U4_M2_T15  MBAL_U4_T15  -0.9
    X_U5_M0_T15  NET_COST  30.2
    X_U5_M0_T15  CAPMAX_U5_M0_T15  1
    X_U5_M0_T15  CAPMIN_U5_M0_T15  1
    X_U5_M0_T15  MBAL_U4_T15  1
    X_U5_M0_T15  MBAL_U5_T15  -0.9
    X_U5_M1_T15  NET_COST  31.7
    X_U5_M1_T15  CAPMAX_U5_M1_T15  1
    X_U5_M1_T15  CAPMIN_U5_M1_T15  1
    X_U5_M1_T15  MBAL_U4_T15  1
    X_U5_M1_T15  MBAL_U5_T15  -0.9
    X_U5_M2_T15  NET_COST  17.3
    X_U5_M2_T15  CAPMAX_U5_M2_T15  1
    X_U5_M2_T15  CAPMIN_U5_M2_T15  1
    X_U5_M2_T15  MBAL_U4_T15  1
    X_U5_M2_T15  MBAL_U5_T15  -0.9
    X_U6_M0_T15  NET_COST  26.9
    X_U6_M0_T15  CAPMAX_U6_M0_T15  1
    X_U6_M0_T15  CAPMIN_U6_M0_T15  1
    X_U6_M0_T15  MBAL_U5_T15  1
    X_U6_M0_T15  MBAL_U6_T15  -0.9
    X_U6_M1_T15  NET_COST  29.9
    X_U6_M1_T15  CAPMAX_U6_M1_T15  1
    X_U6_M1_T15  CAPMIN_U6_M1_T15  1
    X_U6_M1_T15  MBAL_U5_T15  1
    X_U6_M1_T15  MBAL_U6_T15  -0.9
    X_U6_M2_T15  NET_COST  36.5
    X_U6_M2_T15  CAPMAX_U6_M2_T15  1
    X_U6_M2_T15  CAPMIN_U6_M2_T15  1
    X_U6_M2_T15  MBAL_U5_T15  1
    X_U6_M2_T15  MBAL_U6_T15  -0.9
    X_U7_M0_T15  NET_COST  -67.7
    X_U7_M0_T15  CAPMAX_U7_M0_T15  1
    X_U7_M0_T15  CAPMIN_U7_M0_T15  1
    X_U7_M0_T15  MBAL_U6_T15  1
    X_U7_M0_T15  DEMAND_T15  1
    X_U7_M1_T15  NET_COST  -72.6
    X_U7_M1_T15  CAPMAX_U7_M1_T15  1
    X_U7_M1_T15  CAPMIN_U7_M1_T15  1
    X_U7_M1_T15  MBAL_U6_T15  1
    X_U7_M1_T15  DEMAND_T15  1
    X_U7_M2_T15  NET_COST  -60.9
    X_U7_M2_T15  CAPMAX_U7_M2_T15  1
    X_U7_M2_T15  CAPMIN_U7_M2_T15  1
    X_U7_M2_T15  MBAL_U6_T15  1
    X_U7_M2_T15  DEMAND_T15  1
    S_U0_T15  NET_COST  2
    S_U0_T15  MBAL_U0_T15  1
    S_U0_T15  MBAL_U0_T16  -1
    S_U1_T15  NET_COST  2
    S_U1_T15  MBAL_U1_T15  1
    S_U1_T15  MBAL_U1_T16  -1
    S_U2_T15  NET_COST  2
    S_U2_T15  MBAL_U2_T15  1
    S_U2_T15  MBAL_U2_T16  -1
    S_U3_T15  NET_COST  2
    S_U3_T15  MBAL_U3_T15  1
    S_U3_T15  MBAL_U3_T16  -1
    S_U4_T15  NET_COST  2
    S_U4_T15  MBAL_U4_T15  1
    S_U4_T15  MBAL_U4_T16  -1
    S_U5_T15  NET_COST  2
    S_U5_T15  MBAL_U5_T15  1
    S_U5_T15  MBAL_U5_T16  -1
    S_U6_T15  NET_COST  2
    S_U6_T15  MBAL_U6_T15  1
    S_U6_T15  MBAL_U6_T16  -1
    S_U7_T15  NET_COST  2
    MARK7680  'MARKER'                 'INTORG'
    Z_U0_M0_T16  NET_COST  228
    Z_U0_M0_T16  MODE_U0_T16  1
    Z_U0_M0_T16  CAPMAX_U0_M0_T16  -300
    Z_U0_M0_T16  CAPMIN_U0_M0_T16  -90
    MARK7690  'MARKER'                 'INTEND'
    MARK7700  'MARKER'                 'INTORG'
    Z_U0_M1_T16  NET_COST  281
    Z_U0_M1_T16  MODE_U0_T16  1
    Z_U0_M1_T16  CAPMAX_U0_M1_T16  -169
    Z_U0_M1_T16  CAPMIN_U0_M1_T16  -50.7
    MARK7710  'MARKER'                 'INTEND'
    MARK7720  'MARKER'                 'INTORG'
    Z_U0_M2_T16  NET_COST  175
    Z_U0_M2_T16  MODE_U0_T16  1
    Z_U0_M2_T16  CAPMAX_U0_M2_T16  -205
    Z_U0_M2_T16  CAPMIN_U0_M2_T16  -61.5
    MARK7730  'MARKER'                 'INTEND'
    MARK7740  'MARKER'                 'INTORG'
    Z_U1_M0_T16  NET_COST  102
    Z_U1_M0_T16  MODE_U1_T16  1
    Z_U1_M0_T16  CAPMAX_U1_M0_T16  -255
    Z_U1_M0_T16  CAPMIN_U1_M0_T16  -76.5
    MARK7750  'MARKER'                 'INTEND'
    MARK7760  'MARKER'                 'INTORG'
    Z_U1_M1_T16  NET_COST  227
    Z_U1_M1_T16  MODE_U1_T16  1
    Z_U1_M1_T16  CAPMAX_U1_M1_T16  -315
    Z_U1_M1_T16  CAPMIN_U1_M1_T16  -94.5
    MARK7770  'MARKER'                 'INTEND'
    MARK7780  'MARKER'                 'INTORG'
    Z_U1_M2_T16  NET_COST  251
    Z_U1_M2_T16  MODE_U1_T16  1
    Z_U1_M2_T16  CAPMAX_U1_M2_T16  -240
    Z_U1_M2_T16  CAPMIN_U1_M2_T16  -72
    MARK7790  'MARKER'                 'INTEND'
    MARK7800  'MARKER'                 'INTORG'
    Z_U2_M0_T16  NET_COST  113
    Z_U2_M0_T16  MODE_U2_T16  1
    Z_U2_M0_T16  CAPMAX_U2_M0_T16  -300
    Z_U2_M0_T16  CAPMIN_U2_M0_T16  -90
    MARK7810  'MARKER'                 'INTEND'
    MARK7820  'MARKER'                 'INTORG'
    Z_U2_M1_T16  NET_COST  185
    Z_U2_M1_T16  MODE_U2_T16  1
    Z_U2_M1_T16  CAPMAX_U2_M1_T16  -170
    Z_U2_M1_T16  CAPMIN_U2_M1_T16  -51
    MARK7830  'MARKER'                 'INTEND'
    MARK7840  'MARKER'                 'INTORG'
    Z_U2_M2_T16  NET_COST  119
    Z_U2_M2_T16  MODE_U2_T16  1
    Z_U2_M2_T16  CAPMAX_U2_M2_T16  -256
    Z_U2_M2_T16  CAPMIN_U2_M2_T16  -76.8
    MARK7850  'MARKER'                 'INTEND'
    MARK7860  'MARKER'                 'INTORG'
    Z_U3_M0_T16  NET_COST  255
    Z_U3_M0_T16  MODE_U3_T16  1
    Z_U3_M0_T16  CAPMAX_U3_M0_T16  -175
    Z_U3_M0_T16  CAPMIN_U3_M0_T16  -52.5
    MARK7870  'MARKER'                 'INTEND'
    MARK7880  'MARKER'                 'INTORG'
    Z_U3_M1_T16  NET_COST  165
    Z_U3_M1_T16  MODE_U3_T16  1
    Z_U3_M1_T16  CAPMAX_U3_M1_T16  -300
    Z_U3_M1_T16  CAPMIN_U3_M1_T16  -90
    MARK7890  'MARKER'                 'INTEND'
    MARK7900  'MARKER'                 'INTORG'
    Z_U3_M2_T16  NET_COST  109
    Z_U3_M2_T16  MODE_U3_T16  1
    Z_U3_M2_T16  CAPMAX_U3_M2_T16  -335
    Z_U3_M2_T16  CAPMIN_U3_M2_T16  -100.5
    MARK7910  'MARKER'                 'INTEND'
    MARK7920  'MARKER'                 'INTORG'
    Z_U4_M0_T16  NET_COST  183
    Z_U4_M0_T16  MODE_U4_T16  1
    Z_U4_M0_T16  CAPMAX_U4_M0_T16  -210
    Z_U4_M0_T16  CAPMIN_U4_M0_T16  -63
    MARK7930  'MARKER'                 'INTEND'
    MARK7940  'MARKER'                 'INTORG'
    Z_U4_M1_T16  NET_COST  240
    Z_U4_M1_T16  MODE_U4_T16  1
    Z_U4_M1_T16  CAPMAX_U4_M1_T16  -242
    Z_U4_M1_T16  CAPMIN_U4_M1_T16  -72.6
    MARK7950  'MARKER'                 'INTEND'
    MARK7960  'MARKER'                 'INTORG'
    Z_U4_M2_T16  NET_COST  198
    Z_U4_M2_T16  MODE_U4_T16  1
    Z_U4_M2_T16  CAPMAX_U4_M2_T16  -192
    Z_U4_M2_T16  CAPMIN_U4_M2_T16  -57.6
    MARK7970  'MARKER'                 'INTEND'
    MARK7980  'MARKER'                 'INTORG'
    Z_U5_M0_T16  NET_COST  199
    Z_U5_M0_T16  MODE_U5_T16  1
    Z_U5_M0_T16  CAPMAX_U5_M0_T16  -227
    Z_U5_M0_T16  CAPMIN_U5_M0_T16  -68.1
    MARK7990  'MARKER'                 'INTEND'
    MARK8000  'MARKER'                 'INTORG'
    Z_U5_M1_T16  NET_COST  183
    Z_U5_M1_T16  MODE_U5_T16  1
    Z_U5_M1_T16  CAPMAX_U5_M1_T16  -237
    Z_U5_M1_T16  CAPMIN_U5_M1_T16  -71.1
    MARK8010  'MARKER'                 'INTEND'
    MARK8020  'MARKER'                 'INTORG'
    Z_U5_M2_T16  NET_COST  115
    Z_U5_M2_T16  MODE_U5_T16  1
    Z_U5_M2_T16  CAPMAX_U5_M2_T16  -314
    Z_U5_M2_T16  CAPMIN_U5_M2_T16  -94.2
    MARK8030  'MARKER'                 'INTEND'
    MARK8040  'MARKER'                 'INTORG'
    Z_U6_M0_T16  NET_COST  189
    Z_U6_M0_T16  MODE_U6_T16  1
    Z_U6_M0_T16  CAPMAX_U6_M0_T16  -349
    Z_U6_M0_T16  CAPMIN_U6_M0_T16  -104.7
    MARK8050  'MARKER'                 'INTEND'
    MARK8060  'MARKER'                 'INTORG'
    Z_U6_M1_T16  NET_COST  224
    Z_U6_M1_T16  MODE_U6_T16  1
    Z_U6_M1_T16  CAPMAX_U6_M1_T16  -265
    Z_U6_M1_T16  CAPMIN_U6_M1_T16  -79.5
    MARK8070  'MARKER'                 'INTEND'
    MARK8080  'MARKER'                 'INTORG'
    Z_U6_M2_T16  NET_COST  195
    Z_U6_M2_T16  MODE_U6_T16  1
    Z_U6_M2_T16  CAPMAX_U6_M2_T16  -315
    Z_U6_M2_T16  CAPMIN_U6_M2_T16  -94.5
    MARK8090  'MARKER'                 'INTEND'
    MARK8100  'MARKER'                 'INTORG'
    Z_U7_M0_T16  NET_COST  189
    Z_U7_M0_T16  MODE_U7_T16  1
    Z_U7_M0_T16  CAPMAX_U7_M0_T16  -212
    Z_U7_M0_T16  CAPMIN_U7_M0_T16  -63.6
    MARK8110  'MARKER'                 'INTEND'
    MARK8120  'MARKER'                 'INTORG'
    Z_U7_M1_T16  NET_COST  205
    Z_U7_M1_T16  MODE_U7_T16  1
    Z_U7_M1_T16  CAPMAX_U7_M1_T16  -223
    Z_U7_M1_T16  CAPMIN_U7_M1_T16  -66.9
    MARK8130  'MARKER'                 'INTEND'
    MARK8140  'MARKER'                 'INTORG'
    Z_U7_M2_T16  NET_COST  161
    Z_U7_M2_T16  MODE_U7_T16  1
    Z_U7_M2_T16  CAPMAX_U7_M2_T16  -287
    Z_U7_M2_T16  CAPMIN_U7_M2_T16  -86.1
    MARK8150  'MARKER'                 'INTEND'
    X_U0_M0_T16  NET_COST  33.9
    X_U0_M0_T16  CAPMAX_U0_M0_T16  1
    X_U0_M0_T16  CAPMIN_U0_M0_T16  1
    X_U0_M0_T16  MBAL_U0_T16  -0.9
    X_U0_M1_T16  NET_COST  18.4
    X_U0_M1_T16  CAPMAX_U0_M1_T16  1
    X_U0_M1_T16  CAPMIN_U0_M1_T16  1
    X_U0_M1_T16  MBAL_U0_T16  -0.9
    X_U0_M2_T16  NET_COST  29.4
    X_U0_M2_T16  CAPMAX_U0_M2_T16  1
    X_U0_M2_T16  CAPMIN_U0_M2_T16  1
    X_U0_M2_T16  MBAL_U0_T16  -0.9
    X_U1_M0_T16  NET_COST  24.8
    X_U1_M0_T16  CAPMAX_U1_M0_T16  1
    X_U1_M0_T16  CAPMIN_U1_M0_T16  1
    X_U1_M0_T16  MBAL_U0_T16  1
    X_U1_M0_T16  MBAL_U1_T16  -0.9
    X_U1_M1_T16  NET_COST  32.1
    X_U1_M1_T16  CAPMAX_U1_M1_T16  1
    X_U1_M1_T16  CAPMIN_U1_M1_T16  1
    X_U1_M1_T16  MBAL_U0_T16  1
    X_U1_M1_T16  MBAL_U1_T16  -0.9
    X_U1_M2_T16  NET_COST  38.6
    X_U1_M2_T16  CAPMAX_U1_M2_T16  1
    X_U1_M2_T16  CAPMIN_U1_M2_T16  1
    X_U1_M2_T16  MBAL_U0_T16  1
    X_U1_M2_T16  MBAL_U1_T16  -0.9
    X_U2_M0_T16  NET_COST  16.2
    X_U2_M0_T16  CAPMAX_U2_M0_T16  1
    X_U2_M0_T16  CAPMIN_U2_M0_T16  1
    X_U2_M0_T16  MBAL_U1_T16  1
    X_U2_M0_T16  MBAL_U2_T16  -0.9
    X_U2_M1_T16  NET_COST  18.7
    X_U2_M1_T16  CAPMAX_U2_M1_T16  1
    X_U2_M1_T16  CAPMIN_U2_M1_T16  1
    X_U2_M1_T16  MBAL_U1_T16  1
    X_U2_M1_T16  MBAL_U2_T16  -0.9
    X_U2_M2_T16  NET_COST  18.6
    X_U2_M2_T16  CAPMAX_U2_M2_T16  1
    X_U2_M2_T16  CAPMIN_U2_M2_T16  1
    X_U2_M2_T16  MBAL_U1_T16  1
    X_U2_M2_T16  MBAL_U2_T16  -0.9
    X_U3_M0_T16  NET_COST  26.2
    X_U3_M0_T16  CAPMAX_U3_M0_T16  1
    X_U3_M0_T16  CAPMIN_U3_M0_T16  1
    X_U3_M0_T16  MBAL_U2_T16  1
    X_U3_M0_T16  MBAL_U3_T16  -0.9
    X_U3_M1_T16  NET_COST  33.6
    X_U3_M1_T16  CAPMAX_U3_M1_T16  1
    X_U3_M1_T16  CAPMIN_U3_M1_T16  1
    X_U3_M1_T16  MBAL_U2_T16  1
    X_U3_M1_T16  MBAL_U3_T16  -0.9
    X_U3_M2_T16  NET_COST  35.1
    X_U3_M2_T16  CAPMAX_U3_M2_T16  1
    X_U3_M2_T16  CAPMIN_U3_M2_T16  1
    X_U3_M2_T16  MBAL_U2_T16  1
    X_U3_M2_T16  MBAL_U3_T16  -0.9
    X_U4_M0_T16  NET_COST  33.6
    X_U4_M0_T16  CAPMAX_U4_M0_T16  1
    X_U4_M0_T16  CAPMIN_U4_M0_T16  1
    X_U4_M0_T16  MBAL_U3_T16  1
    X_U4_M0_T16  MBAL_U4_T16  -0.9
    X_U4_M1_T16  NET_COST  15.5
    X_U4_M1_T16  CAPMAX_U4_M1_T16  1
    X_U4_M1_T16  CAPMIN_U4_M1_T16  1
    X_U4_M1_T16  MBAL_U3_T16  1
    X_U4_M1_T16  MBAL_U4_T16  -0.9
    X_U4_M2_T16  NET_COST  28.4
    X_U4_M2_T16  CAPMAX_U4_M2_T16  1
    X_U4_M2_T16  CAPMIN_U4_M2_T16  1
    X_U4_M2_T16  MBAL_U3_T16  1
    X_U4_M2_T16  MBAL_U4_T16  -0.9
    X_U5_M0_T16  NET_COST  30.2
    X_U5_M0_T16  CAPMAX_U5_M0_T16  1
    X_U5_M0_T16  CAPMIN_U5_M0_T16  1
    X_U5_M0_T16  MBAL_U4_T16  1
    X_U5_M0_T16  MBAL_U5_T16  -0.9
    X_U5_M1_T16  NET_COST  31.7
    X_U5_M1_T16  CAPMAX_U5_M1_T16  1
    X_U5_M1_T16  CAPMIN_U5_M1_T16  1
    X_U5_M1_T16  MBAL_U4_T16  1
    X_U5_M1_T16  MBAL_U5_T16  -0.9
    X_U5_M2_T16  NET_COST  17.3
    X_U5_M2_T16  CAPMAX_U5_M2_T16  1
    X_U5_M2_T16  CAPMIN_U5_M2_T16  1
    X_U5_M2_T16  MBAL_U4_T16  1
    X_U5_M2_T16  MBAL_U5_T16  -0.9
    X_U6_M0_T16  NET_COST  26.9
    X_U6_M0_T16  CAPMAX_U6_M0_T16  1
    X_U6_M0_T16  CAPMIN_U6_M0_T16  1
    X_U6_M0_T16  MBAL_U5_T16  1
    X_U6_M0_T16  MBAL_U6_T16  -0.9
    X_U6_M1_T16  NET_COST  29.9
    X_U6_M1_T16  CAPMAX_U6_M1_T16  1
    X_U6_M1_T16  CAPMIN_U6_M1_T16  1
    X_U6_M1_T16  MBAL_U5_T16  1
    X_U6_M1_T16  MBAL_U6_T16  -0.9
    X_U6_M2_T16  NET_COST  36.5
    X_U6_M2_T16  CAPMAX_U6_M2_T16  1
    X_U6_M2_T16  CAPMIN_U6_M2_T16  1
    X_U6_M2_T16  MBAL_U5_T16  1
    X_U6_M2_T16  MBAL_U6_T16  -0.9
    X_U7_M0_T16  NET_COST  -67.7
    X_U7_M0_T16  CAPMAX_U7_M0_T16  1
    X_U7_M0_T16  CAPMIN_U7_M0_T16  1
    X_U7_M0_T16  MBAL_U6_T16  1
    X_U7_M0_T16  DEMAND_T16  1
    X_U7_M1_T16  NET_COST  -72.6
    X_U7_M1_T16  CAPMAX_U7_M1_T16  1
    X_U7_M1_T16  CAPMIN_U7_M1_T16  1
    X_U7_M1_T16  MBAL_U6_T16  1
    X_U7_M1_T16  DEMAND_T16  1
    X_U7_M2_T16  NET_COST  -60.9
    X_U7_M2_T16  CAPMAX_U7_M2_T16  1
    X_U7_M2_T16  CAPMIN_U7_M2_T16  1
    X_U7_M2_T16  MBAL_U6_T16  1
    X_U7_M2_T16  DEMAND_T16  1
    S_U0_T16  NET_COST  2
    S_U0_T16  MBAL_U0_T16  1
    S_U0_T16  MBAL_U0_T17  -1
    S_U1_T16  NET_COST  2
    S_U1_T16  MBAL_U1_T16  1
    S_U1_T16  MBAL_U1_T17  -1
    S_U2_T16  NET_COST  2
    S_U2_T16  MBAL_U2_T16  1
    S_U2_T16  MBAL_U2_T17  -1
    S_U3_T16  NET_COST  2
    S_U3_T16  MBAL_U3_T16  1
    S_U3_T16  MBAL_U3_T17  -1
    S_U4_T16  NET_COST  2
    S_U4_T16  MBAL_U4_T16  1
    S_U4_T16  MBAL_U4_T17  -1
    S_U5_T16  NET_COST  2
    S_U5_T16  MBAL_U5_T16  1
    S_U5_T16  MBAL_U5_T17  -1
    S_U6_T16  NET_COST  2
    S_U6_T16  MBAL_U6_T16  1
    S_U6_T16  MBAL_U6_T17  -1
    S_U7_T16  NET_COST  2
    MARK8160  'MARKER'                 'INTORG'
    Z_U0_M0_T17  NET_COST  228
    Z_U0_M0_T17  MODE_U0_T17  1
    Z_U0_M0_T17  CAPMAX_U0_M0_T17  -300
    Z_U0_M0_T17  CAPMIN_U0_M0_T17  -90
    MARK8170  'MARKER'                 'INTEND'
    MARK8180  'MARKER'                 'INTORG'
    Z_U0_M1_T17  NET_COST  281
    Z_U0_M1_T17  MODE_U0_T17  1
    Z_U0_M1_T17  CAPMAX_U0_M1_T17  -169
    Z_U0_M1_T17  CAPMIN_U0_M1_T17  -50.7
    MARK8190  'MARKER'                 'INTEND'
    MARK8200  'MARKER'                 'INTORG'
    Z_U0_M2_T17  NET_COST  175
    Z_U0_M2_T17  MODE_U0_T17  1
    Z_U0_M2_T17  CAPMAX_U0_M2_T17  -205
    Z_U0_M2_T17  CAPMIN_U0_M2_T17  -61.5
    MARK8210  'MARKER'                 'INTEND'
    MARK8220  'MARKER'                 'INTORG'
    Z_U1_M0_T17  NET_COST  102
    Z_U1_M0_T17  MODE_U1_T17  1
    Z_U1_M0_T17  CAPMAX_U1_M0_T17  -255
    Z_U1_M0_T17  CAPMIN_U1_M0_T17  -76.5
    MARK8230  'MARKER'                 'INTEND'
    MARK8240  'MARKER'                 'INTORG'
    Z_U1_M1_T17  NET_COST  227
    Z_U1_M1_T17  MODE_U1_T17  1
    Z_U1_M1_T17  CAPMAX_U1_M1_T17  -315
    Z_U1_M1_T17  CAPMIN_U1_M1_T17  -94.5
    MARK8250  'MARKER'                 'INTEND'
    MARK8260  'MARKER'                 'INTORG'
    Z_U1_M2_T17  NET_COST  251
    Z_U1_M2_T17  MODE_U1_T17  1
    Z_U1_M2_T17  CAPMAX_U1_M2_T17  -240
    Z_U1_M2_T17  CAPMIN_U1_M2_T17  -72
    MARK8270  'MARKER'                 'INTEND'
    MARK8280  'MARKER'                 'INTORG'
    Z_U2_M0_T17  NET_COST  113
    Z_U2_M0_T17  MODE_U2_T17  1
    Z_U2_M0_T17  CAPMAX_U2_M0_T17  -300
    Z_U2_M0_T17  CAPMIN_U2_M0_T17  -90
    MARK8290  'MARKER'                 'INTEND'
    MARK8300  'MARKER'                 'INTORG'
    Z_U2_M1_T17  NET_COST  185
    Z_U2_M1_T17  MODE_U2_T17  1
    Z_U2_M1_T17  CAPMAX_U2_M1_T17  -170
    Z_U2_M1_T17  CAPMIN_U2_M1_T17  -51
    MARK8310  'MARKER'                 'INTEND'
    MARK8320  'MARKER'                 'INTORG'
    Z_U2_M2_T17  NET_COST  119
    Z_U2_M2_T17  MODE_U2_T17  1
    Z_U2_M2_T17  CAPMAX_U2_M2_T17  -256
    Z_U2_M2_T17  CAPMIN_U2_M2_T17  -76.8
    MARK8330  'MARKER'                 'INTEND'
    MARK8340  'MARKER'                 'INTORG'
    Z_U3_M0_T17  NET_COST  255
    Z_U3_M0_T17  MODE_U3_T17  1
    Z_U3_M0_T17  CAPMAX_U3_M0_T17  -175
    Z_U3_M0_T17  CAPMIN_U3_M0_T17  -52.5
    MARK8350  'MARKER'                 'INTEND'
    MARK8360  'MARKER'                 'INTORG'
    Z_U3_M1_T17  NET_COST  165
    Z_U3_M1_T17  MODE_U3_T17  1
    Z_U3_M1_T17  CAPMAX_U3_M1_T17  -300
    Z_U3_M1_T17  CAPMIN_U3_M1_T17  -90
    MARK8370  'MARKER'                 'INTEND'
    MARK8380  'MARKER'                 'INTORG'
    Z_U3_M2_T17  NET_COST  109
    Z_U3_M2_T17  MODE_U3_T17  1
    Z_U3_M2_T17  CAPMAX_U3_M2_T17  -335
    Z_U3_M2_T17  CAPMIN_U3_M2_T17  -100.5
    MARK8390  'MARKER'                 'INTEND'
    MARK8400  'MARKER'                 'INTORG'
    Z_U4_M0_T17  NET_COST  183
    Z_U4_M0_T17  MODE_U4_T17  1
    Z_U4_M0_T17  CAPMAX_U4_M0_T17  -210
    Z_U4_M0_T17  CAPMIN_U4_M0_T17  -63
    MARK8410  'MARKER'                 'INTEND'
    MARK8420  'MARKER'                 'INTORG'
    Z_U4_M1_T17  NET_COST  240
    Z_U4_M1_T17  MODE_U4_T17  1
    Z_U4_M1_T17  CAPMAX_U4_M1_T17  -242
    Z_U4_M1_T17  CAPMIN_U4_M1_T17  -72.6
    MARK8430  'MARKER'                 'INTEND'
    MARK8440  'MARKER'                 'INTORG'
    Z_U4_M2_T17  NET_COST  198
    Z_U4_M2_T17  MODE_U4_T17  1
    Z_U4_M2_T17  CAPMAX_U4_M2_T17  -192
    Z_U4_M2_T17  CAPMIN_U4_M2_T17  -57.6
    MARK8450  'MARKER'                 'INTEND'
    MARK8460  'MARKER'                 'INTORG'
    Z_U5_M0_T17  NET_COST  199
    Z_U5_M0_T17  MODE_U5_T17  1
    Z_U5_M0_T17  CAPMAX_U5_M0_T17  -227
    Z_U5_M0_T17  CAPMIN_U5_M0_T17  -68.1
    MARK8470  'MARKER'                 'INTEND'
    MARK8480  'MARKER'                 'INTORG'
    Z_U5_M1_T17  NET_COST  183
    Z_U5_M1_T17  MODE_U5_T17  1
    Z_U5_M1_T17  CAPMAX_U5_M1_T17  -237
    Z_U5_M1_T17  CAPMIN_U5_M1_T17  -71.1
    MARK8490  'MARKER'                 'INTEND'
    MARK8500  'MARKER'                 'INTORG'
    Z_U5_M2_T17  NET_COST  115
    Z_U5_M2_T17  MODE_U5_T17  1
    Z_U5_M2_T17  CAPMAX_U5_M2_T17  -314
    Z_U5_M2_T17  CAPMIN_U5_M2_T17  -94.2
    MARK8510  'MARKER'                 'INTEND'
    MARK8520  'MARKER'                 'INTORG'
    Z_U6_M0_T17  NET_COST  189
    Z_U6_M0_T17  MODE_U6_T17  1
    Z_U6_M0_T17  CAPMAX_U6_M0_T17  -349
    Z_U6_M0_T17  CAPMIN_U6_M0_T17  -104.7
    MARK8530  'MARKER'                 'INTEND'
    MARK8540  'MARKER'                 'INTORG'
    Z_U6_M1_T17  NET_COST  224
    Z_U6_M1_T17  MODE_U6_T17  1
    Z_U6_M1_T17  CAPMAX_U6_M1_T17  -265
    Z_U6_M1_T17  CAPMIN_U6_M1_T17  -79.5
    MARK8550  'MARKER'                 'INTEND'
    MARK8560  'MARKER'                 'INTORG'
    Z_U6_M2_T17  NET_COST  195
    Z_U6_M2_T17  MODE_U6_T17  1
    Z_U6_M2_T17  CAPMAX_U6_M2_T17  -315
    Z_U6_M2_T17  CAPMIN_U6_M2_T17  -94.5
    MARK8570  'MARKER'                 'INTEND'
    MARK8580  'MARKER'                 'INTORG'
    Z_U7_M0_T17  NET_COST  189
    Z_U7_M0_T17  MODE_U7_T17  1
    Z_U7_M0_T17  CAPMAX_U7_M0_T17  -212
    Z_U7_M0_T17  CAPMIN_U7_M0_T17  -63.6
    MARK8590  'MARKER'                 'INTEND'
    MARK8600  'MARKER'                 'INTORG'
    Z_U7_M1_T17  NET_COST  205
    Z_U7_M1_T17  MODE_U7_T17  1
    Z_U7_M1_T17  CAPMAX_U7_M1_T17  -223
    Z_U7_M1_T17  CAPMIN_U7_M1_T17  -66.9
    MARK8610  'MARKER'                 'INTEND'
    MARK8620  'MARKER'                 'INTORG'
    Z_U7_M2_T17  NET_COST  161
    Z_U7_M2_T17  MODE_U7_T17  1
    Z_U7_M2_T17  CAPMAX_U7_M2_T17  -287
    Z_U7_M2_T17  CAPMIN_U7_M2_T17  -86.1
    MARK8630  'MARKER'                 'INTEND'
    X_U0_M0_T17  NET_COST  33.9
    X_U0_M0_T17  CAPMAX_U0_M0_T17  1
    X_U0_M0_T17  CAPMIN_U0_M0_T17  1
    X_U0_M0_T17  MBAL_U0_T17  -0.9
    X_U0_M1_T17  NET_COST  18.4
    X_U0_M1_T17  CAPMAX_U0_M1_T17  1
    X_U0_M1_T17  CAPMIN_U0_M1_T17  1
    X_U0_M1_T17  MBAL_U0_T17  -0.9
    X_U0_M2_T17  NET_COST  29.4
    X_U0_M2_T17  CAPMAX_U0_M2_T17  1
    X_U0_M2_T17  CAPMIN_U0_M2_T17  1
    X_U0_M2_T17  MBAL_U0_T17  -0.9
    X_U1_M0_T17  NET_COST  24.8
    X_U1_M0_T17  CAPMAX_U1_M0_T17  1
    X_U1_M0_T17  CAPMIN_U1_M0_T17  1
    X_U1_M0_T17  MBAL_U0_T17  1
    X_U1_M0_T17  MBAL_U1_T17  -0.9
    X_U1_M1_T17  NET_COST  32.1
    X_U1_M1_T17  CAPMAX_U1_M1_T17  1
    X_U1_M1_T17  CAPMIN_U1_M1_T17  1
    X_U1_M1_T17  MBAL_U0_T17  1
    X_U1_M1_T17  MBAL_U1_T17  -0.9
    X_U1_M2_T17  NET_COST  38.6
    X_U1_M2_T17  CAPMAX_U1_M2_T17  1
    X_U1_M2_T17  CAPMIN_U1_M2_T17  1
    X_U1_M2_T17  MBAL_U0_T17  1
    X_U1_M2_T17  MBAL_U1_T17  -0.9
    X_U2_M0_T17  NET_COST  16.2
    X_U2_M0_T17  CAPMAX_U2_M0_T17  1
    X_U2_M0_T17  CAPMIN_U2_M0_T17  1
    X_U2_M0_T17  MBAL_U1_T17  1
    X_U2_M0_T17  MBAL_U2_T17  -0.9
    X_U2_M1_T17  NET_COST  18.7
    X_U2_M1_T17  CAPMAX_U2_M1_T17  1
    X_U2_M1_T17  CAPMIN_U2_M1_T17  1
    X_U2_M1_T17  MBAL_U1_T17  1
    X_U2_M1_T17  MBAL_U2_T17  -0.9
    X_U2_M2_T17  NET_COST  18.6
    X_U2_M2_T17  CAPMAX_U2_M2_T17  1
    X_U2_M2_T17  CAPMIN_U2_M2_T17  1
    X_U2_M2_T17  MBAL_U1_T17  1
    X_U2_M2_T17  MBAL_U2_T17  -0.9
    X_U3_M0_T17  NET_COST  26.2
    X_U3_M0_T17  CAPMAX_U3_M0_T17  1
    X_U3_M0_T17  CAPMIN_U3_M0_T17  1
    X_U3_M0_T17  MBAL_U2_T17  1
    X_U3_M0_T17  MBAL_U3_T17  -0.9
    X_U3_M1_T17  NET_COST  33.6
    X_U3_M1_T17  CAPMAX_U3_M1_T17  1
    X_U3_M1_T17  CAPMIN_U3_M1_T17  1
    X_U3_M1_T17  MBAL_U2_T17  1
    X_U3_M1_T17  MBAL_U3_T17  -0.9
    X_U3_M2_T17  NET_COST  35.1
    X_U3_M2_T17  CAPMAX_U3_M2_T17  1
    X_U3_M2_T17  CAPMIN_U3_M2_T17  1
    X_U3_M2_T17  MBAL_U2_T17  1
    X_U3_M2_T17  MBAL_U3_T17  -0.9
    X_U4_M0_T17  NET_COST  33.6
    X_U4_M0_T17  CAPMAX_U4_M0_T17  1
    X_U4_M0_T17  CAPMIN_U4_M0_T17  1
    X_U4_M0_T17  MBAL_U3_T17  1
    X_U4_M0_T17  MBAL_U4_T17  -0.9
    X_U4_M1_T17  NET_COST  15.5
    X_U4_M1_T17  CAPMAX_U4_M1_T17  1
    X_U4_M1_T17  CAPMIN_U4_M1_T17  1
    X_U4_M1_T17  MBAL_U3_T17  1
    X_U4_M1_T17  MBAL_U4_T17  -0.9
    X_U4_M2_T17  NET_COST  28.4
    X_U4_M2_T17  CAPMAX_U4_M2_T17  1
    X_U4_M2_T17  CAPMIN_U4_M2_T17  1
    X_U4_M2_T17  MBAL_U3_T17  1
    X_U4_M2_T17  MBAL_U4_T17  -0.9
    X_U5_M0_T17  NET_COST  30.2
    X_U5_M0_T17  CAPMAX_U5_M0_T17  1
    X_U5_M0_T17  CAPMIN_U5_M0_T17  1
    X_U5_M0_T17  MBAL_U4_T17  1
    X_U5_M0_T17  MBAL_U5_T17  -0.9
    X_U5_M1_T17  NET_COST  31.7
    X_U5_M1_T17  CAPMAX_U5_M1_T17  1
    X_U5_M1_T17  CAPMIN_U5_M1_T17  1
    X_U5_M1_T17  MBAL_U4_T17  1
    X_U5_M1_T17  MBAL_U5_T17  -0.9
    X_U5_M2_T17  NET_COST  17.3
    X_U5_M2_T17  CAPMAX_U5_M2_T17  1
    X_U5_M2_T17  CAPMIN_U5_M2_T17  1
    X_U5_M2_T17  MBAL_U4_T17  1
    X_U5_M2_T17  MBAL_U5_T17  -0.9
    X_U6_M0_T17  NET_COST  26.9
    X_U6_M0_T17  CAPMAX_U6_M0_T17  1
    X_U6_M0_T17  CAPMIN_U6_M0_T17  1
    X_U6_M0_T17  MBAL_U5_T17  1
    X_U6_M0_T17  MBAL_U6_T17  -0.9
    X_U6_M1_T17  NET_COST  29.9
    X_U6_M1_T17  CAPMAX_U6_M1_T17  1
    X_U6_M1_T17  CAPMIN_U6_M1_T17  1
    X_U6_M1_T17  MBAL_U5_T17  1
    X_U6_M1_T17  MBAL_U6_T17  -0.9
    X_U6_M2_T17  NET_COST  36.5
    X_U6_M2_T17  CAPMAX_U6_M2_T17  1
    X_U6_M2_T17  CAPMIN_U6_M2_T17  1
    X_U6_M2_T17  MBAL_U5_T17  1
    X_U6_M2_T17  MBAL_U6_T17  -0.9
    X_U7_M0_T17  NET_COST  -67.7
    X_U7_M0_T17  CAPMAX_U7_M0_T17  1
    X_U7_M0_T17  CAPMIN_U7_M0_T17  1
    X_U7_M0_T17  MBAL_U6_T17  1
    X_U7_M0_T17  DEMAND_T17  1
    X_U7_M1_T17  NET_COST  -72.6
    X_U7_M1_T17  CAPMAX_U7_M1_T17  1
    X_U7_M1_T17  CAPMIN_U7_M1_T17  1
    X_U7_M1_T17  MBAL_U6_T17  1
    X_U7_M1_T17  DEMAND_T17  1
    X_U7_M2_T17  NET_COST  -60.9
    X_U7_M2_T17  CAPMAX_U7_M2_T17  1
    X_U7_M2_T17  CAPMIN_U7_M2_T17  1
    X_U7_M2_T17  MBAL_U6_T17  1
    X_U7_M2_T17  DEMAND_T17  1
    S_U0_T17  NET_COST  2
    S_U0_T17  MBAL_U0_T17  1
    S_U0_T17  MBAL_U0_T18  -1
    S_U1_T17  NET_COST  2
    S_U1_T17  MBAL_U1_T17  1
    S_U1_T17  MBAL_U1_T18  -1
    S_U2_T17  NET_COST  2
    S_U2_T17  MBAL_U2_T17  1
    S_U2_T17  MBAL_U2_T18  -1
    S_U3_T17  NET_COST  2
    S_U3_T17  MBAL_U3_T17  1
    S_U3_T17  MBAL_U3_T18  -1
    S_U4_T17  NET_COST  2
    S_U4_T17  MBAL_U4_T17  1
    S_U4_T17  MBAL_U4_T18  -1
    S_U5_T17  NET_COST  2
    S_U5_T17  MBAL_U5_T17  1
    S_U5_T17  MBAL_U5_T18  -1
    S_U6_T17  NET_COST  2
    S_U6_T17  MBAL_U6_T17  1
    S_U6_T17  MBAL_U6_T18  -1
    S_U7_T17  NET_COST  2
    MARK8640  'MARKER'                 'INTORG'
    Z_U0_M0_T18  NET_COST  228
    Z_U0_M0_T18  MODE_U0_T18  1
    Z_U0_M0_T18  CAPMAX_U0_M0_T18  -300
    Z_U0_M0_T18  CAPMIN_U0_M0_T18  -90
    MARK8650  'MARKER'                 'INTEND'
    MARK8660  'MARKER'                 'INTORG'
    Z_U0_M1_T18  NET_COST  281
    Z_U0_M1_T18  MODE_U0_T18  1
    Z_U0_M1_T18  CAPMAX_U0_M1_T18  -169
    Z_U0_M1_T18  CAPMIN_U0_M1_T18  -50.7
    MARK8670  'MARKER'                 'INTEND'
    MARK8680  'MARKER'                 'INTORG'
    Z_U0_M2_T18  NET_COST  175
    Z_U0_M2_T18  MODE_U0_T18  1
    Z_U0_M2_T18  CAPMAX_U0_M2_T18  -205
    Z_U0_M2_T18  CAPMIN_U0_M2_T18  -61.5
    MARK8690  'MARKER'                 'INTEND'
    MARK8700  'MARKER'                 'INTORG'
    Z_U1_M0_T18  NET_COST  102
    Z_U1_M0_T18  MODE_U1_T18  1
    Z_U1_M0_T18  CAPMAX_U1_M0_T18  -255
    Z_U1_M0_T18  CAPMIN_U1_M0_T18  -76.5
    MARK8710  'MARKER'                 'INTEND'
    MARK8720  'MARKER'                 'INTORG'
    Z_U1_M1_T18  NET_COST  227
    Z_U1_M1_T18  MODE_U1_T18  1
    Z_U1_M1_T18  CAPMAX_U1_M1_T18  -315
    Z_U1_M1_T18  CAPMIN_U1_M1_T18  -94.5
    MARK8730  'MARKER'                 'INTEND'
    MARK8740  'MARKER'                 'INTORG'
    Z_U1_M2_T18  NET_COST  251
    Z_U1_M2_T18  MODE_U1_T18  1
    Z_U1_M2_T18  CAPMAX_U1_M2_T18  -240
    Z_U1_M2_T18  CAPMIN_U1_M2_T18  -72
    MARK8750  'MARKER'                 'INTEND'
    MARK8760  'MARKER'                 'INTORG'
    Z_U2_M0_T18  NET_COST  113
    Z_U2_M0_T18  MODE_U2_T18  1
    Z_U2_M0_T18  CAPMAX_U2_M0_T18  -300
    Z_U2_M0_T18  CAPMIN_U2_M0_T18  -90
    MARK8770  'MARKER'                 'INTEND'
    MARK8780  'MARKER'                 'INTORG'
    Z_U2_M1_T18  NET_COST  185
    Z_U2_M1_T18  MODE_U2_T18  1
    Z_U2_M1_T18  CAPMAX_U2_M1_T18  -170
    Z_U2_M1_T18  CAPMIN_U2_M1_T18  -51
    MARK8790  'MARKER'                 'INTEND'
    MARK8800  'MARKER'                 'INTORG'
    Z_U2_M2_T18  NET_COST  119
    Z_U2_M2_T18  MODE_U2_T18  1
    Z_U2_M2_T18  CAPMAX_U2_M2_T18  -256
    Z_U2_M2_T18  CAPMIN_U2_M2_T18  -76.8
    MARK8810  'MARKER'                 'INTEND'
    MARK8820  'MARKER'                 'INTORG'
    Z_U3_M0_T18  NET_COST  255
    Z_U3_M0_T18  MODE_U3_T18  1
    Z_U3_M0_T18  CAPMAX_U3_M0_T18  -175
    Z_U3_M0_T18  CAPMIN_U3_M0_T18  -52.5
    MARK8830  'MARKER'                 'INTEND'
    MARK8840  'MARKER'                 'INTORG'
    Z_U3_M1_T18  NET_COST  165
    Z_U3_M1_T18  MODE_U3_T18  1
    Z_U3_M1_T18  CAPMAX_U3_M1_T18  -300
    Z_U3_M1_T18  CAPMIN_U3_M1_T18  -90
    MARK8850  'MARKER'                 'INTEND'
    MARK8860  'MARKER'                 'INTORG'
    Z_U3_M2_T18  NET_COST  109
    Z_U3_M2_T18  MODE_U3_T18  1
    Z_U3_M2_T18  CAPMAX_U3_M2_T18  -335
    Z_U3_M2_T18  CAPMIN_U3_M2_T18  -100.5
    MARK8870  'MARKER'                 'INTEND'
    MARK8880  'MARKER'                 'INTORG'
    Z_U4_M0_T18  NET_COST  183
    Z_U4_M0_T18  MODE_U4_T18  1
    Z_U4_M0_T18  CAPMAX_U4_M0_T18  -210
    Z_U4_M0_T18  CAPMIN_U4_M0_T18  -63
    MARK8890  'MARKER'                 'INTEND'
    MARK8900  'MARKER'                 'INTORG'
    Z_U4_M1_T18  NET_COST  240
    Z_U4_M1_T18  MODE_U4_T18  1
    Z_U4_M1_T18  CAPMAX_U4_M1_T18  -242
    Z_U4_M1_T18  CAPMIN_U4_M1_T18  -72.6
    MARK8910  'MARKER'                 'INTEND'
    MARK8920  'MARKER'                 'INTORG'
    Z_U4_M2_T18  NET_COST  198
    Z_U4_M2_T18  MODE_U4_T18  1
    Z_U4_M2_T18  CAPMAX_U4_M2_T18  -192
    Z_U4_M2_T18  CAPMIN_U4_M2_T18  -57.6
    MARK8930  'MARKER'                 'INTEND'
    MARK8940  'MARKER'                 'INTORG'
    Z_U5_M0_T18  NET_COST  199
    Z_U5_M0_T18  MODE_U5_T18  1
    Z_U5_M0_T18  CAPMAX_U5_M0_T18  -227
    Z_U5_M0_T18  CAPMIN_U5_M0_T18  -68.1
    MARK8950  'MARKER'                 'INTEND'
    MARK8960  'MARKER'                 'INTORG'
    Z_U5_M1_T18  NET_COST  183
    Z_U5_M1_T18  MODE_U5_T18  1
    Z_U5_M1_T18  CAPMAX_U5_M1_T18  -237
    Z_U5_M1_T18  CAPMIN_U5_M1_T18  -71.1
    MARK8970  'MARKER'                 'INTEND'
    MARK8980  'MARKER'                 'INTORG'
    Z_U5_M2_T18  NET_COST  115
    Z_U5_M2_T18  MODE_U5_T18  1
    Z_U5_M2_T18  CAPMAX_U5_M2_T18  -314
    Z_U5_M2_T18  CAPMIN_U5_M2_T18  -94.2
    MARK8990  'MARKER'                 'INTEND'
    MARK9000  'MARKER'                 'INTORG'
    Z_U6_M0_T18  NET_COST  189
    Z_U6_M0_T18  MODE_U6_T18  1
    Z_U6_M0_T18  CAPMAX_U6_M0_T18  -349
    Z_U6_M0_T18  CAPMIN_U6_M0_T18  -104.7
    MARK9010  'MARKER'                 'INTEND'
    MARK9020  'MARKER'                 'INTORG'
    Z_U6_M1_T18  NET_COST  224
    Z_U6_M1_T18  MODE_U6_T18  1
    Z_U6_M1_T18  CAPMAX_U6_M1_T18  -265
    Z_U6_M1_T18  CAPMIN_U6_M1_T18  -79.5
    MARK9030  'MARKER'                 'INTEND'
    MARK9040  'MARKER'                 'INTORG'
    Z_U6_M2_T18  NET_COST  195
    Z_U6_M2_T18  MODE_U6_T18  1
    Z_U6_M2_T18  CAPMAX_U6_M2_T18  -315
    Z_U6_M2_T18  CAPMIN_U6_M2_T18  -94.5
    MARK9050  'MARKER'                 'INTEND'
    MARK9060  'MARKER'                 'INTORG'
    Z_U7_M0_T18  NET_COST  189
    Z_U7_M0_T18  MODE_U7_T18  1
    Z_U7_M0_T18  CAPMAX_U7_M0_T18  -212
    Z_U7_M0_T18  CAPMIN_U7_M0_T18  -63.6
    MARK9070  'MARKER'                 'INTEND'
    MARK9080  'MARKER'                 'INTORG'
    Z_U7_M1_T18  NET_COST  205
    Z_U7_M1_T18  MODE_U7_T18  1
    Z_U7_M1_T18  CAPMAX_U7_M1_T18  -223
    Z_U7_M1_T18  CAPMIN_U7_M1_T18  -66.9
    MARK9090  'MARKER'                 'INTEND'
    MARK9100  'MARKER'                 'INTORG'
    Z_U7_M2_T18  NET_COST  161
    Z_U7_M2_T18  MODE_U7_T18  1
    Z_U7_M2_T18  CAPMAX_U7_M2_T18  -287
    Z_U7_M2_T18  CAPMIN_U7_M2_T18  -86.1
    MARK9110  'MARKER'                 'INTEND'
    X_U0_M0_T18  NET_COST  33.9
    X_U0_M0_T18  CAPMAX_U0_M0_T18  1
    X_U0_M0_T18  CAPMIN_U0_M0_T18  1
    X_U0_M0_T18  MBAL_U0_T18  -0.9
    X_U0_M1_T18  NET_COST  18.4
    X_U0_M1_T18  CAPMAX_U0_M1_T18  1
    X_U0_M1_T18  CAPMIN_U0_M1_T18  1
    X_U0_M1_T18  MBAL_U0_T18  -0.9
    X_U0_M2_T18  NET_COST  29.4
    X_U0_M2_T18  CAPMAX_U0_M2_T18  1
    X_U0_M2_T18  CAPMIN_U0_M2_T18  1
    X_U0_M2_T18  MBAL_U0_T18  -0.9
    X_U1_M0_T18  NET_COST  24.8
    X_U1_M0_T18  CAPMAX_U1_M0_T18  1
    X_U1_M0_T18  CAPMIN_U1_M0_T18  1
    X_U1_M0_T18  MBAL_U0_T18  1
    X_U1_M0_T18  MBAL_U1_T18  -0.9
    X_U1_M1_T18  NET_COST  32.1
    X_U1_M1_T18  CAPMAX_U1_M1_T18  1
    X_U1_M1_T18  CAPMIN_U1_M1_T18  1
    X_U1_M1_T18  MBAL_U0_T18  1
    X_U1_M1_T18  MBAL_U1_T18  -0.9
    X_U1_M2_T18  NET_COST  38.6
    X_U1_M2_T18  CAPMAX_U1_M2_T18  1
    X_U1_M2_T18  CAPMIN_U1_M2_T18  1
    X_U1_M2_T18  MBAL_U0_T18  1
    X_U1_M2_T18  MBAL_U1_T18  -0.9
    X_U2_M0_T18  NET_COST  16.2
    X_U2_M0_T18  CAPMAX_U2_M0_T18  1
    X_U2_M0_T18  CAPMIN_U2_M0_T18  1
    X_U2_M0_T18  MBAL_U1_T18  1
    X_U2_M0_T18  MBAL_U2_T18  -0.9
    X_U2_M1_T18  NET_COST  18.7
    X_U2_M1_T18  CAPMAX_U2_M1_T18  1
    X_U2_M1_T18  CAPMIN_U2_M1_T18  1
    X_U2_M1_T18  MBAL_U1_T18  1
    X_U2_M1_T18  MBAL_U2_T18  -0.9
    X_U2_M2_T18  NET_COST  18.6
    X_U2_M2_T18  CAPMAX_U2_M2_T18  1
    X_U2_M2_T18  CAPMIN_U2_M2_T18  1
    X_U2_M2_T18  MBAL_U1_T18  1
    X_U2_M2_T18  MBAL_U2_T18  -0.9
    X_U3_M0_T18  NET_COST  26.2
    X_U3_M0_T18  CAPMAX_U3_M0_T18  1
    X_U3_M0_T18  CAPMIN_U3_M0_T18  1
    X_U3_M0_T18  MBAL_U2_T18  1
    X_U3_M0_T18  MBAL_U3_T18  -0.9
    X_U3_M1_T18  NET_COST  33.6
    X_U3_M1_T18  CAPMAX_U3_M1_T18  1
    X_U3_M1_T18  CAPMIN_U3_M1_T18  1
    X_U3_M1_T18  MBAL_U2_T18  1
    X_U3_M1_T18  MBAL_U3_T18  -0.9
    X_U3_M2_T18  NET_COST  35.1
    X_U3_M2_T18  CAPMAX_U3_M2_T18  1
    X_U3_M2_T18  CAPMIN_U3_M2_T18  1
    X_U3_M2_T18  MBAL_U2_T18  1
    X_U3_M2_T18  MBAL_U3_T18  -0.9
    X_U4_M0_T18  NET_COST  33.6
    X_U4_M0_T18  CAPMAX_U4_M0_T18  1
    X_U4_M0_T18  CAPMIN_U4_M0_T18  1
    X_U4_M0_T18  MBAL_U3_T18  1
    X_U4_M0_T18  MBAL_U4_T18  -0.9
    X_U4_M1_T18  NET_COST  15.5
    X_U4_M1_T18  CAPMAX_U4_M1_T18  1
    X_U4_M1_T18  CAPMIN_U4_M1_T18  1
    X_U4_M1_T18  MBAL_U3_T18  1
    X_U4_M1_T18  MBAL_U4_T18  -0.9
    X_U4_M2_T18  NET_COST  28.4
    X_U4_M2_T18  CAPMAX_U4_M2_T18  1
    X_U4_M2_T18  CAPMIN_U4_M2_T18  1
    X_U4_M2_T18  MBAL_U3_T18  1
    X_U4_M2_T18  MBAL_U4_T18  -0.9
    X_U5_M0_T18  NET_COST  30.2
    X_U5_M0_T18  CAPMAX_U5_M0_T18  1
    X_U5_M0_T18  CAPMIN_U5_M0_T18  1
    X_U5_M0_T18  MBAL_U4_T18  1
    X_U5_M0_T18  MBAL_U5_T18  -0.9
    X_U5_M1_T18  NET_COST  31.7
    X_U5_M1_T18  CAPMAX_U5_M1_T18  1
    X_U5_M1_T18  CAPMIN_U5_M1_T18  1
    X_U5_M1_T18  MBAL_U4_T18  1
    X_U5_M1_T18  MBAL_U5_T18  -0.9
    X_U5_M2_T18  NET_COST  17.3
    X_U5_M2_T18  CAPMAX_U5_M2_T18  1
    X_U5_M2_T18  CAPMIN_U5_M2_T18  1
    X_U5_M2_T18  MBAL_U4_T18  1
    X_U5_M2_T18  MBAL_U5_T18  -0.9
    X_U6_M0_T18  NET_COST  26.9
    X_U6_M0_T18  CAPMAX_U6_M0_T18  1
    X_U6_M0_T18  CAPMIN_U6_M0_T18  1
    X_U6_M0_T18  MBAL_U5_T18  1
    X_U6_M0_T18  MBAL_U6_T18  -0.9
    X_U6_M1_T18  NET_COST  29.9
    X_U6_M1_T18  CAPMAX_U6_M1_T18  1
    X_U6_M1_T18  CAPMIN_U6_M1_T18  1
    X_U6_M1_T18  MBAL_U5_T18  1
    X_U6_M1_T18  MBAL_U6_T18  -0.9
    X_U6_M2_T18  NET_COST  36.5
    X_U6_M2_T18  CAPMAX_U6_M2_T18  1
    X_U6_M2_T18  CAPMIN_U6_M2_T18  1
    X_U6_M2_T18  MBAL_U5_T18  1
    X_U6_M2_T18  MBAL_U6_T18  -0.9
    X_U7_M0_T18  NET_COST  -67.7
    X_U7_M0_T18  CAPMAX_U7_M0_T18  1
    X_U7_M0_T18  CAPMIN_U7_M0_T18  1
    X_U7_M0_T18  MBAL_U6_T18  1
    X_U7_M0_T18  DEMAND_T18  1
    X_U7_M1_T18  NET_COST  -72.6
    X_U7_M1_T18  CAPMAX_U7_M1_T18  1
    X_U7_M1_T18  CAPMIN_U7_M1_T18  1
    X_U7_M1_T18  MBAL_U6_T18  1
    X_U7_M1_T18  DEMAND_T18  1
    X_U7_M2_T18  NET_COST  -60.9
    X_U7_M2_T18  CAPMAX_U7_M2_T18  1
    X_U7_M2_T18  CAPMIN_U7_M2_T18  1
    X_U7_M2_T18  MBAL_U6_T18  1
    X_U7_M2_T18  DEMAND_T18  1
    S_U0_T18  NET_COST  2
    S_U0_T18  MBAL_U0_T18  1
    S_U0_T18  MBAL_U0_T19  -1
    S_U1_T18  NET_COST  2
    S_U1_T18  MBAL_U1_T18  1
    S_U1_T18  MBAL_U1_T19  -1
    S_U2_T18  NET_COST  2
    S_U2_T18  MBAL_U2_T18  1
    S_U2_T18  MBAL_U2_T19  -1
    S_U3_T18  NET_COST  2
    S_U3_T18  MBAL_U3_T18  1
    S_U3_T18  MBAL_U3_T19  -1
    S_U4_T18  NET_COST  2
    S_U4_T18  MBAL_U4_T18  1
    S_U4_T18  MBAL_U4_T19  -1
    S_U5_T18  NET_COST  2
    S_U5_T18  MBAL_U5_T18  1
    S_U5_T18  MBAL_U5_T19  -1
    S_U6_T18  NET_COST  2
    S_U6_T18  MBAL_U6_T18  1
    S_U6_T18  MBAL_U6_T19  -1
    S_U7_T18  NET_COST  2
    MARK9120  'MARKER'                 'INTORG'
    Z_U0_M0_T19  NET_COST  228
    Z_U0_M0_T19  MODE_U0_T19  1
    Z_U0_M0_T19  CAPMAX_U0_M0_T19  -300
    Z_U0_M0_T19  CAPMIN_U0_M0_T19  -90
    MARK9130  'MARKER'                 'INTEND'
    MARK9140  'MARKER'                 'INTORG'
    Z_U0_M1_T19  NET_COST  281
    Z_U0_M1_T19  MODE_U0_T19  1
    Z_U0_M1_T19  CAPMAX_U0_M1_T19  -169
    Z_U0_M1_T19  CAPMIN_U0_M1_T19  -50.7
    MARK9150  'MARKER'                 'INTEND'
    MARK9160  'MARKER'                 'INTORG'
    Z_U0_M2_T19  NET_COST  175
    Z_U0_M2_T19  MODE_U0_T19  1
    Z_U0_M2_T19  CAPMAX_U0_M2_T19  -205
    Z_U0_M2_T19  CAPMIN_U0_M2_T19  -61.5
    MARK9170  'MARKER'                 'INTEND'
    MARK9180  'MARKER'                 'INTORG'
    Z_U1_M0_T19  NET_COST  102
    Z_U1_M0_T19  MODE_U1_T19  1
    Z_U1_M0_T19  CAPMAX_U1_M0_T19  -255
    Z_U1_M0_T19  CAPMIN_U1_M0_T19  -76.5
    MARK9190  'MARKER'                 'INTEND'
    MARK9200  'MARKER'                 'INTORG'
    Z_U1_M1_T19  NET_COST  227
    Z_U1_M1_T19  MODE_U1_T19  1
    Z_U1_M1_T19  CAPMAX_U1_M1_T19  -315
    Z_U1_M1_T19  CAPMIN_U1_M1_T19  -94.5
    MARK9210  'MARKER'                 'INTEND'
    MARK9220  'MARKER'                 'INTORG'
    Z_U1_M2_T19  NET_COST  251
    Z_U1_M2_T19  MODE_U1_T19  1
    Z_U1_M2_T19  CAPMAX_U1_M2_T19  -240
    Z_U1_M2_T19  CAPMIN_U1_M2_T19  -72
    MARK9230  'MARKER'                 'INTEND'
    MARK9240  'MARKER'                 'INTORG'
    Z_U2_M0_T19  NET_COST  113
    Z_U2_M0_T19  MODE_U2_T19  1
    Z_U2_M0_T19  CAPMAX_U2_M0_T19  -300
    Z_U2_M0_T19  CAPMIN_U2_M0_T19  -90
    MARK9250  'MARKER'                 'INTEND'
    MARK9260  'MARKER'                 'INTORG'
    Z_U2_M1_T19  NET_COST  185
    Z_U2_M1_T19  MODE_U2_T19  1
    Z_U2_M1_T19  CAPMAX_U2_M1_T19  -170
    Z_U2_M1_T19  CAPMIN_U2_M1_T19  -51
    MARK9270  'MARKER'                 'INTEND'
    MARK9280  'MARKER'                 'INTORG'
    Z_U2_M2_T19  NET_COST  119
    Z_U2_M2_T19  MODE_U2_T19  1
    Z_U2_M2_T19  CAPMAX_U2_M2_T19  -256
    Z_U2_M2_T19  CAPMIN_U2_M2_T19  -76.8
    MARK9290  'MARKER'                 'INTEND'
    MARK9300  'MARKER'                 'INTORG'
    Z_U3_M0_T19  NET_COST  255
    Z_U3_M0_T19  MODE_U3_T19  1
    Z_U3_M0_T19  CAPMAX_U3_M0_T19  -175
    Z_U3_M0_T19  CAPMIN_U3_M0_T19  -52.5
    MARK9310  'MARKER'                 'INTEND'
    MARK9320  'MARKER'                 'INTORG'
    Z_U3_M1_T19  NET_COST  165
    Z_U3_M1_T19  MODE_U3_T19  1
    Z_U3_M1_T19  CAPMAX_U3_M1_T19  -300
    Z_U3_M1_T19  CAPMIN_U3_M1_T19  -90
    MARK9330  'MARKER'                 'INTEND'
    MARK9340  'MARKER'                 'INTORG'
    Z_U3_M2_T19  NET_COST  109
    Z_U3_M2_T19  MODE_U3_T19  1
    Z_U3_M2_T19  CAPMAX_U3_M2_T19  -335
    Z_U3_M2_T19  CAPMIN_U3_M2_T19  -100.5
    MARK9350  'MARKER'                 'INTEND'
    MARK9360  'MARKER'                 'INTORG'
    Z_U4_M0_T19  NET_COST  183
    Z_U4_M0_T19  MODE_U4_T19  1
    Z_U4_M0_T19  CAPMAX_U4_M0_T19  -210
    Z_U4_M0_T19  CAPMIN_U4_M0_T19  -63
    MARK9370  'MARKER'                 'INTEND'
    MARK9380  'MARKER'                 'INTORG'
    Z_U4_M1_T19  NET_COST  240
    Z_U4_M1_T19  MODE_U4_T19  1
    Z_U4_M1_T19  CAPMAX_U4_M1_T19  -242
    Z_U4_M1_T19  CAPMIN_U4_M1_T19  -72.6
    MARK9390  'MARKER'                 'INTEND'
    MARK9400  'MARKER'                 'INTORG'
    Z_U4_M2_T19  NET_COST  198
    Z_U4_M2_T19  MODE_U4_T19  1
    Z_U4_M2_T19  CAPMAX_U4_M2_T19  -192
    Z_U4_M2_T19  CAPMIN_U4_M2_T19  -57.6
    MARK9410  'MARKER'                 'INTEND'
    MARK9420  'MARKER'                 'INTORG'
    Z_U5_M0_T19  NET_COST  199
    Z_U5_M0_T19  MODE_U5_T19  1
    Z_U5_M0_T19  CAPMAX_U5_M0_T19  -227
    Z_U5_M0_T19  CAPMIN_U5_M0_T19  -68.1
    MARK9430  'MARKER'                 'INTEND'
    MARK9440  'MARKER'                 'INTORG'
    Z_U5_M1_T19  NET_COST  183
    Z_U5_M1_T19  MODE_U5_T19  1
    Z_U5_M1_T19  CAPMAX_U5_M1_T19  -237
    Z_U5_M1_T19  CAPMIN_U5_M1_T19  -71.1
    MARK9450  'MARKER'                 'INTEND'
    MARK9460  'MARKER'                 'INTORG'
    Z_U5_M2_T19  NET_COST  115
    Z_U5_M2_T19  MODE_U5_T19  1
    Z_U5_M2_T19  CAPMAX_U5_M2_T19  -314
    Z_U5_M2_T19  CAPMIN_U5_M2_T19  -94.2
    MARK9470  'MARKER'                 'INTEND'
    MARK9480  'MARKER'                 'INTORG'
    Z_U6_M0_T19  NET_COST  189
    Z_U6_M0_T19  MODE_U6_T19  1
    Z_U6_M0_T19  CAPMAX_U6_M0_T19  -349
    Z_U6_M0_T19  CAPMIN_U6_M0_T19  -104.7
    MARK9490  'MARKER'                 'INTEND'
    MARK9500  'MARKER'                 'INTORG'
    Z_U6_M1_T19  NET_COST  224
    Z_U6_M1_T19  MODE_U6_T19  1
    Z_U6_M1_T19  CAPMAX_U6_M1_T19  -265
    Z_U6_M1_T19  CAPMIN_U6_M1_T19  -79.5
    MARK9510  'MARKER'                 'INTEND'
    MARK9520  'MARKER'                 'INTORG'
    Z_U6_M2_T19  NET_COST  195
    Z_U6_M2_T19  MODE_U6_T19  1
    Z_U6_M2_T19  CAPMAX_U6_M2_T19  -315
    Z_U6_M2_T19  CAPMIN_U6_M2_T19  -94.5
    MARK9530  'MARKER'                 'INTEND'
    MARK9540  'MARKER'                 'INTORG'
    Z_U7_M0_T19  NET_COST  189
    Z_U7_M0_T19  MODE_U7_T19  1
    Z_U7_M0_T19  CAPMAX_U7_M0_T19  -212
    Z_U7_M0_T19  CAPMIN_U7_M0_T19  -63.6
    MARK9550  'MARKER'                 'INTEND'
    MARK9560  'MARKER'                 'INTORG'
    Z_U7_M1_T19  NET_COST  205
    Z_U7_M1_T19  MODE_U7_T19  1
    Z_U7_M1_T19  CAPMAX_U7_M1_T19  -223
    Z_U7_M1_T19  CAPMIN_U7_M1_T19  -66.9
    MARK9570  'MARKER'                 'INTEND'
    MARK9580  'MARKER'                 'INTORG'
    Z_U7_M2_T19  NET_COST  161
    Z_U7_M2_T19  MODE_U7_T19  1
    Z_U7_M2_T19  CAPMAX_U7_M2_T19  -287
    Z_U7_M2_T19  CAPMIN_U7_M2_T19  -86.1
    MARK9590  'MARKER'                 'INTEND'
    X_U0_M0_T19  NET_COST  33.9
    X_U0_M0_T19  CAPMAX_U0_M0_T19  1
    X_U0_M0_T19  CAPMIN_U0_M0_T19  1
    X_U0_M0_T19  MBAL_U0_T19  -0.9
    X_U0_M1_T19  NET_COST  18.4
    X_U0_M1_T19  CAPMAX_U0_M1_T19  1
    X_U0_M1_T19  CAPMIN_U0_M1_T19  1
    X_U0_M1_T19  MBAL_U0_T19  -0.9
    X_U0_M2_T19  NET_COST  29.4
    X_U0_M2_T19  CAPMAX_U0_M2_T19  1
    X_U0_M2_T19  CAPMIN_U0_M2_T19  1
    X_U0_M2_T19  MBAL_U0_T19  -0.9
    X_U1_M0_T19  NET_COST  24.8
    X_U1_M0_T19  CAPMAX_U1_M0_T19  1
    X_U1_M0_T19  CAPMIN_U1_M0_T19  1
    X_U1_M0_T19  MBAL_U0_T19  1
    X_U1_M0_T19  MBAL_U1_T19  -0.9
    X_U1_M1_T19  NET_COST  32.1
    X_U1_M1_T19  CAPMAX_U1_M1_T19  1
    X_U1_M1_T19  CAPMIN_U1_M1_T19  1
    X_U1_M1_T19  MBAL_U0_T19  1
    X_U1_M1_T19  MBAL_U1_T19  -0.9
    X_U1_M2_T19  NET_COST  38.6
    X_U1_M2_T19  CAPMAX_U1_M2_T19  1
    X_U1_M2_T19  CAPMIN_U1_M2_T19  1
    X_U1_M2_T19  MBAL_U0_T19  1
    X_U1_M2_T19  MBAL_U1_T19  -0.9
    X_U2_M0_T19  NET_COST  16.2
    X_U2_M0_T19  CAPMAX_U2_M0_T19  1
    X_U2_M0_T19  CAPMIN_U2_M0_T19  1
    X_U2_M0_T19  MBAL_U1_T19  1
    X_U2_M0_T19  MBAL_U2_T19  -0.9
    X_U2_M1_T19  NET_COST  18.7
    X_U2_M1_T19  CAPMAX_U2_M1_T19  1
    X_U2_M1_T19  CAPMIN_U2_M1_T19  1
    X_U2_M1_T19  MBAL_U1_T19  1
    X_U2_M1_T19  MBAL_U2_T19  -0.9
    X_U2_M2_T19  NET_COST  18.6
    X_U2_M2_T19  CAPMAX_U2_M2_T19  1
    X_U2_M2_T19  CAPMIN_U2_M2_T19  1
    X_U2_M2_T19  MBAL_U1_T19  1
    X_U2_M2_T19  MBAL_U2_T19  -0.9
    X_U3_M0_T19  NET_COST  26.2
    X_U3_M0_T19  CAPMAX_U3_M0_T19  1
    X_U3_M0_T19  CAPMIN_U3_M0_T19  1
    X_U3_M0_T19  MBAL_U2_T19  1
    X_U3_M0_T19  MBAL_U3_T19  -0.9
    X_U3_M1_T19  NET_COST  33.6
    X_U3_M1_T19  CAPMAX_U3_M1_T19  1
    X_U3_M1_T19  CAPMIN_U3_M1_T19  1
    X_U3_M1_T19  MBAL_U2_T19  1
    X_U3_M1_T19  MBAL_U3_T19  -0.9
    X_U3_M2_T19  NET_COST  35.1
    X_U3_M2_T19  CAPMAX_U3_M2_T19  1
    X_U3_M2_T19  CAPMIN_U3_M2_T19  1
    X_U3_M2_T19  MBAL_U2_T19  1
    X_U3_M2_T19  MBAL_U3_T19  -0.9
    X_U4_M0_T19  NET_COST  33.6
    X_U4_M0_T19  CAPMAX_U4_M0_T19  1
    X_U4_M0_T19  CAPMIN_U4_M0_T19  1
    X_U4_M0_T19  MBAL_U3_T19  1
    X_U4_M0_T19  MBAL_U4_T19  -0.9
    X_U4_M1_T19  NET_COST  15.5
    X_U4_M1_T19  CAPMAX_U4_M1_T19  1
    X_U4_M1_T19  CAPMIN_U4_M1_T19  1
    X_U4_M1_T19  MBAL_U3_T19  1
    X_U4_M1_T19  MBAL_U4_T19  -0.9
    X_U4_M2_T19  NET_COST  28.4
    X_U4_M2_T19  CAPMAX_U4_M2_T19  1
    X_U4_M2_T19  CAPMIN_U4_M2_T19  1
    X_U4_M2_T19  MBAL_U3_T19  1
    X_U4_M2_T19  MBAL_U4_T19  -0.9
    X_U5_M0_T19  NET_COST  30.2
    X_U5_M0_T19  CAPMAX_U5_M0_T19  1
    X_U5_M0_T19  CAPMIN_U5_M0_T19  1
    X_U5_M0_T19  MBAL_U4_T19  1
    X_U5_M0_T19  MBAL_U5_T19  -0.9
    X_U5_M1_T19  NET_COST  31.7
    X_U5_M1_T19  CAPMAX_U5_M1_T19  1
    X_U5_M1_T19  CAPMIN_U5_M1_T19  1
    X_U5_M1_T19  MBAL_U4_T19  1
    X_U5_M1_T19  MBAL_U5_T19  -0.9
    X_U5_M2_T19  NET_COST  17.3
    X_U5_M2_T19  CAPMAX_U5_M2_T19  1
    X_U5_M2_T19  CAPMIN_U5_M2_T19  1
    X_U5_M2_T19  MBAL_U4_T19  1
    X_U5_M2_T19  MBAL_U5_T19  -0.9
    X_U6_M0_T19  NET_COST  26.9
    X_U6_M0_T19  CAPMAX_U6_M0_T19  1
    X_U6_M0_T19  CAPMIN_U6_M0_T19  1
    X_U6_M0_T19  MBAL_U5_T19  1
    X_U6_M0_T19  MBAL_U6_T19  -0.9
    X_U6_M1_T19  NET_COST  29.9
    X_U6_M1_T19  CAPMAX_U6_M1_T19  1
    X_U6_M1_T19  CAPMIN_U6_M1_T19  1
    X_U6_M1_T19  MBAL_U5_T19  1
    X_U6_M1_T19  MBAL_U6_T19  -0.9
    X_U6_M2_T19  NET_COST  36.5
    X_U6_M2_T19  CAPMAX_U6_M2_T19  1
    X_U6_M2_T19  CAPMIN_U6_M2_T19  1
    X_U6_M2_T19  MBAL_U5_T19  1
    X_U6_M2_T19  MBAL_U6_T19  -0.9
    X_U7_M0_T19  NET_COST  -67.7
    X_U7_M0_T19  CAPMAX_U7_M0_T19  1
    X_U7_M0_T19  CAPMIN_U7_M0_T19  1
    X_U7_M0_T19  MBAL_U6_T19  1
    X_U7_M0_T19  DEMAND_T19  1
    X_U7_M1_T19  NET_COST  -72.6
    X_U7_M1_T19  CAPMAX_U7_M1_T19  1
    X_U7_M1_T19  CAPMIN_U7_M1_T19  1
    X_U7_M1_T19  MBAL_U6_T19  1
    X_U7_M1_T19  DEMAND_T19  1
    X_U7_M2_T19  NET_COST  -60.9
    X_U7_M2_T19  CAPMAX_U7_M2_T19  1
    X_U7_M2_T19  CAPMIN_U7_M2_T19  1
    X_U7_M2_T19  MBAL_U6_T19  1
    X_U7_M2_T19  DEMAND_T19  1
    S_U0_T19  NET_COST  2
    S_U0_T19  MBAL_U0_T19  1
    S_U0_T19  MBAL_U0_T20  -1
    S_U1_T19  NET_COST  2
    S_U1_T19  MBAL_U1_T19  1
    S_U1_T19  MBAL_U1_T20  -1
    S_U2_T19  NET_COST  2
    S_U2_T19  MBAL_U2_T19  1
    S_U2_T19  MBAL_U2_T20  -1
    S_U3_T19  NET_COST  2
    S_U3_T19  MBAL_U3_T19  1
    S_U3_T19  MBAL_U3_T20  -1
    S_U4_T19  NET_COST  2
    S_U4_T19  MBAL_U4_T19  1
    S_U4_T19  MBAL_U4_T20  -1
    S_U5_T19  NET_COST  2
    S_U5_T19  MBAL_U5_T19  1
    S_U5_T19  MBAL_U5_T20  -1
    S_U6_T19  NET_COST  2
    S_U6_T19  MBAL_U6_T19  1
    S_U6_T19  MBAL_U6_T20  -1
    S_U7_T19  NET_COST  2
    MARK9600  'MARKER'                 'INTORG'
    Z_U0_M0_T20  NET_COST  228
    Z_U0_M0_T20  MODE_U0_T20  1
    Z_U0_M0_T20  CAPMAX_U0_M0_T20  -300
    Z_U0_M0_T20  CAPMIN_U0_M0_T20  -90
    MARK9610  'MARKER'                 'INTEND'
    MARK9620  'MARKER'                 'INTORG'
    Z_U0_M1_T20  NET_COST  281
    Z_U0_M1_T20  MODE_U0_T20  1
    Z_U0_M1_T20  CAPMAX_U0_M1_T20  -169
    Z_U0_M1_T20  CAPMIN_U0_M1_T20  -50.7
    MARK9630  'MARKER'                 'INTEND'
    MARK9640  'MARKER'                 'INTORG'
    Z_U0_M2_T20  NET_COST  175
    Z_U0_M2_T20  MODE_U0_T20  1
    Z_U0_M2_T20  CAPMAX_U0_M2_T20  -205
    Z_U0_M2_T20  CAPMIN_U0_M2_T20  -61.5
    MARK9650  'MARKER'                 'INTEND'
    MARK9660  'MARKER'                 'INTORG'
    Z_U1_M0_T20  NET_COST  102
    Z_U1_M0_T20  MODE_U1_T20  1
    Z_U1_M0_T20  CAPMAX_U1_M0_T20  -255
    Z_U1_M0_T20  CAPMIN_U1_M0_T20  -76.5
    MARK9670  'MARKER'                 'INTEND'
    MARK9680  'MARKER'                 'INTORG'
    Z_U1_M1_T20  NET_COST  227
    Z_U1_M1_T20  MODE_U1_T20  1
    Z_U1_M1_T20  CAPMAX_U1_M1_T20  -315
    Z_U1_M1_T20  CAPMIN_U1_M1_T20  -94.5
    MARK9690  'MARKER'                 'INTEND'
    MARK9700  'MARKER'                 'INTORG'
    Z_U1_M2_T20  NET_COST  251
    Z_U1_M2_T20  MODE_U1_T20  1
    Z_U1_M2_T20  CAPMAX_U1_M2_T20  -240
    Z_U1_M2_T20  CAPMIN_U1_M2_T20  -72
    MARK9710  'MARKER'                 'INTEND'
    MARK9720  'MARKER'                 'INTORG'
    Z_U2_M0_T20  NET_COST  113
    Z_U2_M0_T20  MODE_U2_T20  1
    Z_U2_M0_T20  CAPMAX_U2_M0_T20  -300
    Z_U2_M0_T20  CAPMIN_U2_M0_T20  -90
    MARK9730  'MARKER'                 'INTEND'
    MARK9740  'MARKER'                 'INTORG'
    Z_U2_M1_T20  NET_COST  185
    Z_U2_M1_T20  MODE_U2_T20  1
    Z_U2_M1_T20  CAPMAX_U2_M1_T20  -170
    Z_U2_M1_T20  CAPMIN_U2_M1_T20  -51
    MARK9750  'MARKER'                 'INTEND'
    MARK9760  'MARKER'                 'INTORG'
    Z_U2_M2_T20  NET_COST  119
    Z_U2_M2_T20  MODE_U2_T20  1
    Z_U2_M2_T20  CAPMAX_U2_M2_T20  -256
    Z_U2_M2_T20  CAPMIN_U2_M2_T20  -76.8
    MARK9770  'MARKER'                 'INTEND'
    MARK9780  'MARKER'                 'INTORG'
    Z_U3_M0_T20  NET_COST  255
    Z_U3_M0_T20  MODE_U3_T20  1
    Z_U3_M0_T20  CAPMAX_U3_M0_T20  -175
    Z_U3_M0_T20  CAPMIN_U3_M0_T20  -52.5
    MARK9790  'MARKER'                 'INTEND'
    MARK9800  'MARKER'                 'INTORG'
    Z_U3_M1_T20  NET_COST  165
    Z_U3_M1_T20  MODE_U3_T20  1
    Z_U3_M1_T20  CAPMAX_U3_M1_T20  -300
    Z_U3_M1_T20  CAPMIN_U3_M1_T20  -90
    MARK9810  'MARKER'                 'INTEND'
    MARK9820  'MARKER'                 'INTORG'
    Z_U3_M2_T20  NET_COST  109
    Z_U3_M2_T20  MODE_U3_T20  1
    Z_U3_M2_T20  CAPMAX_U3_M2_T20  -335
    Z_U3_M2_T20  CAPMIN_U3_M2_T20  -100.5
    MARK9830  'MARKER'                 'INTEND'
    MARK9840  'MARKER'                 'INTORG'
    Z_U4_M0_T20  NET_COST  183
    Z_U4_M0_T20  MODE_U4_T20  1
    Z_U4_M0_T20  CAPMAX_U4_M0_T20  -210
    Z_U4_M0_T20  CAPMIN_U4_M0_T20  -63
    MARK9850  'MARKER'                 'INTEND'
    MARK9860  'MARKER'                 'INTORG'
    Z_U4_M1_T20  NET_COST  240
    Z_U4_M1_T20  MODE_U4_T20  1
    Z_U4_M1_T20  CAPMAX_U4_M1_T20  -242
    Z_U4_M1_T20  CAPMIN_U4_M1_T20  -72.6
    MARK9870  'MARKER'                 'INTEND'
    MARK9880  'MARKER'                 'INTORG'
    Z_U4_M2_T20  NET_COST  198
    Z_U4_M2_T20  MODE_U4_T20  1
    Z_U4_M2_T20  CAPMAX_U4_M2_T20  -192
    Z_U4_M2_T20  CAPMIN_U4_M2_T20  -57.6
    MARK9890  'MARKER'                 'INTEND'
    MARK9900  'MARKER'                 'INTORG'
    Z_U5_M0_T20  NET_COST  199
    Z_U5_M0_T20  MODE_U5_T20  1
    Z_U5_M0_T20  CAPMAX_U5_M0_T20  -227
    Z_U5_M0_T20  CAPMIN_U5_M0_T20  -68.1
    MARK9910  'MARKER'                 'INTEND'
    MARK9920  'MARKER'                 'INTORG'
    Z_U5_M1_T20  NET_COST  183
    Z_U5_M1_T20  MODE_U5_T20  1
    Z_U5_M1_T20  CAPMAX_U5_M1_T20  -237
    Z_U5_M1_T20  CAPMIN_U5_M1_T20  -71.1
    MARK9930  'MARKER'                 'INTEND'
    MARK9940  'MARKER'                 'INTORG'
    Z_U5_M2_T20  NET_COST  115
    Z_U5_M2_T20  MODE_U5_T20  1
    Z_U5_M2_T20  CAPMAX_U5_M2_T20  -314
    Z_U5_M2_T20  CAPMIN_U5_M2_T20  -94.2
    MARK9950  'MARKER'                 'INTEND'
    MARK9960  'MARKER'                 'INTORG'
    Z_U6_M0_T20  NET_COST  189
    Z_U6_M0_T20  MODE_U6_T20  1
    Z_U6_M0_T20  CAPMAX_U6_M0_T20  -349
    Z_U6_M0_T20  CAPMIN_U6_M0_T20  -104.7
    MARK9970  'MARKER'                 'INTEND'
    MARK9980  'MARKER'                 'INTORG'
    Z_U6_M1_T20  NET_COST  224
    Z_U6_M1_T20  MODE_U6_T20  1
    Z_U6_M1_T20  CAPMAX_U6_M1_T20  -265
    Z_U6_M1_T20  CAPMIN_U6_M1_T20  -79.5
    MARK9990  'MARKER'                 'INTEND'
    MARK1000  'MARKER'                 'INTORG'
    Z_U6_M2_T20  NET_COST  195
    Z_U6_M2_T20  MODE_U6_T20  1
    Z_U6_M2_T20  CAPMAX_U6_M2_T20  -315
    Z_U6_M2_T20  CAPMIN_U6_M2_T20  -94.5
    MARK1001  'MARKER'                 'INTEND'
    MARK1002  'MARKER'                 'INTORG'
    Z_U7_M0_T20  NET_COST  189
    Z_U7_M0_T20  MODE_U7_T20  1
    Z_U7_M0_T20  CAPMAX_U7_M0_T20  -212
    Z_U7_M0_T20  CAPMIN_U7_M0_T20  -63.6
    MARK1003  'MARKER'                 'INTEND'
    MARK1004  'MARKER'                 'INTORG'
    Z_U7_M1_T20  NET_COST  205
    Z_U7_M1_T20  MODE_U7_T20  1
    Z_U7_M1_T20  CAPMAX_U7_M1_T20  -223
    Z_U7_M1_T20  CAPMIN_U7_M1_T20  -66.9
    MARK1005  'MARKER'                 'INTEND'
    MARK1006  'MARKER'                 'INTORG'
    Z_U7_M2_T20  NET_COST  161
    Z_U7_M2_T20  MODE_U7_T20  1
    Z_U7_M2_T20  CAPMAX_U7_M2_T20  -287
    Z_U7_M2_T20  CAPMIN_U7_M2_T20  -86.1
    MARK1007  'MARKER'                 'INTEND'
    X_U0_M0_T20  NET_COST  33.9
    X_U0_M0_T20  CAPMAX_U0_M0_T20  1
    X_U0_M0_T20  CAPMIN_U0_M0_T20  1
    X_U0_M0_T20  MBAL_U0_T20  -0.9
    X_U0_M1_T20  NET_COST  18.4
    X_U0_M1_T20  CAPMAX_U0_M1_T20  1
    X_U0_M1_T20  CAPMIN_U0_M1_T20  1
    X_U0_M1_T20  MBAL_U0_T20  -0.9
    X_U0_M2_T20  NET_COST  29.4
    X_U0_M2_T20  CAPMAX_U0_M2_T20  1
    X_U0_M2_T20  CAPMIN_U0_M2_T20  1
    X_U0_M2_T20  MBAL_U0_T20  -0.9
    X_U1_M0_T20  NET_COST  24.8
    X_U1_M0_T20  CAPMAX_U1_M0_T20  1
    X_U1_M0_T20  CAPMIN_U1_M0_T20  1
    X_U1_M0_T20  MBAL_U0_T20  1
    X_U1_M0_T20  MBAL_U1_T20  -0.9
    X_U1_M1_T20  NET_COST  32.1
    X_U1_M1_T20  CAPMAX_U1_M1_T20  1
    X_U1_M1_T20  CAPMIN_U1_M1_T20  1
    X_U1_M1_T20  MBAL_U0_T20  1
    X_U1_M1_T20  MBAL_U1_T20  -0.9
    X_U1_M2_T20  NET_COST  38.6
    X_U1_M2_T20  CAPMAX_U1_M2_T20  1
    X_U1_M2_T20  CAPMIN_U1_M2_T20  1
    X_U1_M2_T20  MBAL_U0_T20  1
    X_U1_M2_T20  MBAL_U1_T20  -0.9
    X_U2_M0_T20  NET_COST  16.2
    X_U2_M0_T20  CAPMAX_U2_M0_T20  1
    X_U2_M0_T20  CAPMIN_U2_M0_T20  1
    X_U2_M0_T20  MBAL_U1_T20  1
    X_U2_M0_T20  MBAL_U2_T20  -0.9
    X_U2_M1_T20  NET_COST  18.7
    X_U2_M1_T20  CAPMAX_U2_M1_T20  1
    X_U2_M1_T20  CAPMIN_U2_M1_T20  1
    X_U2_M1_T20  MBAL_U1_T20  1
    X_U2_M1_T20  MBAL_U2_T20  -0.9
    X_U2_M2_T20  NET_COST  18.6
    X_U2_M2_T20  CAPMAX_U2_M2_T20  1
    X_U2_M2_T20  CAPMIN_U2_M2_T20  1
    X_U2_M2_T20  MBAL_U1_T20  1
    X_U2_M2_T20  MBAL_U2_T20  -0.9
    X_U3_M0_T20  NET_COST  26.2
    X_U3_M0_T20  CAPMAX_U3_M0_T20  1
    X_U3_M0_T20  CAPMIN_U3_M0_T20  1
    X_U3_M0_T20  MBAL_U2_T20  1
    X_U3_M0_T20  MBAL_U3_T20  -0.9
    X_U3_M1_T20  NET_COST  33.6
    X_U3_M1_T20  CAPMAX_U3_M1_T20  1
    X_U3_M1_T20  CAPMIN_U3_M1_T20  1
    X_U3_M1_T20  MBAL_U2_T20  1
    X_U3_M1_T20  MBAL_U3_T20  -0.9
    X_U3_M2_T20  NET_COST  35.1
    X_U3_M2_T20  CAPMAX_U3_M2_T20  1
    X_U3_M2_T20  CAPMIN_U3_M2_T20  1
    X_U3_M2_T20  MBAL_U2_T20  1
    X_U3_M2_T20  MBAL_U3_T20  -0.9
    X_U4_M0_T20  NET_COST  33.6
    X_U4_M0_T20  CAPMAX_U4_M0_T20  1
    X_U4_M0_T20  CAPMIN_U4_M0_T20  1
    X_U4_M0_T20  MBAL_U3_T20  1
    X_U4_M0_T20  MBAL_U4_T20  -0.9
    X_U4_M1_T20  NET_COST  15.5
    X_U4_M1_T20  CAPMAX_U4_M1_T20  1
    X_U4_M1_T20  CAPMIN_U4_M1_T20  1
    X_U4_M1_T20  MBAL_U3_T20  1
    X_U4_M1_T20  MBAL_U4_T20  -0.9
    X_U4_M2_T20  NET_COST  28.4
    X_U4_M2_T20  CAPMAX_U4_M2_T20  1
    X_U4_M2_T20  CAPMIN_U4_M2_T20  1
    X_U4_M2_T20  MBAL_U3_T20  1
    X_U4_M2_T20  MBAL_U4_T20  -0.9
    X_U5_M0_T20  NET_COST  30.2
    X_U5_M0_T20  CAPMAX_U5_M0_T20  1
    X_U5_M0_T20  CAPMIN_U5_M0_T20  1
    X_U5_M0_T20  MBAL_U4_T20  1
    X_U5_M0_T20  MBAL_U5_T20  -0.9
    X_U5_M1_T20  NET_COST  31.7
    X_U5_M1_T20  CAPMAX_U5_M1_T20  1
    X_U5_M1_T20  CAPMIN_U5_M1_T20  1
    X_U5_M1_T20  MBAL_U4_T20  1
    X_U5_M1_T20  MBAL_U5_T20  -0.9
    X_U5_M2_T20  NET_COST  17.3
    X_U5_M2_T20  CAPMAX_U5_M2_T20  1
    X_U5_M2_T20  CAPMIN_U5_M2_T20  1
    X_U5_M2_T20  MBAL_U4_T20  1
    X_U5_M2_T20  MBAL_U5_T20  -0.9
    X_U6_M0_T20  NET_COST  26.9
    X_U6_M0_T20  CAPMAX_U6_M0_T20  1
    X_U6_M0_T20  CAPMIN_U6_M0_T20  1
    X_U6_M0_T20  MBAL_U5_T20  1
    X_U6_M0_T20  MBAL_U6_T20  -0.9
    X_U6_M1_T20  NET_COST  29.9
    X_U6_M1_T20  CAPMAX_U6_M1_T20  1
    X_U6_M1_T20  CAPMIN_U6_M1_T20  1
    X_U6_M1_T20  MBAL_U5_T20  1
    X_U6_M1_T20  MBAL_U6_T20  -0.9
    X_U6_M2_T20  NET_COST  36.5
    X_U6_M2_T20  CAPMAX_U6_M2_T20  1
    X_U6_M2_T20  CAPMIN_U6_M2_T20  1
    X_U6_M2_T20  MBAL_U5_T20  1
    X_U6_M2_T20  MBAL_U6_T20  -0.9
    X_U7_M0_T20  NET_COST  -67.7
    X_U7_M0_T20  CAPMAX_U7_M0_T20  1
    X_U7_M0_T20  CAPMIN_U7_M0_T20  1
    X_U7_M0_T20  MBAL_U6_T20  1
    X_U7_M0_T20  DEMAND_T20  1
    X_U7_M1_T20  NET_COST  -72.6
    X_U7_M1_T20  CAPMAX_U7_M1_T20  1
    X_U7_M1_T20  CAPMIN_U7_M1_T20  1
    X_U7_M1_T20  MBAL_U6_T20  1
    X_U7_M1_T20  DEMAND_T20  1
    X_U7_M2_T20  NET_COST  -60.9
    X_U7_M2_T20  CAPMAX_U7_M2_T20  1
    X_U7_M2_T20  CAPMIN_U7_M2_T20  1
    X_U7_M2_T20  MBAL_U6_T20  1
    X_U7_M2_T20  DEMAND_T20  1
    S_U0_T20  NET_COST  2
    S_U0_T20  MBAL_U0_T20  1
    S_U0_T20  MBAL_U0_T21  -1
    S_U1_T20  NET_COST  2
    S_U1_T20  MBAL_U1_T20  1
    S_U1_T20  MBAL_U1_T21  -1
    S_U2_T20  NET_COST  2
    S_U2_T20  MBAL_U2_T20  1
    S_U2_T20  MBAL_U2_T21  -1
    S_U3_T20  NET_COST  2
    S_U3_T20  MBAL_U3_T20  1
    S_U3_T20  MBAL_U3_T21  -1
    S_U4_T20  NET_COST  2
    S_U4_T20  MBAL_U4_T20  1
    S_U4_T20  MBAL_U4_T21  -1
    S_U5_T20  NET_COST  2
    S_U5_T20  MBAL_U5_T20  1
    S_U5_T20  MBAL_U5_T21  -1
    S_U6_T20  NET_COST  2
    S_U6_T20  MBAL_U6_T20  1
    S_U6_T20  MBAL_U6_T21  -1
    S_U7_T20  NET_COST  2
    MARK1008  'MARKER'                 'INTORG'
    Z_U0_M0_T21  NET_COST  228
    Z_U0_M0_T21  MODE_U0_T21  1
    Z_U0_M0_T21  CAPMAX_U0_M0_T21  -300
    Z_U0_M0_T21  CAPMIN_U0_M0_T21  -90
    MARK1009  'MARKER'                 'INTEND'
    MARK1010  'MARKER'                 'INTORG'
    Z_U0_M1_T21  NET_COST  281
    Z_U0_M1_T21  MODE_U0_T21  1
    Z_U0_M1_T21  CAPMAX_U0_M1_T21  -169
    Z_U0_M1_T21  CAPMIN_U0_M1_T21  -50.7
    MARK1011  'MARKER'                 'INTEND'
    MARK1012  'MARKER'                 'INTORG'
    Z_U0_M2_T21  NET_COST  175
    Z_U0_M2_T21  MODE_U0_T21  1
    Z_U0_M2_T21  CAPMAX_U0_M2_T21  -205
    Z_U0_M2_T21  CAPMIN_U0_M2_T21  -61.5
    MARK1013  'MARKER'                 'INTEND'
    MARK1014  'MARKER'                 'INTORG'
    Z_U1_M0_T21  NET_COST  102
    Z_U1_M0_T21  MODE_U1_T21  1
    Z_U1_M0_T21  CAPMAX_U1_M0_T21  -255
    Z_U1_M0_T21  CAPMIN_U1_M0_T21  -76.5
    MARK1015  'MARKER'                 'INTEND'
    MARK1016  'MARKER'                 'INTORG'
    Z_U1_M1_T21  NET_COST  227
    Z_U1_M1_T21  MODE_U1_T21  1
    Z_U1_M1_T21  CAPMAX_U1_M1_T21  -315
    Z_U1_M1_T21  CAPMIN_U1_M1_T21  -94.5
    MARK1017  'MARKER'                 'INTEND'
    MARK1018  'MARKER'                 'INTORG'
    Z_U1_M2_T21  NET_COST  251
    Z_U1_M2_T21  MODE_U1_T21  1
    Z_U1_M2_T21  CAPMAX_U1_M2_T21  -240
    Z_U1_M2_T21  CAPMIN_U1_M2_T21  -72
    MARK1019  'MARKER'                 'INTEND'
    MARK1020  'MARKER'                 'INTORG'
    Z_U2_M0_T21  NET_COST  113
    Z_U2_M0_T21  MODE_U2_T21  1
    Z_U2_M0_T21  CAPMAX_U2_M0_T21  -300
    Z_U2_M0_T21  CAPMIN_U2_M0_T21  -90
    MARK1021  'MARKER'                 'INTEND'
    MARK1022  'MARKER'                 'INTORG'
    Z_U2_M1_T21  NET_COST  185
    Z_U2_M1_T21  MODE_U2_T21  1
    Z_U2_M1_T21  CAPMAX_U2_M1_T21  -170
    Z_U2_M1_T21  CAPMIN_U2_M1_T21  -51
    MARK1023  'MARKER'                 'INTEND'
    MARK1024  'MARKER'                 'INTORG'
    Z_U2_M2_T21  NET_COST  119
    Z_U2_M2_T21  MODE_U2_T21  1
    Z_U2_M2_T21  CAPMAX_U2_M2_T21  -256
    Z_U2_M2_T21  CAPMIN_U2_M2_T21  -76.8
    MARK1025  'MARKER'                 'INTEND'
    MARK1026  'MARKER'                 'INTORG'
    Z_U3_M0_T21  NET_COST  255
    Z_U3_M0_T21  MODE_U3_T21  1
    Z_U3_M0_T21  CAPMAX_U3_M0_T21  -175
    Z_U3_M0_T21  CAPMIN_U3_M0_T21  -52.5
    MARK1027  'MARKER'                 'INTEND'
    MARK1028  'MARKER'                 'INTORG'
    Z_U3_M1_T21  NET_COST  165
    Z_U3_M1_T21  MODE_U3_T21  1
    Z_U3_M1_T21  CAPMAX_U3_M1_T21  -300
    Z_U3_M1_T21  CAPMIN_U3_M1_T21  -90
    MARK1029  'MARKER'                 'INTEND'
    MARK1030  'MARKER'                 'INTORG'
    Z_U3_M2_T21  NET_COST  109
    Z_U3_M2_T21  MODE_U3_T21  1
    Z_U3_M2_T21  CAPMAX_U3_M2_T21  -335
    Z_U3_M2_T21  CAPMIN_U3_M2_T21  -100.5
    MARK1031  'MARKER'                 'INTEND'
    MARK1032  'MARKER'                 'INTORG'
    Z_U4_M0_T21  NET_COST  183
    Z_U4_M0_T21  MODE_U4_T21  1
    Z_U4_M0_T21  CAPMAX_U4_M0_T21  -210
    Z_U4_M0_T21  CAPMIN_U4_M0_T21  -63
    MARK1033  'MARKER'                 'INTEND'
    MARK1034  'MARKER'                 'INTORG'
    Z_U4_M1_T21  NET_COST  240
    Z_U4_M1_T21  MODE_U4_T21  1
    Z_U4_M1_T21  CAPMAX_U4_M1_T21  -242
    Z_U4_M1_T21  CAPMIN_U4_M1_T21  -72.6
    MARK1035  'MARKER'                 'INTEND'
    MARK1036  'MARKER'                 'INTORG'
    Z_U4_M2_T21  NET_COST  198
    Z_U4_M2_T21  MODE_U4_T21  1
    Z_U4_M2_T21  CAPMAX_U4_M2_T21  -192
    Z_U4_M2_T21  CAPMIN_U4_M2_T21  -57.6
    MARK1037  'MARKER'                 'INTEND'
    MARK1038  'MARKER'                 'INTORG'
    Z_U5_M0_T21  NET_COST  199
    Z_U5_M0_T21  MODE_U5_T21  1
    Z_U5_M0_T21  CAPMAX_U5_M0_T21  -227
    Z_U5_M0_T21  CAPMIN_U5_M0_T21  -68.1
    MARK1039  'MARKER'                 'INTEND'
    MARK1040  'MARKER'                 'INTORG'
    Z_U5_M1_T21  NET_COST  183
    Z_U5_M1_T21  MODE_U5_T21  1
    Z_U5_M1_T21  CAPMAX_U5_M1_T21  -237
    Z_U5_M1_T21  CAPMIN_U5_M1_T21  -71.1
    MARK1041  'MARKER'                 'INTEND'
    MARK1042  'MARKER'                 'INTORG'
    Z_U5_M2_T21  NET_COST  115
    Z_U5_M2_T21  MODE_U5_T21  1
    Z_U5_M2_T21  CAPMAX_U5_M2_T21  -314
    Z_U5_M2_T21  CAPMIN_U5_M2_T21  -94.2
    MARK1043  'MARKER'                 'INTEND'
    MARK1044  'MARKER'                 'INTORG'
    Z_U6_M0_T21  NET_COST  189
    Z_U6_M0_T21  MODE_U6_T21  1
    Z_U6_M0_T21  CAPMAX_U6_M0_T21  -349
    Z_U6_M0_T21  CAPMIN_U6_M0_T21  -104.7
    MARK1045  'MARKER'                 'INTEND'
    MARK1046  'MARKER'                 'INTORG'
    Z_U6_M1_T21  NET_COST  224
    Z_U6_M1_T21  MODE_U6_T21  1
    Z_U6_M1_T21  CAPMAX_U6_M1_T21  -265
    Z_U6_M1_T21  CAPMIN_U6_M1_T21  -79.5
    MARK1047  'MARKER'                 'INTEND'
    MARK1048  'MARKER'                 'INTORG'
    Z_U6_M2_T21  NET_COST  195
    Z_U6_M2_T21  MODE_U6_T21  1
    Z_U6_M2_T21  CAPMAX_U6_M2_T21  -315
    Z_U6_M2_T21  CAPMIN_U6_M2_T21  -94.5
    MARK1049  'MARKER'                 'INTEND'
    MARK1050  'MARKER'                 'INTORG'
    Z_U7_M0_T21  NET_COST  189
    Z_U7_M0_T21  MODE_U7_T21  1
    Z_U7_M0_T21  CAPMAX_U7_M0_T21  -212
    Z_U7_M0_T21  CAPMIN_U7_M0_T21  -63.6
    MARK1051  'MARKER'                 'INTEND'
    MARK1052  'MARKER'                 'INTORG'
    Z_U7_M1_T21  NET_COST  205
    Z_U7_M1_T21  MODE_U7_T21  1
    Z_U7_M1_T21  CAPMAX_U7_M1_T21  -223
    Z_U7_M1_T21  CAPMIN_U7_M1_T21  -66.9
    MARK1053  'MARKER'                 'INTEND'
    MARK1054  'MARKER'                 'INTORG'
    Z_U7_M2_T21  NET_COST  161
    Z_U7_M2_T21  MODE_U7_T21  1
    Z_U7_M2_T21  CAPMAX_U7_M2_T21  -287
    Z_U7_M2_T21  CAPMIN_U7_M2_T21  -86.1
    MARK1055  'MARKER'                 'INTEND'
    X_U0_M0_T21  NET_COST  33.9
    X_U0_M0_T21  CAPMAX_U0_M0_T21  1
    X_U0_M0_T21  CAPMIN_U0_M0_T21  1
    X_U0_M0_T21  MBAL_U0_T21  -0.9
    X_U0_M1_T21  NET_COST  18.4
    X_U0_M1_T21  CAPMAX_U0_M1_T21  1
    X_U0_M1_T21  CAPMIN_U0_M1_T21  1
    X_U0_M1_T21  MBAL_U0_T21  -0.9
    X_U0_M2_T21  NET_COST  29.4
    X_U0_M2_T21  CAPMAX_U0_M2_T21  1
    X_U0_M2_T21  CAPMIN_U0_M2_T21  1
    X_U0_M2_T21  MBAL_U0_T21  -0.9
    X_U1_M0_T21  NET_COST  24.8
    X_U1_M0_T21  CAPMAX_U1_M0_T21  1
    X_U1_M0_T21  CAPMIN_U1_M0_T21  1
    X_U1_M0_T21  MBAL_U0_T21  1
    X_U1_M0_T21  MBAL_U1_T21  -0.9
    X_U1_M1_T21  NET_COST  32.1
    X_U1_M1_T21  CAPMAX_U1_M1_T21  1
    X_U1_M1_T21  CAPMIN_U1_M1_T21  1
    X_U1_M1_T21  MBAL_U0_T21  1
    X_U1_M1_T21  MBAL_U1_T21  -0.9
    X_U1_M2_T21  NET_COST  38.6
    X_U1_M2_T21  CAPMAX_U1_M2_T21  1
    X_U1_M2_T21  CAPMIN_U1_M2_T21  1
    X_U1_M2_T21  MBAL_U0_T21  1
    X_U1_M2_T21  MBAL_U1_T21  -0.9
    X_U2_M0_T21  NET_COST  16.2
    X_U2_M0_T21  CAPMAX_U2_M0_T21  1
    X_U2_M0_T21  CAPMIN_U2_M0_T21  1
    X_U2_M0_T21  MBAL_U1_T21  1
    X_U2_M0_T21  MBAL_U2_T21  -0.9
    X_U2_M1_T21  NET_COST  18.7
    X_U2_M1_T21  CAPMAX_U2_M1_T21  1
    X_U2_M1_T21  CAPMIN_U2_M1_T21  1
    X_U2_M1_T21  MBAL_U1_T21  1
    X_U2_M1_T21  MBAL_U2_T21  -0.9
    X_U2_M2_T21  NET_COST  18.6
    X_U2_M2_T21  CAPMAX_U2_M2_T21  1
    X_U2_M2_T21  CAPMIN_U2_M2_T21  1
    X_U2_M2_T21  MBAL_U1_T21  1
    X_U2_M2_T21  MBAL_U2_T21  -0.9
    X_U3_M0_T21  NET_COST  26.2
    X_U3_M0_T21  CAPMAX_U3_M0_T21  1
    X_U3_M0_T21  CAPMIN_U3_M0_T21  1
    X_U3_M0_T21  MBAL_U2_T21  1
    X_U3_M0_T21  MBAL_U3_T21  -0.9
    X_U3_M1_T21  NET_COST  33.6
    X_U3_M1_T21  CAPMAX_U3_M1_T21  1
    X_U3_M1_T21  CAPMIN_U3_M1_T21  1
    X_U3_M1_T21  MBAL_U2_T21  1
    X_U3_M1_T21  MBAL_U3_T21  -0.9
    X_U3_M2_T21  NET_COST  35.1
    X_U3_M2_T21  CAPMAX_U3_M2_T21  1
    X_U3_M2_T21  CAPMIN_U3_M2_T21  1
    X_U3_M2_T21  MBAL_U2_T21  1
    X_U3_M2_T21  MBAL_U3_T21  -0.9
    X_U4_M0_T21  NET_COST  33.6
    X_U4_M0_T21  CAPMAX_U4_M0_T21  1
    X_U4_M0_T21  CAPMIN_U4_M0_T21  1
    X_U4_M0_T21  MBAL_U3_T21  1
    X_U4_M0_T21  MBAL_U4_T21  -0.9
    X_U4_M1_T21  NET_COST  15.5
    X_U4_M1_T21  CAPMAX_U4_M1_T21  1
    X_U4_M1_T21  CAPMIN_U4_M1_T21  1
    X_U4_M1_T21  MBAL_U3_T21  1
    X_U4_M1_T21  MBAL_U4_T21  -0.9
    X_U4_M2_T21  NET_COST  28.4
    X_U4_M2_T21  CAPMAX_U4_M2_T21  1
    X_U4_M2_T21  CAPMIN_U4_M2_T21  1
    X_U4_M2_T21  MBAL_U3_T21  1
    X_U4_M2_T21  MBAL_U4_T21  -0.9
    X_U5_M0_T21  NET_COST  30.2
    X_U5_M0_T21  CAPMAX_U5_M0_T21  1
    X_U5_M0_T21  CAPMIN_U5_M0_T21  1
    X_U5_M0_T21  MBAL_U4_T21  1
    X_U5_M0_T21  MBAL_U5_T21  -0.9
    X_U5_M1_T21  NET_COST  31.7
    X_U5_M1_T21  CAPMAX_U5_M1_T21  1
    X_U5_M1_T21  CAPMIN_U5_M1_T21  1
    X_U5_M1_T21  MBAL_U4_T21  1
    X_U5_M1_T21  MBAL_U5_T21  -0.9
    X_U5_M2_T21  NET_COST  17.3
    X_U5_M2_T21  CAPMAX_U5_M2_T21  1
    X_U5_M2_T21  CAPMIN_U5_M2_T21  1
    X_U5_M2_T21  MBAL_U4_T21  1
    X_U5_M2_T21  MBAL_U5_T21  -0.9
    X_U6_M0_T21  NET_COST  26.9
    X_U6_M0_T21  CAPMAX_U6_M0_T21  1
    X_U6_M0_T21  CAPMIN_U6_M0_T21  1
    X_U6_M0_T21  MBAL_U5_T21  1
    X_U6_M0_T21  MBAL_U6_T21  -0.9
    X_U6_M1_T21  NET_COST  29.9
    X_U6_M1_T21  CAPMAX_U6_M1_T21  1
    X_U6_M1_T21  CAPMIN_U6_M1_T21  1
    X_U6_M1_T21  MBAL_U5_T21  1
    X_U6_M1_T21  MBAL_U6_T21  -0.9
    X_U6_M2_T21  NET_COST  36.5
    X_U6_M2_T21  CAPMAX_U6_M2_T21  1
    X_U6_M2_T21  CAPMIN_U6_M2_T21  1
    X_U6_M2_T21  MBAL_U5_T21  1
    X_U6_M2_T21  MBAL_U6_T21  -0.9
    X_U7_M0_T21  NET_COST  -67.7
    X_U7_M0_T21  CAPMAX_U7_M0_T21  1
    X_U7_M0_T21  CAPMIN_U7_M0_T21  1
    X_U7_M0_T21  MBAL_U6_T21  1
    X_U7_M0_T21  DEMAND_T21  1
    X_U7_M1_T21  NET_COST  -72.6
    X_U7_M1_T21  CAPMAX_U7_M1_T21  1
    X_U7_M1_T21  CAPMIN_U7_M1_T21  1
    X_U7_M1_T21  MBAL_U6_T21  1
    X_U7_M1_T21  DEMAND_T21  1
    X_U7_M2_T21  NET_COST  -60.9
    X_U7_M2_T21  CAPMAX_U7_M2_T21  1
    X_U7_M2_T21  CAPMIN_U7_M2_T21  1
    X_U7_M2_T21  MBAL_U6_T21  1
    X_U7_M2_T21  DEMAND_T21  1
    S_U0_T21  NET_COST  2
    S_U0_T21  MBAL_U0_T21  1
    S_U0_T21  MBAL_U0_T22  -1
    S_U1_T21  NET_COST  2
    S_U1_T21  MBAL_U1_T21  1
    S_U1_T21  MBAL_U1_T22  -1
    S_U2_T21  NET_COST  2
    S_U2_T21  MBAL_U2_T21  1
    S_U2_T21  MBAL_U2_T22  -1
    S_U3_T21  NET_COST  2
    S_U3_T21  MBAL_U3_T21  1
    S_U3_T21  MBAL_U3_T22  -1
    S_U4_T21  NET_COST  2
    S_U4_T21  MBAL_U4_T21  1
    S_U4_T21  MBAL_U4_T22  -1
    S_U5_T21  NET_COST  2
    S_U5_T21  MBAL_U5_T21  1
    S_U5_T21  MBAL_U5_T22  -1
    S_U6_T21  NET_COST  2
    S_U6_T21  MBAL_U6_T21  1
    S_U6_T21  MBAL_U6_T22  -1
    S_U7_T21  NET_COST  2
    MARK1056  'MARKER'                 'INTORG'
    Z_U0_M0_T22  NET_COST  228
    Z_U0_M0_T22  MODE_U0_T22  1
    Z_U0_M0_T22  CAPMAX_U0_M0_T22  -300
    Z_U0_M0_T22  CAPMIN_U0_M0_T22  -90
    MARK1057  'MARKER'                 'INTEND'
    MARK1058  'MARKER'                 'INTORG'
    Z_U0_M1_T22  NET_COST  281
    Z_U0_M1_T22  MODE_U0_T22  1
    Z_U0_M1_T22  CAPMAX_U0_M1_T22  -169
    Z_U0_M1_T22  CAPMIN_U0_M1_T22  -50.7
    MARK1059  'MARKER'                 'INTEND'
    MARK1060  'MARKER'                 'INTORG'
    Z_U0_M2_T22  NET_COST  175
    Z_U0_M2_T22  MODE_U0_T22  1
    Z_U0_M2_T22  CAPMAX_U0_M2_T22  -205
    Z_U0_M2_T22  CAPMIN_U0_M2_T22  -61.5
    MARK1061  'MARKER'                 'INTEND'
    MARK1062  'MARKER'                 'INTORG'
    Z_U1_M0_T22  NET_COST  102
    Z_U1_M0_T22  MODE_U1_T22  1
    Z_U1_M0_T22  CAPMAX_U1_M0_T22  -255
    Z_U1_M0_T22  CAPMIN_U1_M0_T22  -76.5
    MARK1063  'MARKER'                 'INTEND'
    MARK1064  'MARKER'                 'INTORG'
    Z_U1_M1_T22  NET_COST  227
    Z_U1_M1_T22  MODE_U1_T22  1
    Z_U1_M1_T22  CAPMAX_U1_M1_T22  -315
    Z_U1_M1_T22  CAPMIN_U1_M1_T22  -94.5
    MARK1065  'MARKER'                 'INTEND'
    MARK1066  'MARKER'                 'INTORG'
    Z_U1_M2_T22  NET_COST  251
    Z_U1_M2_T22  MODE_U1_T22  1
    Z_U1_M2_T22  CAPMAX_U1_M2_T22  -240
    Z_U1_M2_T22  CAPMIN_U1_M2_T22  -72
    MARK1067  'MARKER'                 'INTEND'
    MARK1068  'MARKER'                 'INTORG'
    Z_U2_M0_T22  NET_COST  113
    Z_U2_M0_T22  MODE_U2_T22  1
    Z_U2_M0_T22  CAPMAX_U2_M0_T22  -300
    Z_U2_M0_T22  CAPMIN_U2_M0_T22  -90
    MARK1069  'MARKER'                 'INTEND'
    MARK1070  'MARKER'                 'INTORG'
    Z_U2_M1_T22  NET_COST  185
    Z_U2_M1_T22  MODE_U2_T22  1
    Z_U2_M1_T22  CAPMAX_U2_M1_T22  -170
    Z_U2_M1_T22  CAPMIN_U2_M1_T22  -51
    MARK1071  'MARKER'                 'INTEND'
    MARK1072  'MARKER'                 'INTORG'
    Z_U2_M2_T22  NET_COST  119
    Z_U2_M2_T22  MODE_U2_T22  1
    Z_U2_M2_T22  CAPMAX_U2_M2_T22  -256
    Z_U2_M2_T22  CAPMIN_U2_M2_T22  -76.8
    MARK1073  'MARKER'                 'INTEND'
    MARK1074  'MARKER'                 'INTORG'
    Z_U3_M0_T22  NET_COST  255
    Z_U3_M0_T22  MODE_U3_T22  1
    Z_U3_M0_T22  CAPMAX_U3_M0_T22  -175
    Z_U3_M0_T22  CAPMIN_U3_M0_T22  -52.5
    MARK1075  'MARKER'                 'INTEND'
    MARK1076  'MARKER'                 'INTORG'
    Z_U3_M1_T22  NET_COST  165
    Z_U3_M1_T22  MODE_U3_T22  1
    Z_U3_M1_T22  CAPMAX_U3_M1_T22  -300
    Z_U3_M1_T22  CAPMIN_U3_M1_T22  -90
    MARK1077  'MARKER'                 'INTEND'
    MARK1078  'MARKER'                 'INTORG'
    Z_U3_M2_T22  NET_COST  109
    Z_U3_M2_T22  MODE_U3_T22  1
    Z_U3_M2_T22  CAPMAX_U3_M2_T22  -335
    Z_U3_M2_T22  CAPMIN_U3_M2_T22  -100.5
    MARK1079  'MARKER'                 'INTEND'
    MARK1080  'MARKER'                 'INTORG'
    Z_U4_M0_T22  NET_COST  183
    Z_U4_M0_T22  MODE_U4_T22  1
    Z_U4_M0_T22  CAPMAX_U4_M0_T22  -210
    Z_U4_M0_T22  CAPMIN_U4_M0_T22  -63
    MARK1081  'MARKER'                 'INTEND'
    MARK1082  'MARKER'                 'INTORG'
    Z_U4_M1_T22  NET_COST  240
    Z_U4_M1_T22  MODE_U4_T22  1
    Z_U4_M1_T22  CAPMAX_U4_M1_T22  -242
    Z_U4_M1_T22  CAPMIN_U4_M1_T22  -72.6
    MARK1083  'MARKER'                 'INTEND'
    MARK1084  'MARKER'                 'INTORG'
    Z_U4_M2_T22  NET_COST  198
    Z_U4_M2_T22  MODE_U4_T22  1
    Z_U4_M2_T22  CAPMAX_U4_M2_T22  -192
    Z_U4_M2_T22  CAPMIN_U4_M2_T22  -57.6
    MARK1085  'MARKER'                 'INTEND'
    MARK1086  'MARKER'                 'INTORG'
    Z_U5_M0_T22  NET_COST  199
    Z_U5_M0_T22  MODE_U5_T22  1
    Z_U5_M0_T22  CAPMAX_U5_M0_T22  -227
    Z_U5_M0_T22  CAPMIN_U5_M0_T22  -68.1
    MARK1087  'MARKER'                 'INTEND'
    MARK1088  'MARKER'                 'INTORG'
    Z_U5_M1_T22  NET_COST  183
    Z_U5_M1_T22  MODE_U5_T22  1
    Z_U5_M1_T22  CAPMAX_U5_M1_T22  -237
    Z_U5_M1_T22  CAPMIN_U5_M1_T22  -71.1
    MARK1089  'MARKER'                 'INTEND'
    MARK1090  'MARKER'                 'INTORG'
    Z_U5_M2_T22  NET_COST  115
    Z_U5_M2_T22  MODE_U5_T22  1
    Z_U5_M2_T22  CAPMAX_U5_M2_T22  -314
    Z_U5_M2_T22  CAPMIN_U5_M2_T22  -94.2
    MARK1091  'MARKER'                 'INTEND'
    MARK1092  'MARKER'                 'INTORG'
    Z_U6_M0_T22  NET_COST  189
    Z_U6_M0_T22  MODE_U6_T22  1
    Z_U6_M0_T22  CAPMAX_U6_M0_T22  -349
    Z_U6_M0_T22  CAPMIN_U6_M0_T22  -104.7
    MARK1093  'MARKER'                 'INTEND'
    MARK1094  'MARKER'                 'INTORG'
    Z_U6_M1_T22  NET_COST  224
    Z_U6_M1_T22  MODE_U6_T22  1
    Z_U6_M1_T22  CAPMAX_U6_M1_T22  -265
    Z_U6_M1_T22  CAPMIN_U6_M1_T22  -79.5
    MARK1095  'MARKER'                 'INTEND'
    MARK1096  'MARKER'                 'INTORG'
    Z_U6_M2_T22  NET_COST  195
    Z_U6_M2_T22  MODE_U6_T22  1
    Z_U6_M2_T22  CAPMAX_U6_M2_T22  -315
    Z_U6_M2_T22  CAPMIN_U6_M2_T22  -94.5
    MARK1097  'MARKER'                 'INTEND'
    MARK1098  'MARKER'                 'INTORG'
    Z_U7_M0_T22  NET_COST  189
    Z_U7_M0_T22  MODE_U7_T22  1
    Z_U7_M0_T22  CAPMAX_U7_M0_T22  -212
    Z_U7_M0_T22  CAPMIN_U7_M0_T22  -63.6
    MARK1099  'MARKER'                 'INTEND'
    MARK1100  'MARKER'                 'INTORG'
    Z_U7_M1_T22  NET_COST  205
    Z_U7_M1_T22  MODE_U7_T22  1
    Z_U7_M1_T22  CAPMAX_U7_M1_T22  -223
    Z_U7_M1_T22  CAPMIN_U7_M1_T22  -66.9
    MARK1101  'MARKER'                 'INTEND'
    MARK1102  'MARKER'                 'INTORG'
    Z_U7_M2_T22  NET_COST  161
    Z_U7_M2_T22  MODE_U7_T22  1
    Z_U7_M2_T22  CAPMAX_U7_M2_T22  -287
    Z_U7_M2_T22  CAPMIN_U7_M2_T22  -86.1
    MARK1103  'MARKER'                 'INTEND'
    X_U0_M0_T22  NET_COST  33.9
    X_U0_M0_T22  CAPMAX_U0_M0_T22  1
    X_U0_M0_T22  CAPMIN_U0_M0_T22  1
    X_U0_M0_T22  MBAL_U0_T22  -0.9
    X_U0_M1_T22  NET_COST  18.4
    X_U0_M1_T22  CAPMAX_U0_M1_T22  1
    X_U0_M1_T22  CAPMIN_U0_M1_T22  1
    X_U0_M1_T22  MBAL_U0_T22  -0.9
    X_U0_M2_T22  NET_COST  29.4
    X_U0_M2_T22  CAPMAX_U0_M2_T22  1
    X_U0_M2_T22  CAPMIN_U0_M2_T22  1
    X_U0_M2_T22  MBAL_U0_T22  -0.9
    X_U1_M0_T22  NET_COST  24.8
    X_U1_M0_T22  CAPMAX_U1_M0_T22  1
    X_U1_M0_T22  CAPMIN_U1_M0_T22  1
    X_U1_M0_T22  MBAL_U0_T22  1
    X_U1_M0_T22  MBAL_U1_T22  -0.9
    X_U1_M1_T22  NET_COST  32.1
    X_U1_M1_T22  CAPMAX_U1_M1_T22  1
    X_U1_M1_T22  CAPMIN_U1_M1_T22  1
    X_U1_M1_T22  MBAL_U0_T22  1
    X_U1_M1_T22  MBAL_U1_T22  -0.9
    X_U1_M2_T22  NET_COST  38.6
    X_U1_M2_T22  CAPMAX_U1_M2_T22  1
    X_U1_M2_T22  CAPMIN_U1_M2_T22  1
    X_U1_M2_T22  MBAL_U0_T22  1
    X_U1_M2_T22  MBAL_U1_T22  -0.9
    X_U2_M0_T22  NET_COST  16.2
    X_U2_M0_T22  CAPMAX_U2_M0_T22  1
    X_U2_M0_T22  CAPMIN_U2_M0_T22  1
    X_U2_M0_T22  MBAL_U1_T22  1
    X_U2_M0_T22  MBAL_U2_T22  -0.9
    X_U2_M1_T22  NET_COST  18.7
    X_U2_M1_T22  CAPMAX_U2_M1_T22  1
    X_U2_M1_T22  CAPMIN_U2_M1_T22  1
    X_U2_M1_T22  MBAL_U1_T22  1
    X_U2_M1_T22  MBAL_U2_T22  -0.9
    X_U2_M2_T22  NET_COST  18.6
    X_U2_M2_T22  CAPMAX_U2_M2_T22  1
    X_U2_M2_T22  CAPMIN_U2_M2_T22  1
    X_U2_M2_T22  MBAL_U1_T22  1
    X_U2_M2_T22  MBAL_U2_T22  -0.9
    X_U3_M0_T22  NET_COST  26.2
    X_U3_M0_T22  CAPMAX_U3_M0_T22  1
    X_U3_M0_T22  CAPMIN_U3_M0_T22  1
    X_U3_M0_T22  MBAL_U2_T22  1
    X_U3_M0_T22  MBAL_U3_T22  -0.9
    X_U3_M1_T22  NET_COST  33.6
    X_U3_M1_T22  CAPMAX_U3_M1_T22  1
    X_U3_M1_T22  CAPMIN_U3_M1_T22  1
    X_U3_M1_T22  MBAL_U2_T22  1
    X_U3_M1_T22  MBAL_U3_T22  -0.9
    X_U3_M2_T22  NET_COST  35.1
    X_U3_M2_T22  CAPMAX_U3_M2_T22  1
    X_U3_M2_T22  CAPMIN_U3_M2_T22  1
    X_U3_M2_T22  MBAL_U2_T22  1
    X_U3_M2_T22  MBAL_U3_T22  -0.9
    X_U4_M0_T22  NET_COST  33.6
    X_U4_M0_T22  CAPMAX_U4_M0_T22  1
    X_U4_M0_T22  CAPMIN_U4_M0_T22  1
    X_U4_M0_T22  MBAL_U3_T22  1
    X_U4_M0_T22  MBAL_U4_T22  -0.9
    X_U4_M1_T22  NET_COST  15.5
    X_U4_M1_T22  CAPMAX_U4_M1_T22  1
    X_U4_M1_T22  CAPMIN_U4_M1_T22  1
    X_U4_M1_T22  MBAL_U3_T22  1
    X_U4_M1_T22  MBAL_U4_T22  -0.9
    X_U4_M2_T22  NET_COST  28.4
    X_U4_M2_T22  CAPMAX_U4_M2_T22  1
    X_U4_M2_T22  CAPMIN_U4_M2_T22  1
    X_U4_M2_T22  MBAL_U3_T22  1
    X_U4_M2_T22  MBAL_U4_T22  -0.9
    X_U5_M0_T22  NET_COST  30.2
    X_U5_M0_T22  CAPMAX_U5_M0_T22  1
    X_U5_M0_T22  CAPMIN_U5_M0_T22  1
    X_U5_M0_T22  MBAL_U4_T22  1
    X_U5_M0_T22  MBAL_U5_T22  -0.9
    X_U5_M1_T22  NET_COST  31.7
    X_U5_M1_T22  CAPMAX_U5_M1_T22  1
    X_U5_M1_T22  CAPMIN_U5_M1_T22  1
    X_U5_M1_T22  MBAL_U4_T22  1
    X_U5_M1_T22  MBAL_U5_T22  -0.9
    X_U5_M2_T22  NET_COST  17.3
    X_U5_M2_T22  CAPMAX_U5_M2_T22  1
    X_U5_M2_T22  CAPMIN_U5_M2_T22  1
    X_U5_M2_T22  MBAL_U4_T22  1
    X_U5_M2_T22  MBAL_U5_T22  -0.9
    X_U6_M0_T22  NET_COST  26.9
    X_U6_M0_T22  CAPMAX_U6_M0_T22  1
    X_U6_M0_T22  CAPMIN_U6_M0_T22  1
    X_U6_M0_T22  MBAL_U5_T22  1
    X_U6_M0_T22  MBAL_U6_T22  -0.9
    X_U6_M1_T22  NET_COST  29.9
    X_U6_M1_T22  CAPMAX_U6_M1_T22  1
    X_U6_M1_T22  CAPMIN_U6_M1_T22  1
    X_U6_M1_T22  MBAL_U5_T22  1
    X_U6_M1_T22  MBAL_U6_T22  -0.9
    X_U6_M2_T22  NET_COST  36.5
    X_U6_M2_T22  CAPMAX_U6_M2_T22  1
    X_U6_M2_T22  CAPMIN_U6_M2_T22  1
    X_U6_M2_T22  MBAL_U5_T22  1
    X_U6_M2_T22  MBAL_U6_T22  -0.9
    X_U7_M0_T22  NET_COST  -67.7
    X_U7_M0_T22  CAPMAX_U7_M0_T22  1
    X_U7_M0_T22  CAPMIN_U7_M0_T22  1
    X_U7_M0_T22  MBAL_U6_T22  1
    X_U7_M0_T22  DEMAND_T22  1
    X_U7_M1_T22  NET_COST  -72.6
    X_U7_M1_T22  CAPMAX_U7_M1_T22  1
    X_U7_M1_T22  CAPMIN_U7_M1_T22  1
    X_U7_M1_T22  MBAL_U6_T22  1
    X_U7_M1_T22  DEMAND_T22  1
    X_U7_M2_T22  NET_COST  -60.9
    X_U7_M2_T22  CAPMAX_U7_M2_T22  1
    X_U7_M2_T22  CAPMIN_U7_M2_T22  1
    X_U7_M2_T22  MBAL_U6_T22  1
    X_U7_M2_T22  DEMAND_T22  1
    S_U0_T22  NET_COST  2
    S_U0_T22  MBAL_U0_T22  1
    S_U0_T22  MBAL_U0_T23  -1
    S_U1_T22  NET_COST  2
    S_U1_T22  MBAL_U1_T22  1
    S_U1_T22  MBAL_U1_T23  -1
    S_U2_T22  NET_COST  2
    S_U2_T22  MBAL_U2_T22  1
    S_U2_T22  MBAL_U2_T23  -1
    S_U3_T22  NET_COST  2
    S_U3_T22  MBAL_U3_T22  1
    S_U3_T22  MBAL_U3_T23  -1
    S_U4_T22  NET_COST  2
    S_U4_T22  MBAL_U4_T22  1
    S_U4_T22  MBAL_U4_T23  -1
    S_U5_T22  NET_COST  2
    S_U5_T22  MBAL_U5_T22  1
    S_U5_T22  MBAL_U5_T23  -1
    S_U6_T22  NET_COST  2
    S_U6_T22  MBAL_U6_T22  1
    S_U6_T22  MBAL_U6_T23  -1
    S_U7_T22  NET_COST  2
    MARK1104  'MARKER'                 'INTORG'
    Z_U0_M0_T23  NET_COST  228
    Z_U0_M0_T23  MODE_U0_T23  1
    Z_U0_M0_T23  CAPMAX_U0_M0_T23  -300
    Z_U0_M0_T23  CAPMIN_U0_M0_T23  -90
    MARK1105  'MARKER'                 'INTEND'
    MARK1106  'MARKER'                 'INTORG'
    Z_U0_M1_T23  NET_COST  281
    Z_U0_M1_T23  MODE_U0_T23  1
    Z_U0_M1_T23  CAPMAX_U0_M1_T23  -169
    Z_U0_M1_T23  CAPMIN_U0_M1_T23  -50.7
    MARK1107  'MARKER'                 'INTEND'
    MARK1108  'MARKER'                 'INTORG'
    Z_U0_M2_T23  NET_COST  175
    Z_U0_M2_T23  MODE_U0_T23  1
    Z_U0_M2_T23  CAPMAX_U0_M2_T23  -205
    Z_U0_M2_T23  CAPMIN_U0_M2_T23  -61.5
    MARK1109  'MARKER'                 'INTEND'
    MARK1110  'MARKER'                 'INTORG'
    Z_U1_M0_T23  NET_COST  102
    Z_U1_M0_T23  MODE_U1_T23  1
    Z_U1_M0_T23  CAPMAX_U1_M0_T23  -255
    Z_U1_M0_T23  CAPMIN_U1_M0_T23  -76.5
    MARK1111  'MARKER'                 'INTEND'
    MARK1112  'MARKER'                 'INTORG'
    Z_U1_M1_T23  NET_COST  227
    Z_U1_M1_T23  MODE_U1_T23  1
    Z_U1_M1_T23  CAPMAX_U1_M1_T23  -315
    Z_U1_M1_T23  CAPMIN_U1_M1_T23  -94.5
    MARK1113  'MARKER'                 'INTEND'
    MARK1114  'MARKER'                 'INTORG'
    Z_U1_M2_T23  NET_COST  251
    Z_U1_M2_T23  MODE_U1_T23  1
    Z_U1_M2_T23  CAPMAX_U1_M2_T23  -240
    Z_U1_M2_T23  CAPMIN_U1_M2_T23  -72
    MARK1115  'MARKER'                 'INTEND'
    MARK1116  'MARKER'                 'INTORG'
    Z_U2_M0_T23  NET_COST  113
    Z_U2_M0_T23  MODE_U2_T23  1
    Z_U2_M0_T23  CAPMAX_U2_M0_T23  -300
    Z_U2_M0_T23  CAPMIN_U2_M0_T23  -90
    MARK1117  'MARKER'                 'INTEND'
    MARK1118  'MARKER'                 'INTORG'
    Z_U2_M1_T23  NET_COST  185
    Z_U2_M1_T23  MODE_U2_T23  1
    Z_U2_M1_T23  CAPMAX_U2_M1_T23  -170
    Z_U2_M1_T23  CAPMIN_U2_M1_T23  -51
    MARK1119  'MARKER'                 'INTEND'
    MARK1120  'MARKER'                 'INTORG'
    Z_U2_M2_T23  NET_COST  119
    Z_U2_M2_T23  MODE_U2_T23  1
    Z_U2_M2_T23  CAPMAX_U2_M2_T23  -256
    Z_U2_M2_T23  CAPMIN_U2_M2_T23  -76.8
    MARK1121  'MARKER'                 'INTEND'
    MARK1122  'MARKER'                 'INTORG'
    Z_U3_M0_T23  NET_COST  255
    Z_U3_M0_T23  MODE_U3_T23  1
    Z_U3_M0_T23  CAPMAX_U3_M0_T23  -175
    Z_U3_M0_T23  CAPMIN_U3_M0_T23  -52.5
    MARK1123  'MARKER'                 'INTEND'
    MARK1124  'MARKER'                 'INTORG'
    Z_U3_M1_T23  NET_COST  165
    Z_U3_M1_T23  MODE_U3_T23  1
    Z_U3_M1_T23  CAPMAX_U3_M1_T23  -300
    Z_U3_M1_T23  CAPMIN_U3_M1_T23  -90
    MARK1125  'MARKER'                 'INTEND'
    MARK1126  'MARKER'                 'INTORG'
    Z_U3_M2_T23  NET_COST  109
    Z_U3_M2_T23  MODE_U3_T23  1
    Z_U3_M2_T23  CAPMAX_U3_M2_T23  -335
    Z_U3_M2_T23  CAPMIN_U3_M2_T23  -100.5
    MARK1127  'MARKER'                 'INTEND'
    MARK1128  'MARKER'                 'INTORG'
    Z_U4_M0_T23  NET_COST  183
    Z_U4_M0_T23  MODE_U4_T23  1
    Z_U4_M0_T23  CAPMAX_U4_M0_T23  -210
    Z_U4_M0_T23  CAPMIN_U4_M0_T23  -63
    MARK1129  'MARKER'                 'INTEND'
    MARK1130  'MARKER'                 'INTORG'
    Z_U4_M1_T23  NET_COST  240
    Z_U4_M1_T23  MODE_U4_T23  1
    Z_U4_M1_T23  CAPMAX_U4_M1_T23  -242
    Z_U4_M1_T23  CAPMIN_U4_M1_T23  -72.6
    MARK1131  'MARKER'                 'INTEND'
    MARK1132  'MARKER'                 'INTORG'
    Z_U4_M2_T23  NET_COST  198
    Z_U4_M2_T23  MODE_U4_T23  1
    Z_U4_M2_T23  CAPMAX_U4_M2_T23  -192
    Z_U4_M2_T23  CAPMIN_U4_M2_T23  -57.6
    MARK1133  'MARKER'                 'INTEND'
    MARK1134  'MARKER'                 'INTORG'
    Z_U5_M0_T23  NET_COST  199
    Z_U5_M0_T23  MODE_U5_T23  1
    Z_U5_M0_T23  CAPMAX_U5_M0_T23  -227
    Z_U5_M0_T23  CAPMIN_U5_M0_T23  -68.1
    MARK1135  'MARKER'                 'INTEND'
    MARK1136  'MARKER'                 'INTORG'
    Z_U5_M1_T23  NET_COST  183
    Z_U5_M1_T23  MODE_U5_T23  1
    Z_U5_M1_T23  CAPMAX_U5_M1_T23  -237
    Z_U5_M1_T23  CAPMIN_U5_M1_T23  -71.1
    MARK1137  'MARKER'                 'INTEND'
    MARK1138  'MARKER'                 'INTORG'
    Z_U5_M2_T23  NET_COST  115
    Z_U5_M2_T23  MODE_U5_T23  1
    Z_U5_M2_T23  CAPMAX_U5_M2_T23  -314
    Z_U5_M2_T23  CAPMIN_U5_M2_T23  -94.2
    MARK1139  'MARKER'                 'INTEND'
    MARK1140  'MARKER'                 'INTORG'
    Z_U6_M0_T23  NET_COST  189
    Z_U6_M0_T23  MODE_U6_T23  1
    Z_U6_M0_T23  CAPMAX_U6_M0_T23  -349
    Z_U6_M0_T23  CAPMIN_U6_M0_T23  -104.7
    MARK1141  'MARKER'                 'INTEND'
    MARK1142  'MARKER'                 'INTORG'
    Z_U6_M1_T23  NET_COST  224
    Z_U6_M1_T23  MODE_U6_T23  1
    Z_U6_M1_T23  CAPMAX_U6_M1_T23  -265
    Z_U6_M1_T23  CAPMIN_U6_M1_T23  -79.5
    MARK1143  'MARKER'                 'INTEND'
    MARK1144  'MARKER'                 'INTORG'
    Z_U6_M2_T23  NET_COST  195
    Z_U6_M2_T23  MODE_U6_T23  1
    Z_U6_M2_T23  CAPMAX_U6_M2_T23  -315
    Z_U6_M2_T23  CAPMIN_U6_M2_T23  -94.5
    MARK1145  'MARKER'                 'INTEND'
    MARK1146  'MARKER'                 'INTORG'
    Z_U7_M0_T23  NET_COST  189
    Z_U7_M0_T23  MODE_U7_T23  1
    Z_U7_M0_T23  CAPMAX_U7_M0_T23  -212
    Z_U7_M0_T23  CAPMIN_U7_M0_T23  -63.6
    MARK1147  'MARKER'                 'INTEND'
    MARK1148  'MARKER'                 'INTORG'
    Z_U7_M1_T23  NET_COST  205
    Z_U7_M1_T23  MODE_U7_T23  1
    Z_U7_M1_T23  CAPMAX_U7_M1_T23  -223
    Z_U7_M1_T23  CAPMIN_U7_M1_T23  -66.9
    MARK1149  'MARKER'                 'INTEND'
    MARK1150  'MARKER'                 'INTORG'
    Z_U7_M2_T23  NET_COST  161
    Z_U7_M2_T23  MODE_U7_T23  1
    Z_U7_M2_T23  CAPMAX_U7_M2_T23  -287
    Z_U7_M2_T23  CAPMIN_U7_M2_T23  -86.1
    MARK1151  'MARKER'                 'INTEND'
    X_U0_M0_T23  NET_COST  33.9
    X_U0_M0_T23  CAPMAX_U0_M0_T23  1
    X_U0_M0_T23  CAPMIN_U0_M0_T23  1
    X_U0_M0_T23  MBAL_U0_T23  -0.9
    X_U0_M1_T23  NET_COST  18.4
    X_U0_M1_T23  CAPMAX_U0_M1_T23  1
    X_U0_M1_T23  CAPMIN_U0_M1_T23  1
    X_U0_M1_T23  MBAL_U0_T23  -0.9
    X_U0_M2_T23  NET_COST  29.4
    X_U0_M2_T23  CAPMAX_U0_M2_T23  1
    X_U0_M2_T23  CAPMIN_U0_M2_T23  1
    X_U0_M2_T23  MBAL_U0_T23  -0.9
    X_U1_M0_T23  NET_COST  24.8
    X_U1_M0_T23  CAPMAX_U1_M0_T23  1
    X_U1_M0_T23  CAPMIN_U1_M0_T23  1
    X_U1_M0_T23  MBAL_U0_T23  1
    X_U1_M0_T23  MBAL_U1_T23  -0.9
    X_U1_M1_T23  NET_COST  32.1
    X_U1_M1_T23  CAPMAX_U1_M1_T23  1
    X_U1_M1_T23  CAPMIN_U1_M1_T23  1
    X_U1_M1_T23  MBAL_U0_T23  1
    X_U1_M1_T23  MBAL_U1_T23  -0.9
    X_U1_M2_T23  NET_COST  38.6
    X_U1_M2_T23  CAPMAX_U1_M2_T23  1
    X_U1_M2_T23  CAPMIN_U1_M2_T23  1
    X_U1_M2_T23  MBAL_U0_T23  1
    X_U1_M2_T23  MBAL_U1_T23  -0.9
    X_U2_M0_T23  NET_COST  16.2
    X_U2_M0_T23  CAPMAX_U2_M0_T23  1
    X_U2_M0_T23  CAPMIN_U2_M0_T23  1
    X_U2_M0_T23  MBAL_U1_T23  1
    X_U2_M0_T23  MBAL_U2_T23  -0.9
    X_U2_M1_T23  NET_COST  18.7
    X_U2_M1_T23  CAPMAX_U2_M1_T23  1
    X_U2_M1_T23  CAPMIN_U2_M1_T23  1
    X_U2_M1_T23  MBAL_U1_T23  1
    X_U2_M1_T23  MBAL_U2_T23  -0.9
    X_U2_M2_T23  NET_COST  18.6
    X_U2_M2_T23  CAPMAX_U2_M2_T23  1
    X_U2_M2_T23  CAPMIN_U2_M2_T23  1
    X_U2_M2_T23  MBAL_U1_T23  1
    X_U2_M2_T23  MBAL_U2_T23  -0.9
    X_U3_M0_T23  NET_COST  26.2
    X_U3_M0_T23  CAPMAX_U3_M0_T23  1
    X_U3_M0_T23  CAPMIN_U3_M0_T23  1
    X_U3_M0_T23  MBAL_U2_T23  1
    X_U3_M0_T23  MBAL_U3_T23  -0.9
    X_U3_M1_T23  NET_COST  33.6
    X_U3_M1_T23  CAPMAX_U3_M1_T23  1
    X_U3_M1_T23  CAPMIN_U3_M1_T23  1
    X_U3_M1_T23  MBAL_U2_T23  1
    X_U3_M1_T23  MBAL_U3_T23  -0.9
    X_U3_M2_T23  NET_COST  35.1
    X_U3_M2_T23  CAPMAX_U3_M2_T23  1
    X_U3_M2_T23  CAPMIN_U3_M2_T23  1
    X_U3_M2_T23  MBAL_U2_T23  1
    X_U3_M2_T23  MBAL_U3_T23  -0.9
    X_U4_M0_T23  NET_COST  33.6
    X_U4_M0_T23  CAPMAX_U4_M0_T23  1
    X_U4_M0_T23  CAPMIN_U4_M0_T23  1
    X_U4_M0_T23  MBAL_U3_T23  1
    X_U4_M0_T23  MBAL_U4_T23  -0.9
    X_U4_M1_T23  NET_COST  15.5
    X_U4_M1_T23  CAPMAX_U4_M1_T23  1
    X_U4_M1_T23  CAPMIN_U4_M1_T23  1
    X_U4_M1_T23  MBAL_U3_T23  1
    X_U4_M1_T23  MBAL_U4_T23  -0.9
    X_U4_M2_T23  NET_COST  28.4
    X_U4_M2_T23  CAPMAX_U4_M2_T23  1
    X_U4_M2_T23  CAPMIN_U4_M2_T23  1
    X_U4_M2_T23  MBAL_U3_T23  1
    X_U4_M2_T23  MBAL_U4_T23  -0.9
    X_U5_M0_T23  NET_COST  30.2
    X_U5_M0_T23  CAPMAX_U5_M0_T23  1
    X_U5_M0_T23  CAPMIN_U5_M0_T23  1
    X_U5_M0_T23  MBAL_U4_T23  1
    X_U5_M0_T23  MBAL_U5_T23  -0.9
    X_U5_M1_T23  NET_COST  31.7
    X_U5_M1_T23  CAPMAX_U5_M1_T23  1
    X_U5_M1_T23  CAPMIN_U5_M1_T23  1
    X_U5_M1_T23  MBAL_U4_T23  1
    X_U5_M1_T23  MBAL_U5_T23  -0.9
    X_U5_M2_T23  NET_COST  17.3
    X_U5_M2_T23  CAPMAX_U5_M2_T23  1
    X_U5_M2_T23  CAPMIN_U5_M2_T23  1
    X_U5_M2_T23  MBAL_U4_T23  1
    X_U5_M2_T23  MBAL_U5_T23  -0.9
    X_U6_M0_T23  NET_COST  26.9
    X_U6_M0_T23  CAPMAX_U6_M0_T23  1
    X_U6_M0_T23  CAPMIN_U6_M0_T23  1
    X_U6_M0_T23  MBAL_U5_T23  1
    X_U6_M0_T23  MBAL_U6_T23  -0.9
    X_U6_M1_T23  NET_COST  29.9
    X_U6_M1_T23  CAPMAX_U6_M1_T23  1
    X_U6_M1_T23  CAPMIN_U6_M1_T23  1
    X_U6_M1_T23  MBAL_U5_T23  1
    X_U6_M1_T23  MBAL_U6_T23  -0.9
    X_U6_M2_T23  NET_COST  36.5
    X_U6_M2_T23  CAPMAX_U6_M2_T23  1
    X_U6_M2_T23  CAPMIN_U6_M2_T23  1
    X_U6_M2_T23  MBAL_U5_T23  1
    X_U6_M2_T23  MBAL_U6_T23  -0.9
    X_U7_M0_T23  NET_COST  -67.7
    X_U7_M0_T23  CAPMAX_U7_M0_T23  1
    X_U7_M0_T23  CAPMIN_U7_M0_T23  1
    X_U7_M0_T23  MBAL_U6_T23  1
    X_U7_M0_T23  DEMAND_T23  1
    X_U7_M1_T23  NET_COST  -72.6
    X_U7_M1_T23  CAPMAX_U7_M1_T23  1
    X_U7_M1_T23  CAPMIN_U7_M1_T23  1
    X_U7_M1_T23  MBAL_U6_T23  1
    X_U7_M1_T23  DEMAND_T23  1
    X_U7_M2_T23  NET_COST  -60.9
    X_U7_M2_T23  CAPMAX_U7_M2_T23  1
    X_U7_M2_T23  CAPMIN_U7_M2_T23  1
    X_U7_M2_T23  MBAL_U6_T23  1
    X_U7_M2_T23  DEMAND_T23  1
    S_U0_T23  NET_COST  2
    S_U0_T23  MBAL_U0_T23  1
    S_U1_T23  NET_COST  2
    S_U1_T23  MBAL_U1_T23  1
    S_U2_T23  NET_COST  2
    S_U2_T23  MBAL_U2_T23  1
    S_U3_T23  NET_COST  2
    S_U3_T23  MBAL_U3_T23  1
    S_U4_T23  NET_COST  2
    S_U4_T23  MBAL_U4_T23  1
    S_U5_T23  NET_COST  2
    S_U5_T23  MBAL_U5_T23  1
    S_U6_T23  NET_COST  2
    S_U6_T23  MBAL_U6_T23  1
    S_U7_T23  NET_COST  2
RHS
    RHS1      MODE_U0_T0  1
    RHS1      MODE_U1_T0  1
    RHS1      MODE_U2_T0  1
    RHS1      MODE_U3_T0  1
    RHS1      MODE_U4_T0  1
    RHS1      MODE_U5_T0  1
    RHS1      MODE_U6_T0  1
    RHS1      MODE_U7_T0  1
    RHS1      DEMAND_T0  167
    RHS1      MODE_U0_T1  1
    RHS1      MODE_U1_T1  1
    RHS1      MODE_U2_T1  1
    RHS1      MODE_U3_T1  1
    RHS1      MODE_U4_T1  1
    RHS1      MODE_U5_T1  1
    RHS1      MODE_U6_T1  1
    RHS1      MODE_U7_T1  1
    RHS1      DEMAND_T1  158
    RHS1      MODE_U0_T2  1
    RHS1      MODE_U1_T2  1
    RHS1      MODE_U2_T2  1
    RHS1      MODE_U3_T2  1
    RHS1      MODE_U4_T2  1
    RHS1      MODE_U5_T2  1
    RHS1      MODE_U6_T2  1
    RHS1      MODE_U7_T2  1
    RHS1      DEMAND_T2  178
    RHS1      MODE_U0_T3  1
    RHS1      MODE_U1_T3  1
    RHS1      MODE_U2_T3  1
    RHS1      MODE_U3_T3  1
    RHS1      MODE_U4_T3  1
    RHS1      MODE_U5_T3  1
    RHS1      MODE_U6_T3  1
    RHS1      MODE_U7_T3  1
    RHS1      DEMAND_T3  174
    RHS1      MODE_U0_T4  1
    RHS1      MODE_U1_T4  1
    RHS1      MODE_U2_T4  1
    RHS1      MODE_U3_T4  1
    RHS1      MODE_U4_T4  1
    RHS1      MODE_U5_T4  1
    RHS1      MODE_U6_T4  1
    RHS1      MODE_U7_T4  1
    RHS1      DEMAND_T4  158
    RHS1      MODE_U0_T5  1
    RHS1      MODE_U1_T5  1
    RHS1      MODE_U2_T5  1
    RHS1      MODE_U3_T5  1
    RHS1      MODE_U4_T5  1
    RHS1      MODE_U5_T5  1
    RHS1      MODE_U6_T5  1
    RHS1      MODE_U7_T5  1
    RHS1      DEMAND_T5  175
    RHS1      MODE_U0_T6  1
    RHS1      MODE_U1_T6  1
    RHS1      MODE_U2_T6  1
    RHS1      MODE_U3_T6  1
    RHS1      MODE_U4_T6  1
    RHS1      MODE_U5_T6  1
    RHS1      MODE_U6_T6  1
    RHS1      MODE_U7_T6  1
    RHS1      DEMAND_T6  128
    RHS1      MODE_U0_T7  1
    RHS1      MODE_U1_T7  1
    RHS1      MODE_U2_T7  1
    RHS1      MODE_U3_T7  1
    RHS1      MODE_U4_T7  1
    RHS1      MODE_U5_T7  1
    RHS1      MODE_U6_T7  1
    RHS1      MODE_U7_T7  1
    RHS1      DEMAND_T7  192
    RHS1      MODE_U0_T8  1
    RHS1      MODE_U1_T8  1
    RHS1      MODE_U2_T8  1
    RHS1      MODE_U3_T8  1
    RHS1      MODE_U4_T8  1
    RHS1      MODE_U5_T8  1
    RHS1      MODE_U6_T8  1
    RHS1      MODE_U7_T8  1
    RHS1      DEMAND_T8  122
    RHS1      MODE_U0_T9  1
    RHS1      MODE_U1_T9  1
    RHS1      MODE_U2_T9  1
    RHS1      MODE_U3_T9  1
    RHS1      MODE_U4_T9  1
    RHS1      MODE_U5_T9  1
    RHS1      MODE_U6_T9  1
    RHS1      MODE_U7_T9  1
    RHS1      DEMAND_T9  116
    RHS1      MODE_U0_T10  1
    RHS1      MODE_U1_T10  1
    RHS1      MODE_U2_T10  1
    RHS1      MODE_U3_T10  1
    RHS1      MODE_U4_T10  1
    RHS1      MODE_U5_T10  1
    RHS1      MODE_U6_T10  1
    RHS1      MODE_U7_T10  1
    RHS1      DEMAND_T10  169
    RHS1      MODE_U0_T11  1
    RHS1      MODE_U1_T11  1
    RHS1      MODE_U2_T11  1
    RHS1      MODE_U3_T11  1
    RHS1      MODE_U4_T11  1
    RHS1      MODE_U5_T11  1
    RHS1      MODE_U6_T11  1
    RHS1      MODE_U7_T11  1
    RHS1      DEMAND_T11  151
    RHS1      MODE_U0_T12  1
    RHS1      MODE_U1_T12  1
    RHS1      MODE_U2_T12  1
    RHS1      MODE_U3_T12  1
    RHS1      MODE_U4_T12  1
    RHS1      MODE_U5_T12  1
    RHS1      MODE_U6_T12  1
    RHS1      MODE_U7_T12  1
    RHS1      DEMAND_T12  122
    RHS1      MODE_U0_T13  1
    RHS1      MODE_U1_T13  1
    RHS1      MODE_U2_T13  1
    RHS1      MODE_U3_T13  1
    RHS1      MODE_U4_T13  1
    RHS1      MODE_U5_T13  1
    RHS1      MODE_U6_T13  1
    RHS1      MODE_U7_T13  1
    RHS1      DEMAND_T13  97
    RHS1      MODE_U0_T14  1
    RHS1      MODE_U1_T14  1
    RHS1      MODE_U2_T14  1
    RHS1      MODE_U3_T14  1
    RHS1      MODE_U4_T14  1
    RHS1      MODE_U5_T14  1
    RHS1      MODE_U6_T14  1
    RHS1      MODE_U7_T14  1
    RHS1      DEMAND_T14  155
    RHS1      MODE_U0_T15  1
    RHS1      MODE_U1_T15  1
    RHS1      MODE_U2_T15  1
    RHS1      MODE_U3_T15  1
    RHS1      MODE_U4_T15  1
    RHS1      MODE_U5_T15  1
    RHS1      MODE_U6_T15  1
    RHS1      MODE_U7_T15  1
    RHS1      DEMAND_T15  151
    RHS1      MODE_U0_T16  1
    RHS1      MODE_U1_T16  1
    RHS1      MODE_U2_T16  1
    RHS1      MODE_U3_T16  1
    RHS1      MODE_U4_T16  1
    RHS1      MODE_U5_T16  1
    RHS1      MODE_U6_T16  1
    RHS1      MODE_U7_T16  1
    RHS1      DEMAND_T16  143
    RHS1      MODE_U0_T17  1
    RHS1      MODE_U1_T17  1
    RHS1      MODE_U2_T17  1
    RHS1      MODE_U3_T17  1
    RHS1      MODE_U4_T17  1
    RHS1      MODE_U5_T17  1
    RHS1      MODE_U6_T17  1
    RHS1      MODE_U7_T17  1
    RHS1      DEMAND_T17  154
    RHS1      MODE_U0_T18  1
    RHS1      MODE_U1_T18  1
    RHS1      MODE_U2_T18  1
    RHS1      MODE_U3_T18  1
    RHS1      MODE_U4_T18  1
    RHS1      MODE_U5_T18  1
    RHS1      MODE_U6_T18  1
    RHS1      MODE_U7_T18  1
    RHS1      DEMAND_T18  87
    RHS1      MODE_U0_T19  1
    RHS1      MODE_U1_T19  1
    RHS1      MODE_U2_T19  1
    RHS1      MODE_U3_T19  1
    RHS1      MODE_U4_T19  1
    RHS1      MODE_U5_T19  1
    RHS1      MODE_U6_T19  1
    RHS1      MODE_U7_T19  1
    RHS1      DEMAND_T19  124
    RHS1      MODE_U0_T20  1
    RHS1      MODE_U1_T20  1
    RHS1      MODE_U2_T20  1
    RHS1      MODE_U3_T20  1
    RHS1      MODE_U4_T20  1
    RHS1      MODE_U5_T20  1
    RHS1      MODE_U6_T20  1
    RHS1      MODE_U7_T20  1
    RHS1      DEMAND_T20  168
    RHS1      MODE_U0_T21  1
    RHS1      MODE_U1_T21  1
    RHS1      MODE_U2_T21  1
    RHS1      MODE_U3_T21  1
    RHS1      MODE_U4_T21  1
    RHS1      MODE_U5_T21  1
    RHS1      MODE_U6_T21  1
    RHS1      MODE_U7_T21  1
    RHS1      DEMAND_T21  153
    RHS1      MODE_U0_T22  1
    RHS1      MODE_U1_T22  1
    RHS1      MODE_U2_T22  1
    RHS1      MODE_U3_T22  1
    RHS1      MODE_U4_T22  1
    RHS1      MODE_U5_T22  1
    RHS1      MODE_U6_T22  1
    RHS1      MODE_U7_T22  1
    RHS1      DEMAND_T22  127
    RHS1      MODE_U0_T23  1
    RHS1      MODE_U1_T23  1
    RHS1      MODE_U2_T23  1
    RHS1      MODE_U3_T23  1
    RHS1      MODE_U4_T23  1
    RHS1      MODE_U5_T23  1
    RHS1      MODE_U6_T23  1
    RHS1      MODE_U7_T23  1
    RHS1      DEMAND_T23  192
BOUNDS
 BV BND1      Z_U0_M0_T0
 BV BND1      Z_U0_M1_T0
 BV BND1      Z_U0_M2_T0
 BV BND1      Z_U1_M0_T0
 BV BND1      Z_U1_M1_T0
 BV BND1      Z_U1_M2_T0
 BV BND1      Z_U2_M0_T0
 BV BND1      Z_U2_M1_T0
 BV BND1      Z_U2_M2_T0
 BV BND1      Z_U3_M0_T0
 BV BND1      Z_U3_M1_T0
 BV BND1      Z_U3_M2_T0
 BV BND1      Z_U4_M0_T0
 BV BND1      Z_U4_M1_T0
 BV BND1      Z_U4_M2_T0
 BV BND1      Z_U5_M0_T0
 BV BND1      Z_U5_M1_T0
 BV BND1      Z_U5_M2_T0
 BV BND1      Z_U6_M0_T0
 BV BND1      Z_U6_M1_T0
 BV BND1      Z_U6_M2_T0
 BV BND1      Z_U7_M0_T0
 BV BND1      Z_U7_M1_T0
 BV BND1      Z_U7_M2_T0
 UP BND1      X_U0_M0_T0  300
 UP BND1      X_U0_M1_T0  169
 UP BND1      X_U0_M2_T0  205
 UP BND1      X_U1_M0_T0  255
 UP BND1      X_U1_M1_T0  315
 UP BND1      X_U1_M2_T0  240
 UP BND1      X_U2_M0_T0  300
 UP BND1      X_U2_M1_T0  170
 UP BND1      X_U2_M2_T0  256
 UP BND1      X_U3_M0_T0  175
 UP BND1      X_U3_M1_T0  300
 UP BND1      X_U3_M2_T0  335
 UP BND1      X_U4_M0_T0  210
 UP BND1      X_U4_M1_T0  242
 UP BND1      X_U4_M2_T0  192
 UP BND1      X_U5_M0_T0  227
 UP BND1      X_U5_M1_T0  237
 UP BND1      X_U5_M2_T0  314
 UP BND1      X_U6_M0_T0  349
 UP BND1      X_U6_M1_T0  265
 UP BND1      X_U6_M2_T0  315
 UP BND1      X_U7_M0_T0  212
 UP BND1      X_U7_M1_T0  223
 UP BND1      X_U7_M2_T0  287
 UP BND1      S_U0_T0   500
 UP BND1      S_U1_T0   500
 UP BND1      S_U2_T0   500
 UP BND1      S_U3_T0   500
 UP BND1      S_U4_T0   500
 UP BND1      S_U5_T0   500
 UP BND1      S_U6_T0   500
 UP BND1      S_U7_T0   500
 BV BND1      Z_U0_M0_T1
 BV BND1      Z_U0_M1_T1
 BV BND1      Z_U0_M2_T1
 BV BND1      Z_U1_M0_T1
 BV BND1      Z_U1_M1_T1
 BV BND1      Z_U1_M2_T1
 BV BND1      Z_U2_M0_T1
 BV BND1      Z_U2_M1_T1
 BV BND1      Z_U2_M2_T1
 BV BND1      Z_U3_M0_T1
 BV BND1      Z_U3_M1_T1
 BV BND1      Z_U3_M2_T1
 BV BND1      Z_U4_M0_T1
 BV BND1      Z_U4_M1_T1
 BV BND1      Z_U4_M2_T1
 BV BND1      Z_U5_M0_T1
 BV BND1      Z_U5_M1_T1
 BV BND1      Z_U5_M2_T1
 BV BND1      Z_U6_M0_T1
 BV BND1      Z_U6_M1_T1
 BV BND1      Z_U6_M2_T1
 BV BND1      Z_U7_M0_T1
 BV BND1      Z_U7_M1_T1
 BV BND1      Z_U7_M2_T1
 UP BND1      X_U0_M0_T1  300
 UP BND1      X_U0_M1_T1  169
 UP BND1      X_U0_M2_T1  205
 UP BND1      X_U1_M0_T1  255
 UP BND1      X_U1_M1_T1  315
 UP BND1      X_U1_M2_T1  240
 UP BND1      X_U2_M0_T1  300
 UP BND1      X_U2_M1_T1  170
 UP BND1      X_U2_M2_T1  256
 UP BND1      X_U3_M0_T1  175
 UP BND1      X_U3_M1_T1  300
 UP BND1      X_U3_M2_T1  335
 UP BND1      X_U4_M0_T1  210
 UP BND1      X_U4_M1_T1  242
 UP BND1      X_U4_M2_T1  192
 UP BND1      X_U5_M0_T1  227
 UP BND1      X_U5_M1_T1  237
 UP BND1      X_U5_M2_T1  314
 UP BND1      X_U6_M0_T1  349
 UP BND1      X_U6_M1_T1  265
 UP BND1      X_U6_M2_T1  315
 UP BND1      X_U7_M0_T1  212
 UP BND1      X_U7_M1_T1  223
 UP BND1      X_U7_M2_T1  287
 UP BND1      S_U0_T1   500
 UP BND1      S_U1_T1   500
 UP BND1      S_U2_T1   500
 UP BND1      S_U3_T1   500
 UP BND1      S_U4_T1   500
 UP BND1      S_U5_T1   500
 UP BND1      S_U6_T1   500
 UP BND1      S_U7_T1   500
 BV BND1      Z_U0_M0_T2
 BV BND1      Z_U0_M1_T2
 BV BND1      Z_U0_M2_T2
 BV BND1      Z_U1_M0_T2
 BV BND1      Z_U1_M1_T2
 BV BND1      Z_U1_M2_T2
 BV BND1      Z_U2_M0_T2
 BV BND1      Z_U2_M1_T2
 BV BND1      Z_U2_M2_T2
 BV BND1      Z_U3_M0_T2
 BV BND1      Z_U3_M1_T2
 BV BND1      Z_U3_M2_T2
 BV BND1      Z_U4_M0_T2
 BV BND1      Z_U4_M1_T2
 BV BND1      Z_U4_M2_T2
 BV BND1      Z_U5_M0_T2
 BV BND1      Z_U5_M1_T2
 BV BND1      Z_U5_M2_T2
 BV BND1      Z_U6_M0_T2
 BV BND1      Z_U6_M1_T2
 BV BND1      Z_U6_M2_T2
 BV BND1      Z_U7_M0_T2
 BV BND1      Z_U7_M1_T2
 BV BND1      Z_U7_M2_T2
 UP BND1      X_U0_M0_T2  300
 UP BND1      X_U0_M1_T2  169
 UP BND1      X_U0_M2_T2  205
 UP BND1      X_U1_M0_T2  255
 UP BND1      X_U1_M1_T2  315
 UP BND1      X_U1_M2_T2  240
 UP BND1      X_U2_M0_T2  300
 UP BND1      X_U2_M1_T2  170
 UP BND1      X_U2_M2_T2  256
 UP BND1      X_U3_M0_T2  175
 UP BND1      X_U3_M1_T2  300
 UP BND1      X_U3_M2_T2  335
 UP BND1      X_U4_M0_T2  210
 UP BND1      X_U4_M1_T2  242
 UP BND1      X_U4_M2_T2  192
 UP BND1      X_U5_M0_T2  227
 UP BND1      X_U5_M1_T2  237
 UP BND1      X_U5_M2_T2  314
 UP BND1      X_U6_M0_T2  349
 UP BND1      X_U6_M1_T2  265
 UP BND1      X_U6_M2_T2  315
 UP BND1      X_U7_M0_T2  212
 UP BND1      X_U7_M1_T2  223
 UP BND1      X_U7_M2_T2  287
 UP BND1      S_U0_T2   500
 UP BND1      S_U1_T2   500
 UP BND1      S_U2_T2   500
 UP BND1      S_U3_T2   500
 UP BND1      S_U4_T2   500
 UP BND1      S_U5_T2   500
 UP BND1      S_U6_T2   500
 UP BND1      S_U7_T2   500
 BV BND1      Z_U0_M0_T3
 BV BND1      Z_U0_M1_T3
 BV BND1      Z_U0_M2_T3
 BV BND1      Z_U1_M0_T3
 BV BND1      Z_U1_M1_T3
 BV BND1      Z_U1_M2_T3
 BV BND1      Z_U2_M0_T3
 BV BND1      Z_U2_M1_T3
 BV BND1      Z_U2_M2_T3
 BV BND1      Z_U3_M0_T3
 BV BND1      Z_U3_M1_T3
 BV BND1      Z_U3_M2_T3
 BV BND1      Z_U4_M0_T3
 BV BND1      Z_U4_M1_T3
 BV BND1      Z_U4_M2_T3
 BV BND1      Z_U5_M0_T3
 BV BND1      Z_U5_M1_T3
 BV BND1      Z_U5_M2_T3
 BV BND1      Z_U6_M0_T3
 BV BND1      Z_U6_M1_T3
 BV BND1      Z_U6_M2_T3
 BV BND1      Z_U7_M0_T3
 BV BND1      Z_U7_M1_T3
 BV BND1      Z_U7_M2_T3
 UP BND1      X_U0_M0_T3  300
 UP BND1      X_U0_M1_T3  169
 UP BND1      X_U0_M2_T3  205
 UP BND1      X_U1_M0_T3  255
 UP BND1      X_U1_M1_T3  315
 UP BND1      X_U1_M2_T3  240
 UP BND1      X_U2_M0_T3  300
 UP BND1      X_U2_M1_T3  170
 UP BND1      X_U2_M2_T3  256
 UP BND1      X_U3_M0_T3  175
 UP BND1      X_U3_M1_T3  300
 UP BND1      X_U3_M2_T3  335
 UP BND1      X_U4_M0_T3  210
 UP BND1      X_U4_M1_T3  242
 UP BND1      X_U4_M2_T3  192
 UP BND1      X_U5_M0_T3  227
 UP BND1      X_U5_M1_T3  237
 UP BND1      X_U5_M2_T3  314
 UP BND1      X_U6_M0_T3  349
 UP BND1      X_U6_M1_T3  265
 UP BND1      X_U6_M2_T3  315
 UP BND1      X_U7_M0_T3  212
 UP BND1      X_U7_M1_T3  223
 UP BND1      X_U7_M2_T3  287
 UP BND1      S_U0_T3   500
 UP BND1      S_U1_T3   500
 UP BND1      S_U2_T3   500
 UP BND1      S_U3_T3   500
 UP BND1      S_U4_T3   500
 UP BND1      S_U5_T3   500
 UP BND1      S_U6_T3   500
 UP BND1      S_U7_T3   500
 BV BND1      Z_U0_M0_T4
 BV BND1      Z_U0_M1_T4
 BV BND1      Z_U0_M2_T4
 BV BND1      Z_U1_M0_T4
 BV BND1      Z_U1_M1_T4
 BV BND1      Z_U1_M2_T4
 BV BND1      Z_U2_M0_T4
 BV BND1      Z_U2_M1_T4
 BV BND1      Z_U2_M2_T4
 BV BND1      Z_U3_M0_T4
 BV BND1      Z_U3_M1_T4
 BV BND1      Z_U3_M2_T4
 BV BND1      Z_U4_M0_T4
 BV BND1      Z_U4_M1_T4
 BV BND1      Z_U4_M2_T4
 BV BND1      Z_U5_M0_T4
 BV BND1      Z_U5_M1_T4
 BV BND1      Z_U5_M2_T4
 BV BND1      Z_U6_M0_T4
 BV BND1      Z_U6_M1_T4
 BV BND1      Z_U6_M2_T4
 BV BND1      Z_U7_M0_T4
 BV BND1      Z_U7_M1_T4
 BV BND1      Z_U7_M2_T4
 UP BND1      X_U0_M0_T4  300
 UP BND1      X_U0_M1_T4  169
 UP BND1      X_U0_M2_T4  205
 UP BND1      X_U1_M0_T4  255
 UP BND1      X_U1_M1_T4  315
 UP BND1      X_U1_M2_T4  240
 UP BND1      X_U2_M0_T4  300
 UP BND1      X_U2_M1_T4  170
 UP BND1      X_U2_M2_T4  256
 UP BND1      X_U3_M0_T4  175
 UP BND1      X_U3_M1_T4  300
 UP BND1      X_U3_M2_T4  335
 UP BND1      X_U4_M0_T4  210
 UP BND1      X_U4_M1_T4  242
 UP BND1      X_U4_M2_T4  192
 UP BND1      X_U5_M0_T4  227
 UP BND1      X_U5_M1_T4  237
 UP BND1      X_U5_M2_T4  314
 UP BND1      X_U6_M0_T4  349
 UP BND1      X_U6_M1_T4  265
 UP BND1      X_U6_M2_T4  315
 UP BND1      X_U7_M0_T4  212
 UP BND1      X_U7_M1_T4  223
 UP BND1      X_U7_M2_T4  287
 UP BND1      S_U0_T4   500
 UP BND1      S_U1_T4   500
 UP BND1      S_U2_T4   500
 UP BND1      S_U3_T4   500
 UP BND1      S_U4_T4   500
 UP BND1      S_U5_T4   500
 UP BND1      S_U6_T4   500
 UP BND1      S_U7_T4   500
 BV BND1      Z_U0_M0_T5
 BV BND1      Z_U0_M1_T5
 BV BND1      Z_U0_M2_T5
 BV BND1      Z_U1_M0_T5
 BV BND1      Z_U1_M1_T5
 BV BND1      Z_U1_M2_T5
 BV BND1      Z_U2_M0_T5
 BV BND1      Z_U2_M1_T5
 BV BND1      Z_U2_M2_T5
 BV BND1      Z_U3_M0_T5
 BV BND1      Z_U3_M1_T5
 BV BND1      Z_U3_M2_T5
 BV BND1      Z_U4_M0_T5
 BV BND1      Z_U4_M1_T5
 BV BND1      Z_U4_M2_T5
 BV BND1      Z_U5_M0_T5
 BV BND1      Z_U5_M1_T5
 BV BND1      Z_U5_M2_T5
 BV BND1      Z_U6_M0_T5
 BV BND1      Z_U6_M1_T5
 BV BND1      Z_U6_M2_T5
 BV BND1      Z_U7_M0_T5
 BV BND1      Z_U7_M1_T5
 BV BND1      Z_U7_M2_T5
 UP BND1      X_U0_M0_T5  300
 UP BND1      X_U0_M1_T5  169
 UP BND1      X_U0_M2_T5  205
 UP BND1      X_U1_M0_T5  255
 UP BND1      X_U1_M1_T5  315
 UP BND1      X_U1_M2_T5  240
 UP BND1      X_U2_M0_T5  300
 UP BND1      X_U2_M1_T5  170
 UP BND1      X_U2_M2_T5  256
 UP BND1      X_U3_M0_T5  175
 UP BND1      X_U3_M1_T5  300
 UP BND1      X_U3_M2_T5  335
 UP BND1      X_U4_M0_T5  210
 UP BND1      X_U4_M1_T5  242
 UP BND1      X_U4_M2_T5  192
 UP BND1      X_U5_M0_T5  227
 UP BND1      X_U5_M1_T5  237
 UP BND1      X_U5_M2_T5  314
 UP BND1      X_U6_M0_T5  349
 UP BND1      X_U6_M1_T5  265
 UP BND1      X_U6_M2_T5  315
 UP BND1      X_U7_M0_T5  212
 UP BND1      X_U7_M1_T5  223
 UP BND1      X_U7_M2_T5  287
 UP BND1      S_U0_T5   500
 UP BND1      S_U1_T5   500
 UP BND1      S_U2_T5   500
 UP BND1      S_U3_T5   500
 UP BND1      S_U4_T5   500
 UP BND1      S_U5_T5   500
 UP BND1      S_U6_T5   500
 UP BND1      S_U7_T5   500
 BV BND1      Z_U0_M0_T6
 BV BND1      Z_U0_M1_T6
 BV BND1      Z_U0_M2_T6
 BV BND1      Z_U1_M0_T6
 BV BND1      Z_U1_M1_T6
 BV BND1      Z_U1_M2_T6
 BV BND1      Z_U2_M0_T6
 BV BND1      Z_U2_M1_T6
 BV BND1      Z_U2_M2_T6
 BV BND1      Z_U3_M0_T6
 BV BND1      Z_U3_M1_T6
 BV BND1      Z_U3_M2_T6
 BV BND1      Z_U4_M0_T6
 BV BND1      Z_U4_M1_T6
 BV BND1      Z_U4_M2_T6
 BV BND1      Z_U5_M0_T6
 BV BND1      Z_U5_M1_T6
 BV BND1      Z_U5_M2_T6
 BV BND1      Z_U6_M0_T6
 BV BND1      Z_U6_M1_T6
 BV BND1      Z_U6_M2_T6
 BV BND1      Z_U7_M0_T6
 BV BND1      Z_U7_M1_T6
 BV BND1      Z_U7_M2_T6
 UP BND1      X_U0_M0_T6  300
 UP BND1      X_U0_M1_T6  169
 UP BND1      X_U0_M2_T6  205
 UP BND1      X_U1_M0_T6  255
 UP BND1      X_U1_M1_T6  315
 UP BND1      X_U1_M2_T6  240
 UP BND1      X_U2_M0_T6  300
 UP BND1      X_U2_M1_T6  170
 UP BND1      X_U2_M2_T6  256
 UP BND1      X_U3_M0_T6  175
 UP BND1      X_U3_M1_T6  300
 UP BND1      X_U3_M2_T6  335
 UP BND1      X_U4_M0_T6  210
 UP BND1      X_U4_M1_T6  242
 UP BND1      X_U4_M2_T6  192
 UP BND1      X_U5_M0_T6  227
 UP BND1      X_U5_M1_T6  237
 UP BND1      X_U5_M2_T6  314
 UP BND1      X_U6_M0_T6  349
 UP BND1      X_U6_M1_T6  265
 UP BND1      X_U6_M2_T6  315
 UP BND1      X_U7_M0_T6  212
 UP BND1      X_U7_M1_T6  223
 UP BND1      X_U7_M2_T6  287
 UP BND1      S_U0_T6   500
 UP BND1      S_U1_T6   500
 UP BND1      S_U2_T6   500
 UP BND1      S_U3_T6   500
 UP BND1      S_U4_T6   500
 UP BND1      S_U5_T6   500
 UP BND1      S_U6_T6   500
 UP BND1      S_U7_T6   500
 BV BND1      Z_U0_M0_T7
 BV BND1      Z_U0_M1_T7
 BV BND1      Z_U0_M2_T7
 BV BND1      Z_U1_M0_T7
 BV BND1      Z_U1_M1_T7
 BV BND1      Z_U1_M2_T7
 BV BND1      Z_U2_M0_T7
 BV BND1      Z_U2_M1_T7
 BV BND1      Z_U2_M2_T7
 BV BND1      Z_U3_M0_T7
 BV BND1      Z_U3_M1_T7
 BV BND1      Z_U3_M2_T7
 BV BND1      Z_U4_M0_T7
 BV BND1      Z_U4_M1_T7
 BV BND1      Z_U4_M2_T7
 BV BND1      Z_U5_M0_T7
 BV BND1      Z_U5_M1_T7
 BV BND1      Z_U5_M2_T7
 BV BND1      Z_U6_M0_T7
 BV BND1      Z_U6_M1_T7
 BV BND1      Z_U6_M2_T7
 BV BND1      Z_U7_M0_T7
 BV BND1      Z_U7_M1_T7
 BV BND1      Z_U7_M2_T7
 UP BND1      X_U0_M0_T7  300
 UP BND1      X_U0_M1_T7  169
 UP BND1      X_U0_M2_T7  205
 UP BND1      X_U1_M0_T7  255
 UP BND1      X_U1_M1_T7  315
 UP BND1      X_U1_M2_T7  240
 UP BND1      X_U2_M0_T7  300
 UP BND1      X_U2_M1_T7  170
 UP BND1      X_U2_M2_T7  256
 UP BND1      X_U3_M0_T7  175
 UP BND1      X_U3_M1_T7  300
 UP BND1      X_U3_M2_T7  335
 UP BND1      X_U4_M0_T7  210
 UP BND1      X_U4_M1_T7  242
 UP BND1      X_U4_M2_T7  192
 UP BND1      X_U5_M0_T7  227
 UP BND1      X_U5_M1_T7  237
 UP BND1      X_U5_M2_T7  314
 UP BND1      X_U6_M0_T7  349
 UP BND1      X_U6_M1_T7  265
 UP BND1      X_U6_M2_T7  315
 UP BND1      X_U7_M0_T7  212
 UP BND1      X_U7_M1_T7  223
 UP BND1      X_U7_M2_T7  287
 UP BND1      S_U0_T7   500
 UP BND1      S_U1_T7   500
 UP BND1      S_U2_T7   500
 UP BND1      S_U3_T7   500
 UP BND1      S_U4_T7   500
 UP BND1      S_U5_T7   500
 UP BND1      S_U6_T7   500
 UP BND1      S_U7_T7   500
 BV BND1      Z_U0_M0_T8
 BV BND1      Z_U0_M1_T8
 BV BND1      Z_U0_M2_T8
 BV BND1      Z_U1_M0_T8
 BV BND1      Z_U1_M1_T8
 BV BND1      Z_U1_M2_T8
 BV BND1      Z_U2_M0_T8
 BV BND1      Z_U2_M1_T8
 BV BND1      Z_U2_M2_T8
 BV BND1      Z_U3_M0_T8
 BV BND1      Z_U3_M1_T8
 BV BND1      Z_U3_M2_T8
 BV BND1      Z_U4_M0_T8
 BV BND1      Z_U4_M1_T8
 BV BND1      Z_U4_M2_T8
 BV BND1      Z_U5_M0_T8
 BV BND1      Z_U5_M1_T8
 BV BND1      Z_U5_M2_T8
 BV BND1      Z_U6_M0_T8
 BV BND1      Z_U6_M1_T8
 BV BND1      Z_U6_M2_T8
 BV BND1      Z_U7_M0_T8
 BV BND1      Z_U7_M1_T8
 BV BND1      Z_U7_M2_T8
 UP BND1      X_U0_M0_T8  300
 UP BND1      X_U0_M1_T8  169
 UP BND1      X_U0_M2_T8  205
 UP BND1      X_U1_M0_T8  255
 UP BND1      X_U1_M1_T8  315
 UP BND1      X_U1_M2_T8  240
 UP BND1      X_U2_M0_T8  300
 UP BND1      X_U2_M1_T8  170
 UP BND1      X_U2_M2_T8  256
 UP BND1      X_U3_M0_T8  175
 UP BND1      X_U3_M1_T8  300
 UP BND1      X_U3_M2_T8  335
 UP BND1      X_U4_M0_T8  210
 UP BND1      X_U4_M1_T8  242
 UP BND1      X_U4_M2_T8  192
 UP BND1      X_U5_M0_T8  227
 UP BND1      X_U5_M1_T8  237
 UP BND1      X_U5_M2_T8  314
 UP BND1      X_U6_M0_T8  349
 UP BND1      X_U6_M1_T8  265
 UP BND1      X_U6_M2_T8  315
 UP BND1      X_U7_M0_T8  212
 UP BND1      X_U7_M1_T8  223
 UP BND1      X_U7_M2_T8  287
 UP BND1      S_U0_T8   500
 UP BND1      S_U1_T8   500
 UP BND1      S_U2_T8   500
 UP BND1      S_U3_T8   500
 UP BND1      S_U4_T8   500
 UP BND1      S_U5_T8   500
 UP BND1      S_U6_T8   500
 UP BND1      S_U7_T8   500
 BV BND1      Z_U0_M0_T9
 BV BND1      Z_U0_M1_T9
 BV BND1      Z_U0_M2_T9
 BV BND1      Z_U1_M0_T9
 BV BND1      Z_U1_M1_T9
 BV BND1      Z_U1_M2_T9
 BV BND1      Z_U2_M0_T9
 BV BND1      Z_U2_M1_T9
 BV BND1      Z_U2_M2_T9
 BV BND1      Z_U3_M0_T9
 BV BND1      Z_U3_M1_T9
 BV BND1      Z_U3_M2_T9
 BV BND1      Z_U4_M0_T9
 BV BND1      Z_U4_M1_T9
 BV BND1      Z_U4_M2_T9
 BV BND1      Z_U5_M0_T9
 BV BND1      Z_U5_M1_T9
 BV BND1      Z_U5_M2_T9
 BV BND1      Z_U6_M0_T9
 BV BND1      Z_U6_M1_T9
 BV BND1      Z_U6_M2_T9
 BV BND1      Z_U7_M0_T9
 BV BND1      Z_U7_M1_T9
 BV BND1      Z_U7_M2_T9
 UP BND1      X_U0_M0_T9  300
 UP BND1      X_U0_M1_T9  169
 UP BND1      X_U0_M2_T9  205
 UP BND1      X_U1_M0_T9  255
 UP BND1      X_U1_M1_T9  315
 UP BND1      X_U1_M2_T9  240
 UP BND1      X_U2_M0_T9  300
 UP BND1      X_U2_M1_T9  170
 UP BND1      X_U2_M2_T9  256
 UP BND1      X_U3_M0_T9  175
 UP BND1      X_U3_M1_T9  300
 UP BND1      X_U3_M2_T9  335
 UP BND1      X_U4_M0_T9  210
 UP BND1      X_U4_M1_T9  242
 UP BND1      X_U4_M2_T9  192
 UP BND1      X_U5_M0_T9  227
 UP BND1      X_U5_M1_T9  237
 UP BND1      X_U5_M2_T9  314
 UP BND1      X_U6_M0_T9  349
 UP BND1      X_U6_M1_T9  265
 UP BND1      X_U6_M2_T9  315
 UP BND1      X_U7_M0_T9  212
 UP BND1      X_U7_M1_T9  223
 UP BND1      X_U7_M2_T9  287
 UP BND1      S_U0_T9   500
 UP BND1      S_U1_T9   500
 UP BND1      S_U2_T9   500
 UP BND1      S_U3_T9   500
 UP BND1      S_U4_T9   500
 UP BND1      S_U5_T9   500
 UP BND1      S_U6_T9   500
 UP BND1      S_U7_T9   500
 BV BND1      Z_U0_M0_T10
 BV BND1      Z_U0_M1_T10
 BV BND1      Z_U0_M2_T10
 BV BND1      Z_U1_M0_T10
 BV BND1      Z_U1_M1_T10
 BV BND1      Z_U1_M2_T10
 BV BND1      Z_U2_M0_T10
 BV BND1      Z_U2_M1_T10
 BV BND1      Z_U2_M2_T10
 BV BND1      Z_U3_M0_T10
 BV BND1      Z_U3_M1_T10
 BV BND1      Z_U3_M2_T10
 BV BND1      Z_U4_M0_T10
 BV BND1      Z_U4_M1_T10
 BV BND1      Z_U4_M2_T10
 BV BND1      Z_U5_M0_T10
 BV BND1      Z_U5_M1_T10
 BV BND1      Z_U5_M2_T10
 BV BND1      Z_U6_M0_T10
 BV BND1      Z_U6_M1_T10
 BV BND1      Z_U6_M2_T10
 BV BND1      Z_U7_M0_T10
 BV BND1      Z_U7_M1_T10
 BV BND1      Z_U7_M2_T10
 UP BND1      X_U0_M0_T10  300
 UP BND1      X_U0_M1_T10  169
 UP BND1      X_U0_M2_T10  205
 UP BND1      X_U1_M0_T10  255
 UP BND1      X_U1_M1_T10  315
 UP BND1      X_U1_M2_T10  240
 UP BND1      X_U2_M0_T10  300
 UP BND1      X_U2_M1_T10  170
 UP BND1      X_U2_M2_T10  256
 UP BND1      X_U3_M0_T10  175
 UP BND1      X_U3_M1_T10  300
 UP BND1      X_U3_M2_T10  335
 UP BND1      X_U4_M0_T10  210
 UP BND1      X_U4_M1_T10  242
 UP BND1      X_U4_M2_T10  192
 UP BND1      X_U5_M0_T10  227
 UP BND1      X_U5_M1_T10  237
 UP BND1      X_U5_M2_T10  314
 UP BND1      X_U6_M0_T10  349
 UP BND1      X_U6_M1_T10  265
 UP BND1      X_U6_M2_T10  315
 UP BND1      X_U7_M0_T10  212
 UP BND1      X_U7_M1_T10  223
 UP BND1      X_U7_M2_T10  287
 UP BND1      S_U0_T10  500
 UP BND1      S_U1_T10  500
 UP BND1      S_U2_T10  500
 UP BND1      S_U3_T10  500
 UP BND1      S_U4_T10  500
 UP BND1      S_U5_T10  500
 UP BND1      S_U6_T10  500
 UP BND1      S_U7_T10  500
 BV BND1      Z_U0_M0_T11
 BV BND1      Z_U0_M1_T11
 BV BND1      Z_U0_M2_T11
 BV BND1      Z_U1_M0_T11
 BV BND1      Z_U1_M1_T11
 BV BND1      Z_U1_M2_T11
 BV BND1      Z_U2_M0_T11
 BV BND1      Z_U2_M1_T11
 BV BND1      Z_U2_M2_T11
 BV BND1      Z_U3_M0_T11
 BV BND1      Z_U3_M1_T11
 BV BND1      Z_U3_M2_T11
 BV BND1      Z_U4_M0_T11
 BV BND1      Z_U4_M1_T11
 BV BND1      Z_U4_M2_T11
 BV BND1      Z_U5_M0_T11
 BV BND1      Z_U5_M1_T11
 BV BND1      Z_U5_M2_T11
 BV BND1      Z_U6_M0_T11
 BV BND1      Z_U6_M1_T11
 BV BND1      Z_U6_M2_T11
 BV BND1      Z_U7_M0_T11
 BV BND1      Z_U7_M1_T11
 BV BND1      Z_U7_M2_T11
 UP BND1      X_U0_M0_T11  300
 UP BND1      X_U0_M1_T11  169
 UP BND1      X_U0_M2_T11  205
 UP BND1      X_U1_M0_T11  255
 UP BND1      X_U1_M1_T11  315
 UP BND1      X_U1_M2_T11  240
 UP BND1      X_U2_M0_T11  300
 UP BND1      X_U2_M1_T11  170
 UP BND1      X_U2_M2_T11  256
 UP BND1      X_U3_M0_T11  175
 UP BND1      X_U3_M1_T11  300
 UP BND1      X_U3_M2_T11  335
 UP BND1      X_U4_M0_T11  210
 UP BND1      X_U4_M1_T11  242
 UP BND1      X_U4_M2_T11  192
 UP BND1      X_U5_M0_T11  227
 UP BND1      X_U5_M1_T11  237
 UP BND1      X_U5_M2_T11  314
 UP BND1      X_U6_M0_T11  349
 UP BND1      X_U6_M1_T11  265
 UP BND1      X_U6_M2_T11  315
 UP BND1      X_U7_M0_T11  212
 UP BND1      X_U7_M1_T11  223
 UP BND1      X_U7_M2_T11  287
 UP BND1      S_U0_T11  500
 UP BND1      S_U1_T11  500
 UP BND1      S_U2_T11  500
 UP BND1      S_U3_T11  500
 UP BND1      S_U4_T11  500
 UP BND1      S_U5_T11  500
 UP BND1      S_U6_T11  500
 UP BND1      S_U7_T11  500
 BV BND1      Z_U0_M0_T12
 BV BND1      Z_U0_M1_T12
 BV BND1      Z_U0_M2_T12
 BV BND1      Z_U1_M0_T12
 BV BND1      Z_U1_M1_T12
 BV BND1      Z_U1_M2_T12
 BV BND1      Z_U2_M0_T12
 BV BND1      Z_U2_M1_T12
 BV BND1      Z_U2_M2_T12
 BV BND1      Z_U3_M0_T12
 BV BND1      Z_U3_M1_T12
 BV BND1      Z_U3_M2_T12
 BV BND1      Z_U4_M0_T12
 BV BND1      Z_U4_M1_T12
 BV BND1      Z_U4_M2_T12
 BV BND1      Z_U5_M0_T12
 BV BND1      Z_U5_M1_T12
 BV BND1      Z_U5_M2_T12
 BV BND1      Z_U6_M0_T12
 BV BND1      Z_U6_M1_T12
 BV BND1      Z_U6_M2_T12
 BV BND1      Z_U7_M0_T12
 BV BND1      Z_U7_M1_T12
 BV BND1      Z_U7_M2_T12
 UP BND1      X_U0_M0_T12  300
 UP BND1      X_U0_M1_T12  169
 UP BND1      X_U0_M2_T12  205
 UP BND1      X_U1_M0_T12  255
 UP BND1      X_U1_M1_T12  315
 UP BND1      X_U1_M2_T12  240
 UP BND1      X_U2_M0_T12  300
 UP BND1      X_U2_M1_T12  170
 UP BND1      X_U2_M2_T12  256
 UP BND1      X_U3_M0_T12  175
 UP BND1      X_U3_M1_T12  300
 UP BND1      X_U3_M2_T12  335
 UP BND1      X_U4_M0_T12  210
 UP BND1      X_U4_M1_T12  242
 UP BND1      X_U4_M2_T12  192
 UP BND1      X_U5_M0_T12  227
 UP BND1      X_U5_M1_T12  237
 UP BND1      X_U5_M2_T12  314
 UP BND1      X_U6_M0_T12  349
 UP BND1      X_U6_M1_T12  265
 UP BND1      X_U6_M2_T12  315
 UP BND1      X_U7_M0_T12  212
 UP BND1      X_U7_M1_T12  223
 UP BND1      X_U7_M2_T12  287
 UP BND1      S_U0_T12  500
 UP BND1      S_U1_T12  500
 UP BND1      S_U2_T12  500
 UP BND1      S_U3_T12  500
 UP BND1      S_U4_T12  500
 UP BND1      S_U5_T12  500
 UP BND1      S_U6_T12  500
 UP BND1      S_U7_T12  500
 BV BND1      Z_U0_M0_T13
 BV BND1      Z_U0_M1_T13
 BV BND1      Z_U0_M2_T13
 BV BND1      Z_U1_M0_T13
 BV BND1      Z_U1_M1_T13
 BV BND1      Z_U1_M2_T13
 BV BND1      Z_U2_M0_T13
 BV BND1      Z_U2_M1_T13
 BV BND1      Z_U2_M2_T13
 BV BND1      Z_U3_M0_T13
 BV BND1      Z_U3_M1_T13
 BV BND1      Z_U3_M2_T13
 BV BND1      Z_U4_M0_T13
 BV BND1      Z_U4_M1_T13
 BV BND1      Z_U4_M2_T13
 BV BND1      Z_U5_M0_T13
 BV BND1      Z_U5_M1_T13
 BV BND1      Z_U5_M2_T13
 BV BND1      Z_U6_M0_T13
 BV BND1      Z_U6_M1_T13
 BV BND1      Z_U6_M2_T13
 BV BND1      Z_U7_M0_T13
 BV BND1      Z_U7_M1_T13
 BV BND1      Z_U7_M2_T13
 UP BND1      X_U0_M0_T13  300
 UP BND1      X_U0_M1_T13  169
 UP BND1      X_U0_M2_T13  205
 UP BND1      X_U1_M0_T13  255
 UP BND1      X_U1_M1_T13  315
 UP BND1      X_U1_M2_T13  240
 UP BND1      X_U2_M0_T13  300
 UP BND1      X_U2_M1_T13  170
 UP BND1      X_U2_M2_T13  256
 UP BND1      X_U3_M0_T13  175
 UP BND1      X_U3_M1_T13  300
 UP BND1      X_U3_M2_T13  335
 UP BND1      X_U4_M0_T13  210
 UP BND1      X_U4_M1_T13  242
 UP BND1      X_U4_M2_T13  192
 UP BND1      X_U5_M0_T13  227
 UP BND1      X_U5_M1_T13  237
 UP BND1      X_U5_M2_T13  314
 UP BND1      X_U6_M0_T13  349
 UP BND1      X_U6_M1_T13  265
 UP BND1      X_U6_M2_T13  315
 UP BND1      X_U7_M0_T13  212
 UP BND1      X_U7_M1_T13  223
 UP BND1      X_U7_M2_T13  287
 UP BND1      S_U0_T13  500
 UP BND1      S_U1_T13  500
 UP BND1      S_U2_T13  500
 UP BND1      S_U3_T13  500
 UP BND1      S_U4_T13  500
 UP BND1      S_U5_T13  500
 UP BND1      S_U6_T13  500
 UP BND1      S_U7_T13  500
 BV BND1      Z_U0_M0_T14
 BV BND1      Z_U0_M1_T14
 BV BND1      Z_U0_M2_T14
 BV BND1      Z_U1_M0_T14
 BV BND1      Z_U1_M1_T14
 BV BND1      Z_U1_M2_T14
 BV BND1      Z_U2_M0_T14
 BV BND1      Z_U2_M1_T14
 BV BND1      Z_U2_M2_T14
 BV BND1      Z_U3_M0_T14
 BV BND1      Z_U3_M1_T14
 BV BND1      Z_U3_M2_T14
 BV BND1      Z_U4_M0_T14
 BV BND1      Z_U4_M1_T14
 BV BND1      Z_U4_M2_T14
 BV BND1      Z_U5_M0_T14
 BV BND1      Z_U5_M1_T14
 BV BND1      Z_U5_M2_T14
 BV BND1      Z_U6_M0_T14
 BV BND1      Z_U6_M1_T14
 BV BND1      Z_U6_M2_T14
 BV BND1      Z_U7_M0_T14
 BV BND1      Z_U7_M1_T14
 BV BND1      Z_U7_M2_T14
 UP BND1      X_U0_M0_T14  300
 UP BND1      X_U0_M1_T14  169
 UP BND1      X_U0_M2_T14  205
 UP BND1      X_U1_M0_T14  255
 UP BND1      X_U1_M1_T14  315
 UP BND1      X_U1_M2_T14  240
 UP BND1      X_U2_M0_T14  300
 UP BND1      X_U2_M1_T14  170
 UP BND1      X_U2_M2_T14  256
 UP BND1      X_U3_M0_T14  175
 UP BND1      X_U3_M1_T14  300
 UP BND1      X_U3_M2_T14  335
 UP BND1      X_U4_M0_T14  210
 UP BND1      X_U4_M1_T14  242
 UP BND1      X_U4_M2_T14  192
 UP BND1      X_U5_M0_T14  227
 UP BND1      X_U5_M1_T14  237
 UP BND1      X_U5_M2_T14  314
 UP BND1      X_U6_M0_T14  349
 UP BND1      X_U6_M1_T14  265
 UP BND1      X_U6_M2_T14  315
 UP BND1      X_U7_M0_T14  212
 UP BND1      X_U7_M1_T14  223
 UP BND1      X_U7_M2_T14  287
 UP BND1      S_U0_T14  500
 UP BND1      S_U1_T14  500
 UP BND1      S_U2_T14  500
 UP BND1      S_U3_T14  500
 UP BND1      S_U4_T14  500
 UP BND1      S_U5_T14  500
 UP BND1      S_U6_T14  500
 UP BND1      S_U7_T14  500
 BV BND1      Z_U0_M0_T15
 BV BND1      Z_U0_M1_T15
 BV BND1      Z_U0_M2_T15
 BV BND1      Z_U1_M0_T15
 BV BND1      Z_U1_M1_T15
 BV BND1      Z_U1_M2_T15
 BV BND1      Z_U2_M0_T15
 BV BND1      Z_U2_M1_T15
 BV BND1      Z_U2_M2_T15
 BV BND1      Z_U3_M0_T15
 BV BND1      Z_U3_M1_T15
 BV BND1      Z_U3_M2_T15
 BV BND1      Z_U4_M0_T15
 BV BND1      Z_U4_M1_T15
 BV BND1      Z_U4_M2_T15
 BV BND1      Z_U5_M0_T15
 BV BND1      Z_U5_M1_T15
 BV BND1      Z_U5_M2_T15
 BV BND1      Z_U6_M0_T15
 BV BND1      Z_U6_M1_T15
 BV BND1      Z_U6_M2_T15
 BV BND1      Z_U7_M0_T15
 BV BND1      Z_U7_M1_T15
 BV BND1      Z_U7_M2_T15
 UP BND1      X_U0_M0_T15  300
 UP BND1      X_U0_M1_T15  169
 UP BND1      X_U0_M2_T15  205
 UP BND1      X_U1_M0_T15  255
 UP BND1      X_U1_M1_T15  315
 UP BND1      X_U1_M2_T15  240
 UP BND1      X_U2_M0_T15  300
 UP BND1      X_U2_M1_T15  170
 UP BND1      X_U2_M2_T15  256
 UP BND1      X_U3_M0_T15  175
 UP BND1      X_U3_M1_T15  300
 UP BND1      X_U3_M2_T15  335
 UP BND1      X_U4_M0_T15  210
 UP BND1      X_U4_M1_T15  242
 UP BND1      X_U4_M2_T15  192
 UP BND1      X_U5_M0_T15  227
 UP BND1      X_U5_M1_T15  237
 UP BND1      X_U5_M2_T15  314
 UP BND1      X_U6_M0_T15  349
 UP BND1      X_U6_M1_T15  265
 UP BND1      X_U6_M2_T15  315
 UP BND1      X_U7_M0_T15  212
 UP BND1      X_U7_M1_T15  223
 UP BND1      X_U7_M2_T15  287
 UP BND1      S_U0_T15  500
 UP BND1      S_U1_T15  500
 UP BND1      S_U2_T15  500
 UP BND1      S_U3_T15  500
 UP BND1      S_U4_T15  500
 UP BND1      S_U5_T15  500
 UP BND1      S_U6_T15  500
 UP BND1      S_U7_T15  500
 BV BND1      Z_U0_M0_T16
 BV BND1      Z_U0_M1_T16
 BV BND1      Z_U0_M2_T16
 BV BND1      Z_U1_M0_T16
 BV BND1      Z_U1_M1_T16
 BV BND1      Z_U1_M2_T16
 BV BND1      Z_U2_M0_T16
 BV BND1      Z_U2_M1_T16
 BV BND1      Z_U2_M2_T16
 BV BND1      Z_U3_M0_T16
 BV BND1      Z_U3_M1_T16
 BV BND1      Z_U3_M2_T16
 BV BND1      Z_U4_M0_T16
 BV BND1      Z_U4_M1_T16
 BV BND1      Z_U4_M2_T16
 BV BND1      Z_U5_M0_T16
 BV BND1      Z_U5_M1_T16
 BV BND1      Z_U5_M2_T16
 BV BND1      Z_U6_M0_T16
 BV BND1      Z_U6_M1_T16
 BV BND1      Z_U6_M2_T16
 BV BND1      Z_U7_M0_T16
 BV BND1      Z_U7_M1_T16
 BV BND1      Z_U7_M2_T16
 UP BND1      X_U0_M0_T16  300
 UP BND1      X_U0_M1_T16  169
 UP BND1      X_U0_M2_T16  205
 UP BND1      X_U1_M0_T16  255
 UP BND1      X_U1_M1_T16  315
 UP BND1      X_U1_M2_T16  240
 UP BND1      X_U2_M0_T16  300
 UP BND1      X_U2_M1_T16  170
 UP BND1      X_U2_M2_T16  256
 UP BND1      X_U3_M0_T16  175
 UP BND1      X_U3_M1_T16  300
 UP BND1      X_U3_M2_T16  335
 UP BND1      X_U4_M0_T16  210
 UP BND1      X_U4_M1_T16  242
 UP BND1      X_U4_M2_T16  192
 UP BND1      X_U5_M0_T16  227
 UP BND1      X_U5_M1_T16  237
 UP BND1      X_U5_M2_T16  314
 UP BND1      X_U6_M0_T16  349
 UP BND1      X_U6_M1_T16  265
 UP BND1      X_U6_M2_T16  315
 UP BND1      X_U7_M0_T16  212
 UP BND1      X_U7_M1_T16  223
 UP BND1      X_U7_M2_T16  287
 UP BND1      S_U0_T16  500
 UP BND1      S_U1_T16  500
 UP BND1      S_U2_T16  500
 UP BND1      S_U3_T16  500
 UP BND1      S_U4_T16  500
 UP BND1      S_U5_T16  500
 UP BND1      S_U6_T16  500
 UP BND1      S_U7_T16  500
 BV BND1      Z_U0_M0_T17
 BV BND1      Z_U0_M1_T17
 BV BND1      Z_U0_M2_T17
 BV BND1      Z_U1_M0_T17
 BV BND1      Z_U1_M1_T17
 BV BND1      Z_U1_M2_T17
 BV BND1      Z_U2_M0_T17
 BV BND1      Z_U2_M1_T17
 BV BND1      Z_U2_M2_T17
 BV BND1      Z_U3_M0_T17
 BV BND1      Z_U3_M1_T17
 BV BND1      Z_U3_M2_T17
 BV BND1      Z_U4_M0_T17
 BV BND1      Z_U4_M1_T17
 BV BND1      Z_U4_M2_T17
 BV BND1      Z_U5_M0_T17
 BV BND1      Z_U5_M1_T17
 BV BND1      Z_U5_M2_T17
 BV BND1      Z_U6_M0_T17
 BV BND1      Z_U6_M1_T17
 BV BND1      Z_U6_M2_T17
 BV BND1      Z_U7_M0_T17
 BV BND1      Z_U7_M1_T17
 BV BND1      Z_U7_M2_T17
 UP BND1      X_U0_M0_T17  300
 UP BND1      X_U0_M1_T17  169
 UP BND1      X_U0_M2_T17  205
 UP BND1      X_U1_M0_T17  255
 UP BND1      X_U1_M1_T17  315
 UP BND1      X_U1_M2_T17  240
 UP BND1      X_U2_M0_T17  300
 UP BND1      X_U2_M1_T17  170
 UP BND1      X_U2_M2_T17  256
 UP BND1      X_U3_M0_T17  175
 UP BND1      X_U3_M1_T17  300
 UP BND1      X_U3_M2_T17  335
 UP BND1      X_U4_M0_T17  210
 UP BND1      X_U4_M1_T17  242
 UP BND1      X_U4_M2_T17  192
 UP BND1      X_U5_M0_T17  227
 UP BND1      X_U5_M1_T17  237
 UP BND1      X_U5_M2_T17  314
 UP BND1      X_U6_M0_T17  349
 UP BND1      X_U6_M1_T17  265
 UP BND1      X_U6_M2_T17  315
 UP BND1      X_U7_M0_T17  212
 UP BND1      X_U7_M1_T17  223
 UP BND1      X_U7_M2_T17  287
 UP BND1      S_U0_T17  500
 UP BND1      S_U1_T17  500
 UP BND1      S_U2_T17  500
 UP BND1      S_U3_T17  500
 UP BND1      S_U4_T17  500
 UP BND1      S_U5_T17  500
 UP BND1      S_U6_T17  500
 UP BND1      S_U7_T17  500
 BV BND1      Z_U0_M0_T18
 BV BND1      Z_U0_M1_T18
 BV BND1      Z_U0_M2_T18
 BV BND1      Z_U1_M0_T18
 BV BND1      Z_U1_M1_T18
 BV BND1      Z_U1_M2_T18
 BV BND1      Z_U2_M0_T18
 BV BND1      Z_U2_M1_T18
 BV BND1      Z_U2_M2_T18
 BV BND1      Z_U3_M0_T18
 BV BND1      Z_U3_M1_T18
 BV BND1      Z_U3_M2_T18
 BV BND1      Z_U4_M0_T18
 BV BND1      Z_U4_M1_T18
 BV BND1      Z_U4_M2_T18
 BV BND1      Z_U5_M0_T18
 BV BND1      Z_U5_M1_T18
 BV BND1      Z_U5_M2_T18
 BV BND1      Z_U6_M0_T18
 BV BND1      Z_U6_M1_T18
 BV BND1      Z_U6_M2_T18
 BV BND1      Z_U7_M0_T18
 BV BND1      Z_U7_M1_T18
 BV BND1      Z_U7_M2_T18
 UP BND1      X_U0_M0_T18  300
 UP BND1      X_U0_M1_T18  169
 UP BND1      X_U0_M2_T18  205
 UP BND1      X_U1_M0_T18  255
 UP BND1      X_U1_M1_T18  315
 UP BND1      X_U1_M2_T18  240
 UP BND1      X_U2_M0_T18  300
 UP BND1      X_U2_M1_T18  170
 UP BND1      X_U2_M2_T18  256
 UP BND1      X_U3_M0_T18  175
 UP BND1      X_U3_M1_T18  300
 UP BND1      X_U3_M2_T18  335
 UP BND1      X_U4_M0_T18  210
 UP BND1      X_U4_M1_T18  242
 UP BND1      X_U4_M2_T18  192
 UP BND1      X_U5_M0_T18  227
 UP BND1      X_U5_M1_T18  237
 UP BND1      X_U5_M2_T18  314
 UP BND1      X_U6_M0_T18  349
 UP BND1      X_U6_M1_T18  265
 UP BND1      X_U6_M2_T18  315
 UP BND1      X_U7_M0_T18  212
 UP BND1      X_U7_M1_T18  223
 UP BND1      X_U7_M2_T18  287
 UP BND1      S_U0_T18  500
 UP BND1      S_U1_T18  500
 UP BND1      S_U2_T18  500
 UP BND1      S_U3_T18  500
 UP BND1      S_U4_T18  500
 UP BND1      S_U5_T18  500
 UP BND1      S_U6_T18  500
 UP BND1      S_U7_T18  500
 BV BND1      Z_U0_M0_T19
 BV BND1      Z_U0_M1_T19
 BV BND1      Z_U0_M2_T19
 BV BND1      Z_U1_M0_T19
 BV BND1      Z_U1_M1_T19
 BV BND1      Z_U1_M2_T19
 BV BND1      Z_U2_M0_T19
 BV BND1      Z_U2_M1_T19
 BV BND1      Z_U2_M2_T19
 BV BND1      Z_U3_M0_T19
 BV BND1      Z_U3_M1_T19
 BV BND1      Z_U3_M2_T19
 BV BND1      Z_U4_M0_T19
 BV BND1      Z_U4_M1_T19
 BV BND1      Z_U4_M2_T19
 BV BND1      Z_U5_M0_T19
 BV BND1      Z_U5_M1_T19
 BV BND1      Z_U5_M2_T19
 BV BND1      Z_U6_M0_T19
 BV BND1      Z_U6_M1_T19
 BV BND1      Z_U6_M2_T19
 BV BND1      Z_U7_M0_T19
 BV BND1      Z_U7_M1_T19
 BV BND1      Z_U7_M2_T19
 UP BND1      X_U0_M0_T19  300
 UP BND1      X_U0_M1_T19  169
 UP BND1      X_U0_M2_T19  205
 UP BND1      X_U1_M0_T19  255
 UP BND1      X_U1_M1_T19  315
 UP BND1      X_U1_M2_T19  240
 UP BND1      X_U2_M0_T19  300
 UP BND1      X_U2_M1_T19  170
 UP BND1      X_U2_M2_T19  256
 UP BND1      X_U3_M0_T19  175
 UP BND1      X_U3_M1_T19  300
 UP BND1      X_U3_M2_T19  335
 UP BND1      X_U4_M0_T19  210
 UP BND1      X_U4_M1_T19  242
 UP BND1      X_U4_M2_T19  192
 UP BND1      X_U5_M0_T19  227
 UP BND1      X_U5_M1_T19  237
 UP BND1      X_U5_M2_T19  314
 UP BND1      X_U6_M0_T19  349
 UP BND1      X_U6_M1_T19  265
 UP BND1      X_U6_M2_T19  315
 UP BND1      X_U7_M0_T19  212
 UP BND1      X_U7_M1_T19  223
 UP BND1      X_U7_M2_T19  287
 UP BND1      S_U0_T19  500
 UP BND1      S_U1_T19  500
 UP BND1      S_U2_T19  500
 UP BND1      S_U3_T19  500
 UP BND1      S_U4_T19  500
 UP BND1      S_U5_T19  500
 UP BND1      S_U6_T19  500
 UP BND1      S_U7_T19  500
 BV BND1      Z_U0_M0_T20
 BV BND1      Z_U0_M1_T20
 BV BND1      Z_U0_M2_T20
 BV BND1      Z_U1_M0_T20
 BV BND1      Z_U1_M1_T20
 BV BND1      Z_U1_M2_T20
 BV BND1      Z_U2_M0_T20
 BV BND1      Z_U2_M1_T20
 BV BND1      Z_U2_M2_T20
 BV BND1      Z_U3_M0_T20
 BV BND1      Z_U3_M1_T20
 BV BND1      Z_U3_M2_T20
 BV BND1      Z_U4_M0_T20
 BV BND1      Z_U4_M1_T20
 BV BND1      Z_U4_M2_T20
 BV BND1      Z_U5_M0_T20
 BV BND1      Z_U5_M1_T20
 BV BND1      Z_U5_M2_T20
 BV BND1      Z_U6_M0_T20
 BV BND1      Z_U6_M1_T20
 BV BND1      Z_U6_M2_T20
 BV BND1      Z_U7_M0_T20
 BV BND1      Z_U7_M1_T20
 BV BND1      Z_U7_M2_T20
 UP BND1      X_U0_M0_T20  300
 UP BND1      X_U0_M1_T20  169
 UP BND1      X_U0_M2_T20  205
 UP BND1      X_U1_M0_T20  255
 UP BND1      X_U1_M1_T20  315
 UP BND1      X_U1_M2_T20  240
 UP BND1      X_U2_M0_T20  300
 UP BND1      X_U2_M1_T20  170
 UP BND1      X_U2_M2_T20  256
 UP BND1      X_U3_M0_T20  175
 UP BND1      X_U3_M1_T20  300
 UP BND1      X_U3_M2_T20  335
 UP BND1      X_U4_M0_T20  210
 UP BND1      X_U4_M1_T20  242
 UP BND1      X_U4_M2_T20  192
 UP BND1      X_U5_M0_T20  227
 UP BND1      X_U5_M1_T20  237
 UP BND1      X_U5_M2_T20  314
 UP BND1      X_U6_M0_T20  349
 UP BND1      X_U6_M1_T20  265
 UP BND1      X_U6_M2_T20  315
 UP BND1      X_U7_M0_T20  212
 UP BND1      X_U7_M1_T20  223
 UP BND1      X_U7_M2_T20  287
 UP BND1      S_U0_T20  500
 UP BND1      S_U1_T20  500
 UP BND1      S_U2_T20  500
 UP BND1      S_U3_T20  500
 UP BND1      S_U4_T20  500
 UP BND1      S_U5_T20  500
 UP BND1      S_U6_T20  500
 UP BND1      S_U7_T20  500
 BV BND1      Z_U0_M0_T21
 BV BND1      Z_U0_M1_T21
 BV BND1      Z_U0_M2_T21
 BV BND1      Z_U1_M0_T21
 BV BND1      Z_U1_M1_T21
 BV BND1      Z_U1_M2_T21
 BV BND1      Z_U2_M0_T21
 BV BND1      Z_U2_M1_T21
 BV BND1      Z_U2_M2_T21
 BV BND1      Z_U3_M0_T21
 BV BND1      Z_U3_M1_T21
 BV BND1      Z_U3_M2_T21
 BV BND1      Z_U4_M0_T21
 BV BND1      Z_U4_M1_T21
 BV BND1      Z_U4_M2_T21
 BV BND1      Z_U5_M0_T21
 BV BND1      Z_U5_M1_T21
 BV BND1      Z_U5_M2_T21
 BV BND1      Z_U6_M0_T21
 BV BND1      Z_U6_M1_T21
 BV BND1      Z_U6_M2_T21
 BV BND1      Z_U7_M0_T21
 BV BND1      Z_U7_M1_T21
 BV BND1      Z_U7_M2_T21
 UP BND1      X_U0_M0_T21  300
 UP BND1      X_U0_M1_T21  169
 UP BND1      X_U0_M2_T21  205
 UP BND1      X_U1_M0_T21  255
 UP BND1      X_U1_M1_T21  315
 UP BND1      X_U1_M2_T21  240
 UP BND1      X_U2_M0_T21  300
 UP BND1      X_U2_M1_T21  170
 UP BND1      X_U2_M2_T21  256
 UP BND1      X_U3_M0_T21  175
 UP BND1      X_U3_M1_T21  300
 UP BND1      X_U3_M2_T21  335
 UP BND1      X_U4_M0_T21  210
 UP BND1      X_U4_M1_T21  242
 UP BND1      X_U4_M2_T21  192
 UP BND1      X_U5_M0_T21  227
 UP BND1      X_U5_M1_T21  237
 UP BND1      X_U5_M2_T21  314
 UP BND1      X_U6_M0_T21  349
 UP BND1      X_U6_M1_T21  265
 UP BND1      X_U6_M2_T21  315
 UP BND1      X_U7_M0_T21  212
 UP BND1      X_U7_M1_T21  223
 UP BND1      X_U7_M2_T21  287
 UP BND1      S_U0_T21  500
 UP BND1      S_U1_T21  500
 UP BND1      S_U2_T21  500
 UP BND1      S_U3_T21  500
 UP BND1      S_U4_T21  500
 UP BND1      S_U5_T21  500
 UP BND1      S_U6_T21  500
 UP BND1      S_U7_T21  500
 BV BND1      Z_U0_M0_T22
 BV BND1      Z_U0_M1_T22
 BV BND1      Z_U0_M2_T22
 BV BND1      Z_U1_M0_T22
 BV BND1      Z_U1_M1_T22
 BV BND1      Z_U1_M2_T22
 BV BND1      Z_U2_M0_T22
 BV BND1      Z_U2_M1_T22
 BV BND1      Z_U2_M2_T22
 BV BND1      Z_U3_M0_T22
 BV BND1      Z_U3_M1_T22
 BV BND1      Z_U3_M2_T22
 BV BND1      Z_U4_M0_T22
 BV BND1      Z_U4_M1_T22
 BV BND1      Z_U4_M2_T22
 BV BND1      Z_U5_M0_T22
 BV BND1      Z_U5_M1_T22
 BV BND1      Z_U5_M2_T22
 BV BND1      Z_U6_M0_T22
 BV BND1      Z_U6_M1_T22
 BV BND1      Z_U6_M2_T22
 BV BND1      Z_U7_M0_T22
 BV BND1      Z_U7_M1_T22
 BV BND1      Z_U7_M2_T22
 UP BND1      X_U0_M0_T22  300
 UP BND1      X_U0_M1_T22  169
 UP BND1      X_U0_M2_T22  205
 UP BND1      X_U1_M0_T22  255
 UP BND1      X_U1_M1_T22  315
 UP BND1      X_U1_M2_T22  240
 UP BND1      X_U2_M0_T22  300
 UP BND1      X_U2_M1_T22  170
 UP BND1      X_U2_M2_T22  256
 UP BND1      X_U3_M0_T22  175
 UP BND1      X_U3_M1_T22  300
 UP BND1      X_U3_M2_T22  335
 UP BND1      X_U4_M0_T22  210
 UP BND1      X_U4_M1_T22  242
 UP BND1      X_U4_M2_T22  192
 UP BND1      X_U5_M0_T22  227
 UP BND1      X_U5_M1_T22  237
 UP BND1      X_U5_M2_T22  314
 UP BND1      X_U6_M0_T22  349
 UP BND1      X_U6_M1_T22  265
 UP BND1      X_U6_M2_T22  315
 UP BND1      X_U7_M0_T22  212
 UP BND1      X_U7_M1_T22  223
 UP BND1      X_U7_M2_T22  287
 UP BND1      S_U0_T22  500
 UP BND1      S_U1_T22  500
 UP BND1      S_U2_T22  500
 UP BND1      S_U3_T22  500
 UP BND1      S_U4_T22  500
 UP BND1      S_U5_T22  500
 UP BND1      S_U6_T22  500
 UP BND1      S_U7_T22  500
 BV BND1      Z_U0_M0_T23
 BV BND1      Z_U0_M1_T23
 BV BND1      Z_U0_M2_T23
 BV BND1      Z_U1_M0_T23
 BV BND1      Z_U1_M1_T23
 BV BND1      Z_U1_M2_T23
 BV BND1      Z_U2_M0_T23
 BV BND1      Z_U2_M1_T23
 BV BND1      Z_U2_M2_T23
 BV BND1      Z_U3_M0_T23
 BV BND1      Z_U3_M1_T23
 BV BND1      Z_U3_M2_T23
 BV BND1      Z_U4_M0_T23
 BV BND1      Z_U4_M1_T23
 BV BND1      Z_U4_M2_T23
 BV BND1      Z_U5_M0_T23
 BV BND1      Z_U5_M1_T23
 BV BND1      Z_U5_M2_T23
 BV BND1      Z_U6_M0_T23
 BV BND1      Z_U6_M1_T23
 BV BND1      Z_U6_M2_T23
 BV BND1      Z_U7_M0_T23
 BV BND1      Z_U7_M1_T23
 BV BND1      Z_U7_M2_T23
 UP BND1      X_U0_M0_T23  300
 UP BND1      X_U0_M1_T23  169
 UP BND1      X_U0_M2_T23  205
 UP BND1      X_U1_M0_T23  255
 UP BND1      X_U1_M1_T23  315
 UP BND1      X_U1_M2_T23  240
 UP BND1      X_U2_M0_T23  300
 UP BND1      X_U2_M1_T23  170
 UP BND1      X_U2_M2_T23  256
 UP BND1      X_U3_M0_T23  175
 UP BND1      X_U3_M1_T23  300
 UP BND1      X_U3_M2_T23  335
 UP BND1      X_U4_M0_T23  210
 UP BND1      X_U4_M1_T23  242
 UP BND1      X_U4_M2_T23  192
 UP BND1      X_U5_M0_T23  227
 UP BND1      X_U5_M1_T23  237
 UP BND1      X_U5_M2_T23  314
 UP BND1      X_U6_M0_T23  349
 UP BND1      X_U6_M1_T23  265
 UP BND1      X_U6_M2_T23  315
 UP BND1      X_U7_M0_T23  212
 UP BND1      X_U7_M1_T23  223
 UP BND1      X_U7_M2_T23  287
 UP BND1      S_U0_T23  500
 UP BND1      S_U1_T23  500
 UP BND1      S_U2_T23  500
 UP BND1      S_U3_T23  500
 UP BND1      S_U4_T23  500
 UP BND1      S_U5_T23  500
 UP BND1      S_U6_T23  500
 UP BND1      S_U7_T23  500
ENDATA
