NAME          REFINERY_SCHED_Medium
OBJSENSE
  MIN
ROWS
 N  NET_COST
 L  MODE_U0_T0
 L  MODE_U1_T0
 L  MODE_U2_T0
 L  MODE_U3_T0
 L  MODE_U4_T0
 L  CAPMAX_U0_M0_T0
 G  CAPMIN_U0_M0_T0
 L  CAPMAX_U0_M1_T0
 G  CAPMIN_U0_M1_T0
 L  CAPMAX_U0_M2_T0
 G  CAPMIN_U0_M2_T0
 L  CAPMAX_U1_M0_T0
 G  CAPMIN_U1_M0_T0
 L  CAPMAX_U1_M1_T0
 G  CAPMIN_U1_M1_T0
 L  CAPMAX_U1_M2_T0
 G  CAPMIN_U1_M2_T0
 L  CAPMAX_U2_M0_T0
 G  CAPMIN_U2_M0_T0
 L  CAPMAX_U2_M1_T0
 G  CAPMIN_U2_M1_T0
 L  CAPMAX_U2_M2_T0
 G  CAPMIN_U2_M2_T0
 L  CAPMAX_U3_M0_T0
 G  CAPMIN_U3_M0_T0
 L  CAPMAX_U3_M1_T0
 G  CAPMIN_U3_M1_T0
 L  CAPMAX_U3_M2_T0
 G  CAPMIN_U3_M2_T0
 L  CAPMAX_U4_M0_T0
 G  CAPMIN_U4_M0_T0
 L  CAPMAX_U4_M1_T0
 G  CAPMIN_U4_M1_T0
 L  CAPMAX_U4_M2_T0
 G  CAPMIN_U4_M2_T0
 E  MBAL_U0_T0
 E  MBAL_U1_T0
 E  MBAL_U2_T0
 E  MBAL_U3_T0
 G  DEMAND_T0
 L  MODE_U0_T1
 L  MODE_U1_T1
 L  MODE_U2_T1
 L  MODE_U3_T1
 L  MODE_U4_T1
 L  CAPMAX_U0_M0_T1
 G  CAPMIN_U0_M0_T1
 L  CAPMAX_U0_M1_T1
 G  CAPMIN_U0_M1_T1
 L  CAPMAX_U0_M2_T1
 G  CAPMIN_U0_M2_T1
 L  CAPMAX_U1_M0_T1
 G  CAPMIN_U1_M0_T1
 L  CAPMAX_U1_M1_T1
 G  CAPMIN_U1_M1_T1
 L  CAPMAX_U1_M2_T1
 G  CAPMIN_U1_M2_T1
 L  CAPMAX_U2_M0_T1
 G  CAPMIN_U2_M0_T1
 L  CAPMAX_U2_M1_T1
 G  CAPMIN_U2_M1_T1
 L  CAPMAX_U2_M2_T1
 G  CAPMIN_U2_M2_T1
 L  CAPMAX_U3_M0_T1
 G  CAPMIN_U3_M0_T1
 L  CAPMAX_U3_M1_T1
 G  CAPMIN_U3_M1_T1
 L  CAPMAX_U3_M2_T1
 G  CAPMIN_U3_M2_T1
 L  CAPMAX_U4_M0_T1
 G  CAPMIN_U4_M0_T1
 L  CAPMAX_U4_M1_T1
 G  CAPMIN_U4_M1_T1
 L  CAPMAX_U4_M2_T1
 G  CAPMIN_U4_M2_T1
 E  MBAL_U0_T1
 E  MBAL_U1_T1
 E  MBAL_U2_T1
 E  MBAL_U3_T1
 G  DEMAND_T1
 L  MODE_U0_T2
 L  MODE_U1_T2
 L  MODE_U2_T2
 L  MODE_U3_T2
 L  MODE_U4_T2
 L  CAPMAX_U0_M0_T2
 G  CAPMIN_U0_M0_T2
 L  CAPMAX_U0_M1_T2
 G  CAPMIN_U0_M1_T2
 L  CAPMAX_U0_M2_T2
 G  CAPMIN_U0_M2_T2
 L  CAPMAX_U1_M0_T2
 G  CAPMIN_U1_M0_T2
 L  CAPMAX_U1_M1_T2
 G  CAPMIN_U1_M1_T2
 L  CAPMAX_U1_M2_T2
 G  CAPMIN_U1_M2_T2
 L  CAPMAX_U2_M0_T2
 G  CAPMIN_U2_M0_T2
 L  CAPMAX_U2_M1_T2
 G  CAPMIN_U2_M1_T2
 L  CAPMAX_U2_M2_T2
 G  CAPMIN_U2_M2_T2
 L  CAPMAX_U3_M0_T2
 G  CAPMIN_U3_M0_T2
 L  CAPMAX_U3_M1_T2
 G  CAPMIN_U3_M1_T2
 L  CAPMAX_U3_M2_T2
 G  CAPMIN_U3_M2_T2
 L  CAPMAX_U4_M0_T2
 G  CAPMIN_U4_M0_T2
 L  CAPMAX_U4_M1_T2
 G  CAPMIN_U4_M1_T2
 L  CAPMAX_U4_M2_T2
 G  CAPMIN_U4_M2_T2
 E  MBAL_U0_T2
 E  MBAL_U1_T2
 E  MBAL_U2_T2
 E  MBAL_U3_T2
 G  DEMAND_T2
 L  MODE_U0_T3
 L  MODE_U1_T3
 L  MODE_U2_T3
 L  MODE_U3_T3
 L  MODE_U4_T3
 L  CAPMAX_U0_M0_T3
 G  CAPMIN_U0_M0_T3
 L  CAPMAX_U0_M1_T3
 G  CAPMIN_U0_M1_T3
 L  CAPMAX_U0_M2_T3
 G  CAPMIN_U0_M2_T3
 L  CAPMAX_U1_M0_T3
 G  CAPMIN_U1_M0_T3
 L  CAPMAX_U1_M1_T3
 G  CAPMIN_U1_M1_T3
 L  CAPMAX_U1_M2_T3
 G  CAPMIN_U1_M2_T3
 L  CAPMAX_U2_M0_T3
 G  CAPMIN_U2_M0_T3
 L  CAPMAX_U2_M1_T3
 G  CAPMIN_U2_M1_T3
 L  CAPMAX_U2_M2_T3
 G  CAPMIN_U2_M2_T3
 L  CAPMAX_U3_M0_T3
 G  CAPMIN_U3_M0_T3
 L  CAPMAX_U3_M1_T3
 G  CAPMIN_U3_M1_T3
 L  CAPMAX_U3_M2_T3
 G  CAPMIN_U3_M2_T3
 L  CAPMAX_U4_M0_T3
 G  CAPMIN_U4_M0_T3
 L  CAPMAX_U4_M1_T3
 G  CAPMIN_U4_M1_T3
 L  CAPMAX_U4_M2_T3
 G  CAPMIN_U4_M2_T3
 E  MBAL_U0_T3
 E  MBAL_U1_T3
 E  MBAL_U2_T3
 E  MBAL_U3_T3
 G  DEMAND_T3
 L  MODE_U0_T4
 L  MODE_U1_T4
 L  MODE_U2_T4
 L  MODE_U3_T4
 L  MODE_U4_T4
 L  CAPMAX_U0_M0_T4
 G  CAPMIN_U0_M0_T4
 L  CAPMAX_U0_M1_T4
 G  CAPMIN_U0_M1_T4
 L  CAPMAX_U0_M2_T4
 G  CAPMIN_U0_M2_T4
 L  CAPMAX_U1_M0_T4
 G  CAPMIN_U1_M0_T4
 L  CAPMAX_U1_M1_T4
 G  CAPMIN_U1_M1_T4
 L  CAPMAX_U1_M2_T4
 G  CAPMIN_U1_M2_T4
 L  CAPMAX_U2_M0_T4
 G  CAPMIN_U2_M0_T4
 L  CAPMAX_U2_M1_T4
 G  CAPMIN_U2_M1_T4
 L  CAPMAX_U2_M2_T4
 G  CAPMIN_U2_M2_T4
 L  CAPMAX_U3_M0_T4
 G  CAPMIN_U3_M0_T4
 L  CAPMAX_U3_M1_T4
 G  CAPMIN_U3_M1_T4
 L  CAPMAX_U3_M2_T4
 G  CAPMIN_U3_M2_T4
 L  CAPMAX_U4_M0_T4
 G  CAPMIN_U4_M0_T4
 L  CAPMAX_U4_M1_T4
 G  CAPMIN_U4_M1_T4
 L  CAPMAX_U4_M2_T4
 G  CAPMIN_U4_M2_T4
 E  MBAL_U0_T4
 E  MBAL_U1_T4
 E  MBAL_U2_T4
 E  MBAL_U3_T4
 G  DEMAND_T4
 L  MODE_U0_T5
 L  MODE_U1_T5
 L  MODE_U2_T5
 L  MODE_U3_T5
 L  MODE_U4_T5
 L  CAPMAX_U0_M0_T5
 G  CAPMIN_U0_M0_T5
 L  CAPMAX_U0_M1_T5
 G  CAPMIN_U0_M1_T5
 L  CAPMAX_U0_M2_T5
 G  CAPMIN_U0_M2_T5
 L  CAPMAX_U1_M0_T5
 G  CAPMIN_U1_M0_T5
 L  CAPMAX_U1_M1_T5
 G  CAPMIN_U1_M1_T5
 L  CAPMAX_U1_M2_T5
 G  CAPMIN_U1_M2_T5
 L  CAPMAX_U2_M0_T5
 G  CAPMIN_U2_M0_T5
 L  CAPMAX_U2_M1_T5
 G  CAPMIN_U2_M1_T5
 L  CAPMAX_U2_M2_T5
 G  CAPMIN_U2_M2_T5
 L  CAPMAX_U3_M0_T5
 G  CAPMIN_U3_M0_T5
 L  CAPMAX_U3_M1_T5
 G  CAPMIN_U3_M1_T5
 L  CAPMAX_U3_M2_T5
 G  CAPMIN_U3_M2_T5
 L  CAPMAX_U4_M0_T5
 G  CAPMIN_U4_M0_T5
 L  CAPMAX_U4_M1_T5
 G  CAPMIN_U4_M1_T5
 L  CAPMAX_U4_M2_T5
 G  CAPMIN_U4_M2_T5
 E  MBAL_U0_T5
 E  MBAL_U1_T5
 E  MBAL_U2_T5
 E  MBAL_U3_T5
 G  DEMAND_T5
 L  MODE_U0_T6
 L  MODE_U1_T6
 L  MODE_U2_T6
 L  MODE_U3_T6
 L  MODE_U4_T6
 L  CAPMAX_U0_M0_T6
 G  CAPMIN_U0_M0_T6
 L  CAPMAX_U0_M1_T6
 G  CAPMIN_U0_M1_T6
 L  CAPMAX_U0_M2_T6
 G  CAPMIN_U0_M2_T6
 L  CAPMAX_U1_M0_T6
 G  CAPMIN_U1_M0_T6
 L  CAPMAX_U1_M1_T6
 G  CAPMIN_U1_M1_T6
 L  CAPMAX_U1_M2_T6
 G  CAPMIN_U1_M2_T6
 L  CAPMAX_U2_M0_T6
 G  CAPMIN_U2_M0_T6
 L  CAPMAX_U2_M1_T6
 G  CAPMIN_U2_M1_T6
 L  CAPMAX_U2_M2_T6
 G  CAPMIN_U2_M2_T6
 L  CAPMAX_U3_M0_T6
 G  CAPMIN_U3_M0_T6
 L  CAPMAX_U3_M1_T6
 G  CAPMIN_U3_M1_T6
 L  CAPMAX_U3_M2_T6
 G  CAPMIN_U3_M2_T6
 L  CAPMAX_U4_M0_T6
 G  CAPMIN_U4_M0_T6
 L  CAPMAX_U4_M1_T6
 G  CAPMIN_U4_M1_T6
 L  CAPMAX_U4_M2_T6
 G  CAPMIN_U4_M2_T6
 E  MBAL_U0_T6
 E  MBAL_U1_T6
 E  MBAL_U2_T6
 E  MBAL_U3_T6
 G  DEMAND_T6
 L  MODE_U0_T7
 L  MODE_U1_T7
 L  MODE_U2_T7
 L  MODE_U3_T7
 L  MODE_U4_T7
 L  CAPMAX_U0_M0_T7
 G  CAPMIN_U0_M0_T7
 L  CAPMAX_U0_M1_T7
 G  CAPMIN_U0_M1_T7
 L  CAPMAX_U0_M2_T7
 G  CAPMIN_U0_M2_T7
 L  CAPMAX_U1_M0_T7
 G  CAPMIN_U1_M0_T7
 L  CAPMAX_U1_M1_T7
 G  CAPMIN_U1_M1_T7
 L  CAPMAX_U1_M2_T7
 G  CAPMIN_U1_M2_T7
 L  CAPMAX_U2_M0_T7
 G  CAPMIN_U2_M0_T7
 L  CAPMAX_U2_M1_T7
 G  CAPMIN_U2_M1_T7
 L  CAPMAX_U2_M2_T7
 G  CAPMIN_U2_M2_T7
 L  CAPMAX_U3_M0_T7
 G  CAPMIN_U3_M0_T7
 L  CAPMAX_U3_M1_T7
 G  CAPMIN_U3_M1_T7
 L  CAPMAX_U3_M2_T7
 G  CAPMIN_U3_M2_T7
 L  CAPMAX_U4_M0_T7
 G  CAPMIN_U4_M0_T7
 L  CAPMAX_U4_M1_T7
 G  CAPMIN_U4_M1_T7
 L  CAPMAX_U4_M2_T7
 G  CAPMIN_U4_M2_T7
 E  MBAL_U0_T7
 E  MBAL_U1_T7
 E  MBAL_U2_T7
 E  MBAL_U3_T7
 G  DEMAND_T7
 L  MODE_U0_T8
 L  MODE_U1_T8
 L  MODE_U2_T8
 L  MODE_U3_T8
 L  MODE_U4_T8
 L  CAPMAX_U0_M0_T8
 G  CAPMIN_U0_M0_T8
 L  CAPMAX_U0_M1_T8
 G  CAPMIN_U0_M1_T8
 L  CAPMAX_U0_M2_T8
 G  CAPMIN_U0_M2_T8
 L  CAPMAX_U1_M0_T8
 G  CAPMIN_U1_M0_T8
 L  CAPMAX_U1_M1_T8
 G  CAPMIN_U1_M1_T8
 L  CAPMAX_U1_M2_T8
 G  CAPMIN_U1_M2_T8
 L  CAPMAX_U2_M0_T8
 G  CAPMIN_U2_M0_T8
 L  CAPMAX_U2_M1_T8
 G  CAPMIN_U2_M1_T8
 L  CAPMAX_U2_M2_T8
 G  CAPMIN_U2_M2_T8
 L  CAPMAX_U3_M0_T8
 G  CAPMIN_U3_M0_T8
 L  CAPMAX_U3_M1_T8
 G  CAPMIN_U3_M1_T8
 L  CAPMAX_U3_M2_T8
 G  CAPMIN_U3_M2_T8
 L  CAPMAX_U4_M0_T8
 G  CAPMIN_U4_M0_T8
 L  CAPMAX_U4_M1_T8
 G  CAPMIN_U4_M1_T8
 L  CAPMAX_U4_M2_T8
 G  CAPMIN_U4_M2_T8
 E  MBAL_U0_T8
 E  MBAL_U1_T8
 E  MBAL_U2_T8
 E  MBAL_U3_T8
 G  DEMAND_T8
 L  MODE_U0_T9
 L  MODE_U1_T9
 L  MODE_U2_T9
 L  MODE_U3_T9
 L  MODE_U4_T9
 L  CAPMAX_U0_M0_T9
 G  CAPMIN_U0_M0_T9
 L  CAPMAX_U0_M1_T9
 G  CAPMIN_U0_M1_T9
 L  CAPMAX_U0_M2_T9
 G  CAPMIN_U0_M2_T9
 L  CAPMAX_U1_M0_T9
 G  CAPMIN_U1_M0_T9
 L  CAPMAX_U1_M1_T9
 G  CAPMIN_U1_M1_T9
 L  CAPMAX_U1_M2_T9
 G  CAPMIN_U1_M2_T9
 L  CAPMAX_U2_M0_T9
 G  CAPMIN_U2_M0_T9
 L  CAPMAX_U2_M1_T9
 G  CAPMIN_U2_M1_T9
 L  CAPMAX_U2_M2_T9
 G  CAPMIN_U2_M2_T9
 L  CAPMAX_U3_M0_T9
 G  CAPMIN_U3_M0_T9
 L  CAPMAX_U3_M1_T9
 G  CAPMIN_U3_M1_T9
 L  CAPMAX_U3_M2_T9
 G  CAPMIN_U3_M2_T9
 L  CAPMAX_U4_M0_T9
 G  CAPMIN_U4_M0_T9
 L  CAPMAX_U4_M1_T9
 G  CAPMIN_U4_M1_T9
 L  CAPMAX_U4_M2_T9
 G  CAPMIN_U4_M2_T9
 E  MBAL_U0_T9
 E  MBAL_U1_T9
 E  MBAL_U2_T9
 E  MBAL_U3_T9
 G  DEMAND_T9
 L  MODE_U0_T10
 L  MODE_U1_T10
 L  MODE_U2_T10
 L  MODE_U3_T10
 L  MODE_U4_T10
 L  CAPMAX_U0_M0_T10
 G  CAPMIN_U0_M0_T10
 L  CAPMAX_U0_M1_T10
 G  CAPMIN_U0_M1_T10
 L  CAPMAX_U0_M2_T10
 G  CAPMIN_U0_M2_T10
 L  CAPMAX_U1_M0_T10
 G  CAPMIN_U1_M0_T10
 L  CAPMAX_U1_M1_T10
 G  CAPMIN_U1_M1_T10
 L  CAPMAX_U1_M2_T10
 G  CAPMIN_U1_M2_T10
 L  CAPMAX_U2_M0_T10
 G  CAPMIN_U2_M0_T10
 L  CAPMAX_U2_M1_T10
 G  CAPMIN_U2_M1_T10
 L  CAPMAX_U2_M2_T10
 G  CAPMIN_U2_M2_T10
 L  CAPMAX_U3_M0_T10
 G  CAPMIN_U3_M0_T10
 L  CAPMAX_U3_M1_T10
 G  CAPMIN_U3_M1_T10
 L  CAPMAX_U3_M2_T10
 G  CAPMIN_U3_M2_T10
 L  CAPMAX_U4_M0_T10
 G  CAPMIN_U4_M0_T10
 L  CAPMAX_U4_M1_T10
 G  CAPMIN_U4_M1_T10
 L  CAPMAX_U4_M2_T10
 G  CAPMIN_U4_M2_T10
 E  MBAL_U0_T10
 E  MBAL_U1_T10
 E  MBAL_U2_T10
 E  MBAL_U3_T10
 G  DEMAND_T10
 L  MODE_U0_T11
 L  MODE_U1_T11
 L  MODE_U2_T11
 L  MODE_U3_T11
 L  MODE_U4_T11
 L  CAPMAX_U0_M0_T11
 G  CAPMIN_U0_M0_T11
 L  CAPMAX_U0_M1_T11
 G  CAPMIN_U0_M1_T11
 L  CAPMAX_U0_M2_T11
 G  CAPMIN_U0_M2_T11
 L  CAPMAX_U1_M0_T11
 G  CAPMIN_U1_M0_T11
 L  CAPMAX_U1_M1_T11
 G  CAPMIN_U1_M1_T11
 L  CAPMAX_U1_M2_T11
 G  CAPMIN_U1_M2_T11
 L  CAPMAX_U2_M0_T11
 G  CAPMIN_U2_M0_T11
 L  CAPMAX_U2_M1_T11
 G  CAPMIN_U2_M1_T11
 L  CAPMAX_U2_M2_T11
 G  CAPMIN_U2_M2_T11
 L  CAPMAX_U3_M0_T11
 G  CAPMIN_U3_M0_T11
 L  CAPMAX_U3_M1_T11
 G  CAPMIN_U3_M1_T11
 L  CAPMAX_U3_M2_T11
 G  CAPMIN_U3_M2_T11
 L  CAPMAX_U4_M0_T11
 G  CAPMIN_U4_M0_T11
 L  CAPMAX_U4_M1_T11
 G  CAPMIN_U4_M1_T11
 L  CAPMAX_U4_M2_T11
 G  CAPMIN_U4_M2_T11
 E  MBAL_U0_T11
 E  MBAL_U1_T11
 E  MBAL_U2_T11
 E  MBAL_U3_T11
 G  DEMAND_T11
COLUMNS
    MARK0000  'MARKER'                 'INTORG'
    Z_U0_M0_T0  NET_COST  228
    Z_U0_M0_T0  MODE_U0_T0  1
    Z_U0_M0_T0  CAPMAX_U0_M0_T0  -300
    Z_U0_M0_T0  CAPMIN_U0_M0_T0  -90
    MARK1000  'MARKER'                 'INTEND'
    MARK2000  'MARKER'                 'INTORG'
    Z_U0_M1_T0  NET_COST  281
    Z_U0_M1_T0  MODE_U0_T0  1
    Z_U0_M1_T0  CAPMAX_U0_M1_T0  -169
    Z_U0_M1_T0  CAPMIN_U0_M1_T0  -50.7
    MARK3000  'MARKER'                 'INTEND'
    MARK4000  'MARKER'                 'INTORG'
    Z_U0_M2_T0  NET_COST  175
    Z_U0_M2_T0  MODE_U0_T0  1
    Z_U0_M2_T0  CAPMAX_U0_M2_T0  -205
    Z_U0_M2_T0  CAPMIN_U0_M2_T0  -61.5
    MARK5000  'MARKER'                 'INTEND'
    MARK6000  'MARKER'                 'INTORG'
    Z_U1_M0_T0  NET_COST  102
    Z_U1_M0_T0  MODE_U1_T0  1
    Z_U1_M0_T0  CAPMAX_U1_M0_T0  -255
    Z_U1_M0_T0  CAPMIN_U1_M0_T0  -76.5
    MARK7000  'MARKER'                 'INTEND'
    MARK8000  'MARKER'                 'INTORG'
    Z_U1_M1_T0  NET_COST  227
    Z_U1_M1_T0  MODE_U1_T0  1
    Z_U1_M1_T0  CAPMAX_U1_M1_T0  -315
    Z_U1_M1_T0  CAPMIN_U1_M1_T0  -94.5
    MARK9000  'MARKER'                 'INTEND'
    MARK1000  'MARKER'                 'INTORG'
    Z_U1_M2_T0  NET_COST  251
    Z_U1_M2_T0  MODE_U1_T0  1
    Z_U1_M2_T0  CAPMAX_U1_M2_T0  -240
    Z_U1_M2_T0  CAPMIN_U1_M2_T0  -72
    MARK1100  'MARKER'                 'INTEND'
    MARK1200  'MARKER'                 'INTORG'
    Z_U2_M0_T0  NET_COST  113
    Z_U2_M0_T0  MODE_U2_T0  1
    Z_U2_M0_T0  CAPMAX_U2_M0_T0  -300
    Z_U2_M0_T0  CAPMIN_U2_M0_T0  -90
    MARK1300  'MARKER'                 'INTEND'
    MARK1400  'MARKER'                 'INTORG'
    Z_U2_M1_T0  NET_COST  185
    Z_U2_M1_T0  MODE_U2_T0  1
    Z_U2_M1_T0  CAPMAX_U2_M1_T0  -170
    Z_U2_M1_T0  CAPMIN_U2_M1_T0  -51
    MARK1500  'MARKER'                 'INTEND'
    MARK1600  'MARKER'                 'INTORG'
    Z_U2_M2_T0  NET_COST  119
    Z_U2_M2_T0  MODE_U2_T0  1
    Z_U2_M2_T0  CAPMAX_U2_M2_T0  -256
    Z_U2_M2_T0  CAPMIN_U2_M2_T0  -76.8
    MARK1700  'MARKER'                 'INTEND'
    MARK1800  'MARKER'                 'INTORG'
    Z_U3_M0_T0  NET_COST  255
    Z_U3_M0_T0  MODE_U3_T0  1
    Z_U3_M0_T0  CAPMAX_U3_M0_T0  -175
    Z_U3_M0_T0  CAPMIN_U3_M0_T0  -52.5
    MARK1900  'MARKER'                 'INTEND'
    MARK2000  'MARKER'                 'INTORG'
    Z_U3_M1_T0  NET_COST  165
    Z_U3_M1_T0  MODE_U3_T0  1
    Z_U3_M1_T0  CAPMAX_U3_M1_T0  -300
    Z_U3_M1_T0  CAPMIN_U3_M1_T0  -90
    MARK2100  'MARKER'                 'INTEND'
    MARK2200  'MARKER'                 'INTORG'
    Z_U3_M2_T0  NET_COST  109
    Z_U3_M2_T0  MODE_U3_T0  1
    Z_U3_M2_T0  CAPMAX_U3_M2_T0  -335
    Z_U3_M2_T0  CAPMIN_U3_M2_T0  -100.5
    MARK2300  'MARKER'                 'INTEND'
    MARK2400  'MARKER'                 'INTORG'
    Z_U4_M0_T0  NET_COST  183
    Z_U4_M0_T0  MODE_U4_T0  1
    Z_U4_M0_T0  CAPMAX_U4_M0_T0  -210
    Z_U4_M0_T0  CAPMIN_U4_M0_T0  -63
    MARK2500  'MARKER'                 'INTEND'
    MARK2600  'MARKER'                 'INTORG'
    Z_U4_M1_T0  NET_COST  240
    Z_U4_M1_T0  MODE_U4_T0  1
    Z_U4_M1_T0  CAPMAX_U4_M1_T0  -242
    Z_U4_M1_T0  CAPMIN_U4_M1_T0  -72.6
    MARK2700  'MARKER'                 'INTEND'
    MARK2800  'MARKER'                 'INTORG'
    Z_U4_M2_T0  NET_COST  198
    Z_U4_M2_T0  MODE_U4_T0  1
    Z_U4_M2_T0  CAPMAX_U4_M2_T0  -192
    Z_U4_M2_T0  CAPMIN_U4_M2_T0  -57.6
    MARK2900  'MARKER'                 'INTEND'
    X_U0_M0_T0  NET_COST  33.9
    X_U0_M0_T0  CAPMAX_U0_M0_T0  1
    X_U0_M0_T0  CAPMIN_U0_M0_T0  1
    X_U0_M0_T0  MBAL_U0_T0  -0.9
    X_U0_M1_T0  NET_COST  18.4
    X_U0_M1_T0  CAPMAX_U0_M1_T0  1
    X_U0_M1_T0  CAPMIN_U0_M1_T0  1
    X_U0_M1_T0  MBAL_U0_T0  -0.9
    X_U0_M2_T0  NET_COST  29.4
    X_U0_M2_T0  CAPMAX_U0_M2_T0  1
    X_U0_M2_T0  CAPMIN_U0_M2_T0  1
    X_U0_M2_T0  MBAL_U0_T0  -0.9
    X_U1_M0_T0  NET_COST  24.8
    X_U1_M0_T0  CAPMAX_U1_M0_T0  1
    X_U1_M0_T0  CAPMIN_U1_M0_T0  1
    X_U1_M0_T0  MBAL_U0_T0  1
    X_U1_M0_T0  MBAL_U1_T0  -0.9
    X_U1_M1_T0  NET_COST  32.1
    X_U1_M1_T0  CAPMAX_U1_M1_T0  1
    X_U1_M1_T0  CAPMIN_U1_M1_T0  1
    X_U1_M1_T0  MBAL_U0_T0  1
    X_U1_M1_T0  MBAL_U1_T0  -0.9
    X_U1_M2_T0  NET_COST  38.6
    X_U1_M2_T0  CAPMAX_U1_M2_T0  1
    X_U1_M2_T0  CAPMIN_U1_M2_T0  1
    X_U1_M2_T0  MBAL_U0_T0  1
    X_U1_M2_T0  MBAL_U1_T0  -0.9
    X_U2_M0_T0  NET_COST  16.2
    X_U2_M0_T0  CAPMAX_U2_M0_T0  1
    X_U2_M0_T0  CAPMIN_U2_M0_T0  1
    X_U2_M0_T0  MBAL_U1_T0  1
    X_U2_M0_T0  MBAL_U2_T0  -0.9
    X_U2_M1_T0  NET_COST  18.7
    X_U2_M1_T0  CAPMAX_U2_M1_T0  1
    X_U2_M1_T0  CAPMIN_U2_M1_T0  1
    X_U2_M1_T0  MBAL_U1_T0  1
    X_U2_M1_T0  MBAL_U2_T0  -0.9
    X_U2_M2_T0  NET_COST  18.6
    X_U2_M2_T0  CAPMAX_U2_M2_T0  1
    X_U2_M2_T0  CAPMIN_U2_M2_T0  1
    X_U2_M2_T0  MBAL_U1_T0  1
    X_U2_M2_T0  MBAL_U2_T0  -0.9
    X_U3_M0_T0  NET_COST  26.2
    X_U3_M0_T0  CAPMAX_U3_M0_T0  1
    X_U3_M0_T0  CAPMIN_U3_M0_T0  1
    X_U3_M0_T0  MBAL_U2_T0  1
    X_U3_M0_T0  MBAL_U3_T0  -0.9
    X_U3_M1_T0  NET_COST  33.6
    X_U3_M1_T0  CAPMAX_U3_M1_T0  1
    X_U3_M1_T0  CAPMIN_U3_M1_T0  1
    X_U3_M1_T0  MBAL_U2_T0  1
    X_U3_M1_T0  MBAL_U3_T0  -0.9
    X_U3_M2_T0  NET_COST  35.1
    X_U3_M2_T0  CAPMAX_U3_M2_T0  1
    X_U3_M2_T0  CAPMIN_U3_M2_T0  1
    X_U3_M2_T0  MBAL_U2_T0  1
    X_U3_M2_T0  MBAL_U3_T0  -0.9
    X_U4_M0_T0  NET_COST  -61.4
    X_U4_M0_T0  CAPMAX_U4_M0_T0  1
    X_U4_M0_T0  CAPMIN_U4_M0_T0  1
    X_U4_M0_T0  MBAL_U3_T0  1
    X_U4_M0_T0  DEMAND_T0  1
    X_U4_M1_T0  NET_COST  -79.5
    X_U4_M1_T0  CAPMAX_U4_M1_T0  1
    X_U4_M1_T0  CAPMIN_U4_M1_T0  1
    X_U4_M1_T0  MBAL_U3_T0  1
    X_U4_M1_T0  DEMAND_T0  1
    X_U4_M2_T0  NET_COST  -66.6
    X_U4_M2_T0  CAPMAX_U4_M2_T0  1
    X_U4_M2_T0  CAPMIN_U4_M2_T0  1
    X_U4_M2_T0  MBAL_U3_T0  1
    X_U4_M2_T0  DEMAND_T0  1
    S_U0_T0   NET_COST  2
    S_U0_T0   MBAL_U0_T0  1
    S_U0_T0   MBAL_U0_T1  -1
    S_U1_T0   NET_COST  2
    S_U1_T0   MBAL_U1_T0  1
    S_U1_T0   MBAL_U1_T1  -1
    S_U2_T0   NET_COST  2
    S_U2_T0   MBAL_U2_T0  1
    S_U2_T0   MBAL_U2_T1  -1
    S_U3_T0   NET_COST  2
    S_U3_T0   MBAL_U3_T0  1
    S_U3_T0   MBAL_U3_T1  -1
    S_U4_T0   NET_COST  2
    MARK3000  'MARKER'                 'INTORG'
    Z_U0_M0_T1  NET_COST  228
    Z_U0_M0_T1  MODE_U0_T1  1
    Z_U0_M0_T1  CAPMAX_U0_M0_T1  -300
    Z_U0_M0_T1  CAPMIN_U0_M0_T1  -90
    MARK3100  'MARKER'                 'INTEND'
    MARK3200  'MARKER'                 'INTORG'
    Z_U0_M1_T1  NET_COST  281
    Z_U0_M1_T1  MODE_U0_T1  1
    Z_U0_M1_T1  CAPMAX_U0_M1_T1  -169
    Z_U0_M1_T1  CAPMIN_U0_M1_T1  -50.7
    MARK3300  'MARKER'                 'INTEND'
    MARK3400  'MARKER'                 'INTORG'
    Z_U0_M2_T1  NET_COST  175
    Z_U0_M2_T1  MODE_U0_T1  1
    Z_U0_M2_T1  CAPMAX_U0_M2_T1  -205
    Z_U0_M2_T1  CAPMIN_U0_M2_T1  -61.5
    MARK3500  'MARKER'                 'INTEND'
    MARK3600  'MARKER'                 'INTORG'
    Z_U1_M0_T1  NET_COST  102
    Z_U1_M0_T1  MODE_U1_T1  1
    Z_U1_M0_T1  CAPMAX_U1_M0_T1  -255
    Z_U1_M0_T1  CAPMIN_U1_M0_T1  -76.5
    MARK3700  'MARKER'                 'INTEND'
    MARK3800  'MARKER'                 'INTORG'
    Z_U1_M1_T1  NET_COST  227
    Z_U1_M1_T1  MODE_U1_T1  1
    Z_U1_M1_T1  CAPMAX_U1_M1_T1  -315
    Z_U1_M1_T1  CAPMIN_U1_M1_T1  -94.5
    MARK3900  'MARKER'                 'INTEND'
    MARK4000  'MARKER'                 'INTORG'
    Z_U1_M2_T1  NET_COST  251
    Z_U1_M2_T1  MODE_U1_T1  1
    Z_U1_M2_T1  CAPMAX_U1_M2_T1  -240
    Z_U1_M2_T1  CAPMIN_U1_M2_T1  -72
    MARK4100  'MARKER'                 'INTEND'
    MARK4200  'MARKER'                 'INTORG'
    Z_U2_M0_T1  NET_COST  113
    Z_U2_M0_T1  MODE_U2_T1  1
    Z_U2_M0_T1  CAPMAX_U2_M0_T1  -300
    Z_U2_M0_T1  CAPMIN_U2_M0_T1  -90
    MARK4300  'MARKER'                 'INTEND'
    MARK4400  'MARKER'                 'INTORG'
    Z_U2_M1_T1  NET_COST  185
    Z_U2_M1_T1  MODE_U2_T1  1
    Z_U2_M1_T1  CAPMAX_U2_M1_T1  -170
    Z_U2_M1_T1  CAPMIN_U2_M1_T1  -51
    MARK4500  'MARKER'                 'INTEND'
    MARK4600  'MARKER'                 'INTORG'
    Z_U2_M2_T1  NET_COST  119
    Z_U2_M2_T1  MODE_U2_T1  1
    Z_U2_M2_T1  CAPMAX_U2_M2_T1  -256
    Z_U2_M2_T1  CAPMIN_U2_M2_T1  -76.8
    MARK4700  'MARKER'                 'INTEND'
    MARK4800  'MARKER'                 'INTORG'
    Z_U3_M0_T1  NET_COST  255
    Z_U3_M0_T1  MODE_U3_T1  1
    Z_U3_M0_T1  CAPMAX_U3_M0_T1  -175
    Z_U3_M0_T1  CAPMIN_U3_M0_T1  -52.5
    MARK4900  'MARKER'                 'INTEND'
    MARK5000  'MARKER'                 'INTORG'
    Z_U3_M1_T1  NET_COST  165
    Z_U3_M1_T1  MODE_U3_T1  1
    Z_U3_M1_T1  CAPMAX_U3_M1_T1  -300
    Z_U3_M1_T1  CAPMIN_U3_M1_T1  -90
    MARK5100  'MARKER'                 'INTEND'
    MARK5200  'MARKER'                 'INTORG'
    Z_U3_M2_T1  NET_COST  109
    Z_U3_M2_T1  MODE_U3_T1  1
    Z_U3_M2_T1  CAPMAX_U3_M2_T1  -335
    Z_U3_M2_T1  CAPMIN_U3_M2_T1  -100.5
    MARK5300  'MARKER'                 'INTEND'
    MARK5400  'MARKER'                 'INTORG'
    Z_U4_M0_T1  NET_COST  183
    Z_U4_M0_T1  MODE_U4_T1  1
    Z_U4_M0_T1  CAPMAX_U4_M0_T1  -210
    Z_U4_M0_T1  CAPMIN_U4_M0_T1  -63
    MARK5500  'MARKER'                 'INTEND'
    MARK5600  'MARKER'                 'INTORG'
    Z_U4_M1_T1  NET_COST  240
    Z_U4_M1_T1  MODE_U4_T1  1
    Z_U4_M1_T1  CAPMAX_U4_M1_T1  -242
    Z_U4_M1_T1  CAPMIN_U4_M1_T1  -72.6
    MARK5700  'MARKER'                 'INTEND'
    MARK5800  'MARKER'                 'INTORG'
    Z_U4_M2_T1  NET_COST  198
    Z_U4_M2_T1  MODE_U4_T1  1
    Z_U4_M2_T1  CAPMAX_U4_M2_T1  -192
    Z_U4_M2_T1  CAPMIN_U4_M2_T1  -57.6
    MARK5900  'MARKER'                 'INTEND'
    X_U0_M0_T1  NET_COST  33.9
    X_U0_M0_T1  CAPMAX_U0_M0_T1  1
    X_U0_M0_T1  CAPMIN_U0_M0_T1  1
    X_U0_M0_T1  MBAL_U0_T1  -0.9
    X_U0_M1_T1  NET_COST  18.4
    X_U0_M1_T1  CAPMAX_U0_M1_T1  1
    X_U0_M1_T1  CAPMIN_U0_M1_T1  1
    X_U0_M1_T1  MBAL_U0_T1  -0.9
    X_U0_M2_T1  NET_COST  29.4
    X_U0_M2_T1  CAPMAX_U0_M2_T1  1
    X_U0_M2_T1  CAPMIN_U0_M2_T1  1
    X_U0_M2_T1  MBAL_U0_T1  -0.9
    X_U1_M0_T1  NET_COST  24.8
    X_U1_M0_T1  CAPMAX_U1_M0_T1  1
    X_U1_M0_T1  CAPMIN_U1_M0_T1  1
    X_U1_M0_T1  MBAL_U0_T1  1
    X_U1_M0_T1  MBAL_U1_T1  -0.9
    X_U1_M1_T1  NET_COST  32.1
    X_U1_M1_T1  CAPMAX_U1_M1_T1  1
    X_U1_M1_T1  CAPMIN_U1_M1_T1  1
    X_U1_M1_T1  MBAL_U0_T1  1
    X_U1_M1_T1  MBAL_U1_T1  -0.9
    X_U1_M2_T1  NET_COST  38.6
    X_U1_M2_T1  CAPMAX_U1_M2_T1  1
    X_U1_M2_T1  CAPMIN_U1_M2_T1  1
    X_U1_M2_T1  MBAL_U0_T1  1
    X_U1_M2_T1  MBAL_U1_T1  -0.9
    X_U2_M0_T1  NET_COST  16.2
    X_U2_M0_T1  CAPMAX_U2_M0_T1  1
    X_U2_M0_T1  CAPMIN_U2_M0_T1  1
    X_U2_M0_T1  MBAL_U1_T1  1
    X_U2_M0_T1  MBAL_U2_T1  -0.9
    X_U2_M1_T1  NET_COST  18.7
    X_U2_M1_T1  CAPMAX_U2_M1_T1  1
    X_U2_M1_T1  CAPMIN_U2_M1_T1  1
    X_U2_M1_T1  MBAL_U1_T1  1
    X_U2_M1_T1  MBAL_U2_T1  -0.9
    X_U2_M2_T1  NET_COST  18.6
    X_U2_M2_T1  CAPMAX_U2_M2_T1  1
    X_U2_M2_T1  CAPMIN_U2_M2_T1  1
    X_U2_M2_T1  MBAL_U1_T1  1
    X_U2_M2_T1  MBAL_U2_T1  -0.9
    X_U3_M0_T1  NET_COST  26.2
    X_U3_M0_T1  CAPMAX_U3_M0_T1  1
    X_U3_M0_T1  CAPMIN_U3_M0_T1  1
    X_U3_M0_T1  MBAL_U2_T1  1
    X_U3_M0_T1  MBAL_U3_T1  -0.9
    X_U3_M1_T1  NET_COST  33.6
    X_U3_M1_T1  CAPMAX_U3_M1_T1  1
    X_U3_M1_T1  CAPMIN_U3_M1_T1  1
    X_U3_M1_T1  MBAL_U2_T1  1
    X_U3_M1_T1  MBAL_U3_T1  -0.9
    X_U3_M2_T1  NET_COST  35.1
    X_U3_M2_T1  CAPMAX_U3_M2_T1  1
    X_U3_M2_T1  CAPMIN_U3_M2_T1  1
    X_U3_M2_T1  MBAL_U2_T1  1
    X_U3_M2_T1  MBAL_U3_T1  -0.9
    X_U4_M0_T1  NET_COST  -61.4
    X_U4_M0_T1  CAPMAX_U4_M0_T1  1
    X_U4_M0_T1  CAPMIN_U4_M0_T1  1
    X_U4_M0_T1  MBAL_U3_T1  1
    X_U4_M0_T1  DEMAND_T1  1
    X_U4_M1_T1  NET_COST  -79.5
    X_U4_M1_T1  CAPMAX_U4_M1_T1  1
    X_U4_M1_T1  CAPMIN_U4_M1_T1  1
    X_U4_M1_T1  MBAL_U3_T1  1
    X_U4_M1_T1  DEMAND_T1  1
    X_U4_M2_T1  NET_COST  -66.6
    X_U4_M2_T1  CAPMAX_U4_M2_T1  1
    X_U4_M2_T1  CAPMIN_U4_M2_T1  1
    X_U4_M2_T1  MBAL_U3_T1  1
    X_U4_M2_T1  DEMAND_T1  1
    S_U0_T1   NET_COST  2
    S_U0_T1   MBAL_U0_T1  1
    S_U0_T1   MBAL_U0_T2  -1
    S_U1_T1   NET_COST  2
    S_U1_T1   MBAL_U1_T1  1
    S_U1_T1   MBAL_U1_T2  -1
    S_U2_T1   NET_COST  2
    S_U2_T1   MBAL_U2_T1  1
    S_U2_T1   MBAL_U2_T2  -1
    S_U3_T1   NET_COST  2
    S_U3_T1   MBAL_U3_T1  1
    S_U3_T1   MBAL_U3_T2  -1
    S_U4_T1   NET_COST  2
    MARK6000  'MARKER'                 'INTORG'
    Z_U0_M0_T2  NET_COST  228
    Z_U0_M0_T2  MODE_U0_T2  1
    Z_U0_M0_T2  CAPMAX_U0_M0_T2  -300
    Z_U0_M0_T2  CAPMIN_U0_M0_T2  -90
    MARK6100  'MARKER'                 'INTEND'
    MARK6200  'MARKER'                 'INTORG'
    Z_U0_M1_T2  NET_COST  281
    Z_U0_M1_T2  MODE_U0_T2  1
    Z_U0_M1_T2  CAPMAX_U0_M1_T2  -169
    Z_U0_M1_T2  CAPMIN_U0_M1_T2  -50.7
    MARK6300  'MARKER'                 'INTEND'
    MARK6400  'MARKER'                 'INTORG'
    Z_U0_M2_T2  NET_COST  175
    Z_U0_M2_T2  MODE_U0_T2  1
    Z_U0_M2_T2  CAPMAX_U0_M2_T2  -205
    Z_U0_M2_T2  CAPMIN_U0_M2_T2  -61.5
    MARK6500  'MARKER'                 'INTEND'
    MARK6600  'MARKER'                 'INTORG'
    Z_U1_M0_T2  NET_COST  102
    Z_U1_M0_T2  MODE_U1_T2  1
    Z_U1_M0_T2  CAPMAX_U1_M0_T2  -255
    Z_U1_M0_T2  CAPMIN_U1_M0_T2  -76.5
    MARK6700  'MARKER'                 'INTEND'
    MARK6800  'MARKER'                 'INTORG'
    Z_U1_M1_T2  NET_COST  227
    Z_U1_M1_T2  MODE_U1_T2  1
    Z_U1_M1_T2  CAPMAX_U1_M1_T2  -315
    Z_U1_M1_T2  CAPMIN_U1_M1_T2  -94.5
    MARK6900  'MARKER'                 'INTEND'
    MARK7000  'MARKER'                 'INTORG'
    Z_U1_M2_T2  NET_COST  251
    Z_U1_M2_T2  MODE_U1_T2  1
    Z_U1_M2_T2  CAPMAX_U1_M2_T2  -240
    Z_U1_M2_T2  CAPMIN_U1_M2_T2  -72
    MARK7100  'MARKER'                 'INTEND'
    MARK7200  'MARKER'                 'INTORG'
    Z_U2_M0_T2  NET_COST  113
    Z_U2_M0_T2  MODE_U2_T2  1
    Z_U2_M0_T2  CAPMAX_U2_M0_T2  -300
    Z_U2_M0_T2  CAPMIN_U2_M0_T2  -90
    MARK7300  'MARKER'                 'INTEND'
    MARK7400  'MARKER'                 'INTORG'
    Z_U2_M1_T2  NET_COST  185
    Z_U2_M1_T2  MODE_U2_T2  1
    Z_U2_M1_T2  CAPMAX_U2_M1_T2  -170
    Z_U2_M1_T2  CAPMIN_U2_M1_T2  -51
    MARK7500  'MARKER'                 'INTEND'
    MARK7600  'MARKER'                 'INTORG'
    Z_U2_M2_T2  NET_COST  119
    Z_U2_M2_T2  MODE_U2_T2  1
    Z_U2_M2_T2  CAPMAX_U2_M2_T2  -256
    Z_U2_M2_T2  CAPMIN_U2_M2_T2  -76.8
    MARK7700  'MARKER'                 'INTEND'
    MARK7800  'MARKER'                 'INTORG'
    Z_U3_M0_T2  NET_COST  255
    Z_U3_M0_T2  MODE_U3_T2  1
    Z_U3_M0_T2  CAPMAX_U3_M0_T2  -175
    Z_U3_M0_T2  CAPMIN_U3_M0_T2  -52.5
    MARK7900  'MARKER'                 'INTEND'
    MARK8000  'MARKER'                 'INTORG'
    Z_U3_M1_T2  NET_COST  165
    Z_U3_M1_T2  MODE_U3_T2  1
    Z_U3_M1_T2  CAPMAX_U3_M1_T2  -300
    Z_U3_M1_T2  CAPMIN_U3_M1_T2  -90
    MARK8100  'MARKER'                 'INTEND'
    MARK8200  'MARKER'                 'INTORG'
    Z_U3_M2_T2  NET_COST  109
    Z_U3_M2_T2  MODE_U3_T2  1
    Z_U3_M2_T2  CAPMAX_U3_M2_T2  -335
    Z_U3_M2_T2  CAPMIN_U3_M2_T2  -100.5
    MARK8300  'MARKER'                 'INTEND'
    MARK8400  'MARKER'                 'INTORG'
    Z_U4_M0_T2  NET_COST  183
    Z_U4_M0_T2  MODE_U4_T2  1
    Z_U4_M0_T2  CAPMAX_U4_M0_T2  -210
    Z_U4_M0_T2  CAPMIN_U4_M0_T2  -63
    MARK8500  'MARKER'                 'INTEND'
    MARK8600  'MARKER'                 'INTORG'
    Z_U4_M1_T2  NET_COST  240
    Z_U4_M1_T2  MODE_U4_T2  1
    Z_U4_M1_T2  CAPMAX_U4_M1_T2  -242
    Z_U4_M1_T2  CAPMIN_U4_M1_T2  -72.6
    MARK8700  'MARKER'                 'INTEND'
    MARK8800  'MARKER'                 'INTORG'
    Z_U4_M2_T2  NET_COST  198
    Z_U4_M2_T2  MODE_U4_T2  1
    Z_U4_M2_T2  CAPMAX_U4_M2_T2  -192
    Z_U4_M2_T2  CAPMIN_U4_M2_T2  -57.6
    MARK8900  'MARKER'                 'INTEND'
    X_U0_M0_T2  NET_COST  33.9
    X_U0_M0_T2  CAPMAX_U0_M0_T2  1
    X_U0_M0_T2  CAPMIN_U0_M0_T2  1
    X_U0_M0_T2  MBAL_U0_T2  -0.9
    X_U0_M1_T2  NET_COST  18.4
    X_U0_M1_T2  CAPMAX_U0_M1_T2  1
    X_U0_M1_T2  CAPMIN_U0_M1_T2  1
    X_U0_M1_T2  MBAL_U0_T2  -0.9
    X_U0_M2_T2  NET_COST  29.4
    X_U0_M2_T2  CAPMAX_U0_M2_T2  1
    X_U0_M2_T2  CAPMIN_U0_M2_T2  1
    X_U0_M2_T2  MBAL_U0_T2  -0.9
    X_U1_M0_T2  NET_COST  24.8
    X_U1_M0_T2  CAPMAX_U1_M0_T2  1
    X_U1_M0_T2  CAPMIN_U1_M0_T2  1
    X_U1_M0_T2  MBAL_U0_T2  1
    X_U1_M0_T2  MBAL_U1_T2  -0.9
    X_U1_M1_T2  NET_COST  32.1
    X_U1_M1_T2  CAPMAX_U1_M1_T2  1
    X_U1_M1_T2  CAPMIN_U1_M1_T2  1
    X_U1_M1_T2  MBAL_U0_T2  1
    X_U1_M1_T2  MBAL_U1_T2  -0.9
    X_U1_M2_T2  NET_COST  38.6
    X_U1_M2_T2  CAPMAX_U1_M2_T2  1
    X_U1_M2_T2  CAPMIN_U1_M2_T2  1
    X_U1_M2_T2  MBAL_U0_T2  1
    X_U1_M2_T2  MBAL_U1_T2  -0.9
    X_U2_M0_T2  NET_COST  16.2
    X_U2_M0_T2  CAPMAX_U2_M0_T2  1
    X_U2_M0_T2  CAPMIN_U2_M0_T2  1
    X_U2_M0_T2  MBAL_U1_T2  1
    X_U2_M0_T2  MBAL_U2_T2  -0.9
    X_U2_M1_T2  NET_COST  18.7
    X_U2_M1_T2  CAPMAX_U2_M1_T2  1
    X_U2_M1_T2  CAPMIN_U2_M1_T2  1
    X_U2_M1_T2  MBAL_U1_T2  1
    X_U2_M1_T2  MBAL_U2_T2  -0.9
    X_U2_M2_T2  NET_COST  18.6
    X_U2_M2_T2  CAPMAX_U2_M2_T2  1
    X_U2_M2_T2  CAPMIN_U2_M2_T2  1
    X_U2_M2_T2  MBAL_U1_T2  1
    X_U2_M2_T2  MBAL_U2_T2  -0.9
    X_U3_M0_T2  NET_COST  26.2
    X_U3_M0_T2  CAPMAX_U3_M0_T2  1
    X_U3_M0_T2  CAPMIN_U3_M0_T2  1
    X_U3_M0_T2  MBAL_U2_T2  1
    X_U3_M0_T2  MBAL_U3_T2  -0.9
    X_U3_M1_T2  NET_COST  33.6
    X_U3_M1_T2  CAPMAX_U3_M1_T2  1
    X_U3_M1_T2  CAPMIN_U3_M1_T2  1
    X_U3_M1_T2  MBAL_U2_T2  1
    X_U3_M1_T2  MBAL_U3_T2  -0.9
    X_U3_M2_T2  NET_COST  35.1
    X_U3_M2_T2  CAPMAX_U3_M2_T2  1
    X_U3_M2_T2  CAPMIN_U3_M2_T2  1
    X_U3_M2_T2  MBAL_U2_T2  1
    X_U3_M2_T2  MBAL_U3_T2  -0.9
    X_U4_M0_T2  NET_COST  -61.4
    X_U4_M0_T2  CAPMAX_U4_M0_T2  1
    X_U4_M0_T2  CAPMIN_U4_M0_T2  1
    X_U4_M0_T2  MBAL_U3_T2  1
    X_U4_M0_T2  DEMAND_T2  1
    X_U4_M1_T2  NET_COST  -79.5
    X_U4_M1_T2  CAPMAX_U4_M1_T2  1
    X_U4_M1_T2  CAPMIN_U4_M1_T2  1
    X_U4_M1_T2  MBAL_U3_T2  1
    X_U4_M1_T2  DEMAND_T2  1
    X_U4_M2_T2  NET_COST  -66.6
    X_U4_M2_T2  CAPMAX_U4_M2_T2  1
    X_U4_M2_T2  CAPMIN_U4_M2_T2  1
    X_U4_M2_T2  MBAL_U3_T2  1
    X_U4_M2_T2  DEMAND_T2  1
    S_U0_T2   NET_COST  2
    S_U0_T2   MBAL_U0_T2  1
    S_U0_T2   MBAL_U0_T3  -1
    S_U1_T2   NET_COST  2
    S_U1_T2   MBAL_U1_T2  1
    S_U1_T2   MBAL_U1_T3  -1
    S_U2_T2   NET_COST  2
    S_U2_T2   MBAL_U2_T2  1
    S_U2_T2   MBAL_U2_T3  -1
    S_U3_T2   NET_COST  2
    S_U3_T2   MBAL_U3_T2  1
    S_U3_T2   MBAL_U3_T3  -1
    S_U4_T2   NET_COST  2
    MARK9000  'MARKER'                 'INTORG'
    Z_U0_M0_T3  NET_COST  228
    Z_U0_M0_T3  MODE_U0_T3  1
    Z_U0_M0_T3  CAPMAX_U0_M0_T3  -300
    Z_U0_M0_T3  CAPMIN_U0_M0_T3  -90
    MARK9100  'MARKER'                 'INTEND'
    MARK9200  'MARKER'                 'INTORG'
    Z_U0_M1_T3  NET_COST  281
    Z_U0_M1_T3  MODE_U0_T3  1
    Z_U0_M1_T3  CAPMAX_U0_M1_T3  -169
    Z_U0_M1_T3  CAPMIN_U0_M1_T3  -50.7
    MARK9300  'MARKER'                 'INTEND'
    MARK9400  'MARKER'                 'INTORG'
    Z_U0_M2_T3  NET_COST  175
    Z_U0_M2_T3  MODE_U0_T3  1
    Z_U0_M2_T3  CAPMAX_U0_M2_T3  -205
    Z_U0_M2_T3  CAPMIN_U0_M2_T3  -61.5
    MARK9500  'MARKER'                 'INTEND'
    MARK9600  'MARKER'                 'INTORG'
    Z_U1_M0_T3  NET_COST  102
    Z_U1_M0_T3  MODE_U1_T3  1
    Z_U1_M0_T3  CAPMAX_U1_M0_T3  -255
    Z_U1_M0_T3  CAPMIN_U1_M0_T3  -76.5
    MARK9700  'MARKER'                 'INTEND'
    MARK9800  'MARKER'                 'INTORG'
    Z_U1_M1_T3  NET_COST  227
    Z_U1_M1_T3  MODE_U1_T3  1
    Z_U1_M1_T3  CAPMAX_U1_M1_T3  -315
    Z_U1_M1_T3  CAPMIN_U1_M1_T3  -94.5
    MARK9900  'MARKER'                 'INTEND'
    MARK1000  'MARKER'                 'INTORG'
    Z_U1_M2_T3  NET_COST  251
    Z_U1_M2_T3  MODE_U1_T3  1
    Z_U1_M2_T3  CAPMAX_U1_M2_T3  -240
    Z_U1_M2_T3  CAPMIN_U1_M2_T3  -72
    MARK1010  'MARKER'                 'INTEND'
    MARK1020  'MARKER'                 'INTORG'
    Z_U2_M0_T3  NET_COST  113
    Z_U2_M0_T3  MODE_U2_T3  1
    Z_U2_M0_T3  CAPMAX_U2_M0_T3  -300
    Z_U2_M0_T3  CAPMIN_U2_M0_T3  -90
    MARK1030  'MARKER'                 'INTEND'
    MARK1040  'MARKER'                 'INTORG'
    Z_U2_M1_T3  NET_COST  185
    Z_U2_M1_T3  MODE_U2_T3  1
    Z_U2_M1_T3  CAPMAX_U2_M1_T3  -170
    Z_U2_M1_T3  CAPMIN_U2_M1_T3  -51
    MARK1050  'MARKER'                 'INTEND'
    MARK1060  'MARKER'                 'INTORG'
    Z_U2_M2_T3  NET_COST  119
    Z_U2_M2_T3  MODE_U2_T3  1
    Z_U2_M2_T3  CAPMAX_U2_M2_T3  -256
    Z_U2_M2_T3  CAPMIN_U2_M2_T3  -76.8
    MARK1070  'MARKER'                 'INTEND'
    MARK1080  'MARKER'                 'INTORG'
    Z_U3_M0_T3  NET_COST  255
    Z_U3_M0_T3  MODE_U3_T3  1
    Z_U3_M0_T3  CAPMAX_U3_M0_T3  -175
    Z_U3_M0_T3  CAPMIN_U3_M0_T3  -52.5
    MARK1090  'MARKER'                 'INTEND'
    MARK1100  'MARKER'                 'INTORG'
    Z_U3_M1_T3  NET_COST  165
    Z_U3_M1_T3  MODE_U3_T3  1
    Z_U3_M1_T3  CAPMAX_U3_M1_T3  -300
    Z_U3_M1_T3  CAPMIN_U3_M1_T3  -90
    MARK1110  'MARKER'                 'INTEND'
    MARK1120  'MARKER'                 'INTORG'
    Z_U3_M2_T3  NET_COST  109
    Z_U3_M2_T3  MODE_U3_T3  1
    Z_U3_M2_T3  CAPMAX_U3_M2_T3  -335
    Z_U3_M2_T3  CAPMIN_U3_M2_T3  -100.5
    MARK1130  'MARKER'                 'INTEND'
    MARK1140  'MARKER'                 'INTORG'
    Z_U4_M0_T3  NET_COST  183
    Z_U4_M0_T3  MODE_U4_T3  1
    Z_U4_M0_T3  CAPMAX_U4_M0_T3  -210
    Z_U4_M0_T3  CAPMIN_U4_M0_T3  -63
    MARK1150  'MARKER'                 'INTEND'
    MARK1160  'MARKER'                 'INTORG'
    Z_U4_M1_T3  NET_COST  240
    Z_U4_M1_T3  MODE_U4_T3  1
    Z_U4_M1_T3  CAPMAX_U4_M1_T3  -242
    Z_U4_M1_T3  CAPMIN_U4_M1_T3  -72.6
    MARK1170  'MARKER'                 'INTEND'
    MARK1180  'MARKER'                 'INTORG'
    Z_U4_M2_T3  NET_COST  198
    Z_U4_M2_T3  MODE_U4_T3  1
    Z_U4_M2_T3  CAPMAX_U4_M2_T3  -192
    Z_U4_M2_T3  CAPMIN_U4_M2_T3  -57.6
    MARK1190  'MARKER'                 'INTEND'
    X_U0_M0_T3  NET_COST  33.9
    X_U0_M0_T3  CAPMAX_U0_M0_T3  1
    X_U0_M0_T3  CAPMIN_U0_M0_T3  1
    X_U0_M0_T3  MBAL_U0_T3  -0.9
    X_U0_M1_T3  NET_COST  18.4
    X_U0_M1_T3  CAPMAX_U0_M1_T3  1
    X_U0_M1_T3  CAPMIN_U0_M1_T3  1
    X_U0_M1_T3  MBAL_U0_T3  -0.9
    X_U0_M2_T3  NET_COST  29.4
    X_U0_M2_T3  CAPMAX_U0_M2_T3  1
    X_U0_M2_T3  CAPMIN_U0_M2_T3  1
    X_U0_M2_T3  MBAL_U0_T3  -0.9
    X_U1_M0_T3  NET_COST  24.8
    X_U1_M0_T3  CAPMAX_U1_M0_T3  1
    X_U1_M0_T3  CAPMIN_U1_M0_T3  1
    X_U1_M0_T3  MBAL_U0_T3  1
    X_U1_M0_T3  MBAL_U1_T3  -0.9
    X_U1_M1_T3  NET_COST  32.1
    X_U1_M1_T3  CAPMAX_U1_M1_T3  1
    X_U1_M1_T3  CAPMIN_U1_M1_T3  1
    X_U1_M1_T3  MBAL_U0_T3  1
    X_U1_M1_T3  MBAL_U1_T3  -0.9
    X_U1_M2_T3  NET_COST  38.6
    X_U1_M2_T3  CAPMAX_U1_M2_T3  1
    X_U1_M2_T3  CAPMIN_U1_M2_T3  1
    X_U1_M2_T3  MBAL_U0_T3  1
    X_U1_M2_T3  MBAL_U1_T3  -0.9
    X_U2_M0_T3  NET_COST  16.2
    X_U2_M0_T3  CAPMAX_U2_M0_T3  1
    X_U2_M0_T3  CAPMIN_U2_M0_T3  1
    X_U2_M0_T3  MBAL_U1_T3  1
    X_U2_M0_T3  MBAL_U2_T3  -0.9
    X_U2_M1_T3  NET_COST  18.7
    X_U2_M1_T3  CAPMAX_U2_M1_T3  1
    X_U2_M1_T3  CAPMIN_U2_M1_T3  1
    X_U2_M1_T3  MBAL_U1_T3  1
    X_U2_M1_T3  MBAL_U2_T3  -0.9
    X_U2_M2_T3  NET_COST  18.6
    X_U2_M2_T3  CAPMAX_U2_M2_T3  1
    X_U2_M2_T3  CAPMIN_U2_M2_T3  1
    X_U2_M2_T3  MBAL_U1_T3  1
    X_U2_M2_T3  MBAL_U2_T3  -0.9
    X_U3_M0_T3  NET_COST  26.2
    X_U3_M0_T3  CAPMAX_U3_M0_T3  1
    X_U3_M0_T3  CAPMIN_U3_M0_T3  1
    X_U3_M0_T3  MBAL_U2_T3  1
    X_U3_M0_T3  MBAL_U3_T3  -0.9
    X_U3_M1_T3  NET_COST  33.6
    X_U3_M1_T3  CAPMAX_U3_M1_T3  1
    X_U3_M1_T3  CAPMIN_U3_M1_T3  1
    X_U3_M1_T3  MBAL_U2_T3  1
    X_U3_M1_T3  MBAL_U3_T3  -0.9
    X_U3_M2_T3  NET_COST  35.1
    X_U3_M2_T3  CAPMAX_U3_M2_T3  1
    X_U3_M2_T3  CAPMIN_U3_M2_T3  1
    X_U3_M2_T3  MBAL_U2_T3  1
    X_U3_M2_T3  MBAL_U3_T3  -0.9
    X_U4_M0_T3  NET_COST  -61.4
    X_U4_M0_T3  CAPMAX_U4_M0_T3  1
    X_U4_M0_T3  CAPMIN_U4_M0_T3  1
    X_U4_M0_T3  MBAL_U3_T3  1
    X_U4_M0_T3  DEMAND_T3  1
    X_U4_M1_T3  NET_COST  -79.5
    X_U4_M1_T3  CAPMAX_U4_M1_T3  1
    X_U4_M1_T3  CAPMIN_U4_M1_T3  1
    X_U4_M1_T3  MBAL_U3_T3  1
    X_U4_M1_T3  DEMAND_T3  1
    X_U4_M2_T3  NET_COST  -66.6
    X_U4_M2_T3  CAPMAX_U4_M2_T3  1
    X_U4_M2_T3  CAPMIN_U4_M2_T3  1
    X_U4_M2_T3  MBAL_U3_T3  1
    X_U4_M2_T3  DEMAND_T3  1
    S_U0_T3   NET_COST  2
    S_U0_T3   MBAL_U0_T3  1
    S_U0_T3   MBAL_U0_T4  -1
    S_U1_T3   NET_COST  2
    S_U1_T3   MBAL_U1_T3  1
    S_U1_T3   MBAL_U1_T4  -1
    S_U2_T3   NET_COST  2
    S_U2_T3   MBAL_U2_T3  1
    S_U2_T3   MBAL_U2_T4  -1
    S_U3_T3   NET_COST  2
    S_U3_T3   MBAL_U3_T3  1
    S_U3_T3   MBAL_U3_T4  -1
    S_U4_T3   NET_COST  2
    MARK1200  'MARKER'                 'INTORG'
    Z_U0_M0_T4  NET_COST  228
    Z_U0_M0_T4  MODE_U0_T4  1
    Z_U0_M0_T4  CAPMAX_U0_M0_T4  -300
    Z_U0_M0_T4  CAPMIN_U0_M0_T4  -90
    MARK1210  'MARKER'                 'INTEND'
    MARK1220  'MARKER'                 'INTORG'
    Z_U0_M1_T4  NET_COST  281
    Z_U0_M1_T4  MODE_U0_T4  1
    Z_U0_M1_T4  CAPMAX_U0_M1_T4  -169
    Z_U0_M1_T4  CAPMIN_U0_M1_T4  -50.7
    MARK1230  'MARKER'                 'INTEND'
    MARK1240  'MARKER'                 'INTORG'
    Z_U0_M2_T4  NET_COST  175
    Z_U0_M2_T4  MODE_U0_T4  1
    Z_U0_M2_T4  CAPMAX_U0_M2_T4  -205
    Z_U0_M2_T4  CAPMIN_U0_M2_T4  -61.5
    MARK1250  'MARKER'                 'INTEND'
    MARK1260  'MARKER'                 'INTORG'
    Z_U1_M0_T4  NET_COST  102
    Z_U1_M0_T4  MODE_U1_T4  1
    Z_U1_M0_T4  CAPMAX_U1_M0_T4  -255
    Z_U1_M0_T4  CAPMIN_U1_M0_T4  -76.5
    MARK1270  'MARKER'                 'INTEND'
    MARK1280  'MARKER'                 'INTORG'
    Z_U1_M1_T4  NET_COST  227
    Z_U1_M1_T4  MODE_U1_T4  1
    Z_U1_M1_T4  CAPMAX_U1_M1_T4  -315
    Z_U1_M1_T4  CAPMIN_U1_M1_T4  -94.5
    MARK1290  'MARKER'                 'INTEND'
    MARK1300  'MARKER'                 'INTORG'
    Z_U1_M2_T4  NET_COST  251
    Z_U1_M2_T4  MODE_U1_T4  1
    Z_U1_M2_T4  CAPMAX_U1_M2_T4  -240
    Z_U1_M2_T4  CAPMIN_U1_M2_T4  -72
    MARK1310  'MARKER'                 'INTEND'
    MARK1320  'MARKER'                 'INTORG'
    Z_U2_M0_T4  NET_COST  113
    Z_U2_M0_T4  MODE_U2_T4  1
    Z_U2_M0_T4  CAPMAX_U2_M0_T4  -300
    Z_U2_M0_T4  CAPMIN_U2_M0_T4  -90
    MARK1330  'MARKER'                 'INTEND'
    MARK1340  'MARKER'                 'INTORG'
    Z_U2_M1_T4  NET_COST  185
    Z_U2_M1_T4  MODE_U2_T4  1
    Z_U2_M1_T4  CAPMAX_U2_M1_T4  -170
    Z_U2_M1_T4  CAPMIN_U2_M1_T4  -51
    MARK1350  'MARKER'                 'INTEND'
    MARK1360  'MARKER'                 'INTORG'
    Z_U2_M2_T4  NET_COST  119
    Z_U2_M2_T4  MODE_U2_T4  1
    Z_U2_M2_T4  CAPMAX_U2_M2_T4  -256
    Z_U2_M2_T4  CAPMIN_U2_M2_T4  -76.8
    MARK1370  'MARKER'                 'INTEND'
    MARK1380  'MARKER'                 'INTORG'
    Z_U3_M0_T4  NET_COST  255
    Z_U3_M0_T4  MODE_U3_T4  1
    Z_U3_M0_T4  CAPMAX_U3_M0_T4  -175
    Z_U3_M0_T4  CAPMIN_U3_M0_T4  -52.5
    MARK1390  'MARKER'                 'INTEND'
    MARK1400  'MARKER'                 'INTORG'
    Z_U3_M1_T4  NET_COST  165
    Z_U3_M1_T4  MODE_U3_T4  1
    Z_U3_M1_T4  CAPMAX_U3_M1_T4  -300
    Z_U3_M1_T4  CAPMIN_U3_M1_T4  -90
    MARK1410  'MARKER'                 'INTEND'
    MARK1420  'MARKER'                 'INTORG'
    Z_U3_M2_T4  NET_COST  109
    Z_U3_M2_T4  MODE_U3_T4  1
    Z_U3_M2_T4  CAPMAX_U3_M2_T4  -335
    Z_U3_M2_T4  CAPMIN_U3_M2_T4  -100.5
    MARK1430  'MARKER'                 'INTEND'
    MARK1440  'MARKER'                 'INTORG'
    Z_U4_M0_T4  NET_COST  183
    Z_U4_M0_T4  MODE_U4_T4  1
    Z_U4_M0_T4  CAPMAX_U4_M0_T4  -210
    Z_U4_M0_T4  CAPMIN_U4_M0_T4  -63
    MARK1450  'MARKER'                 'INTEND'
    MARK1460  'MARKER'                 'INTORG'
    Z_U4_M1_T4  NET_COST  240
    Z_U4_M1_T4  MODE_U4_T4  1
    Z_U4_M1_T4  CAPMAX_U4_M1_T4  -242
    Z_U4_M1_T4  CAPMIN_U4_M1_T4  -72.6
    MARK1470  'MARKER'                 'INTEND'
    MARK1480  'MARKER'                 'INTORG'
    Z_U4_M2_T4  NET_COST  198
    Z_U4_M2_T4  MODE_U4_T4  1
    Z_U4_M2_T4  CAPMAX_U4_M2_T4  -192
    Z_U4_M2_T4  CAPMIN_U4_M2_T4  -57.6
    MARK1490  'MARKER'                 'INTEND'
    X_U0_M0_T4  NET_COST  33.9
    X_U0_M0_T4  CAPMAX_U0_M0_T4  1
    X_U0_M0_T4  CAPMIN_U0_M0_T4  1
    X_U0_M0_T4  MBAL_U0_T4  -0.9
    X_U0_M1_T4  NET_COST  18.4
    X_U0_M1_T4  CAPMAX_U0_M1_T4  1
    X_U0_M1_T4  CAPMIN_U0_M1_T4  1
    X_U0_M1_T4  MBAL_U0_T4  -0.9
    X_U0_M2_T4  NET_COST  29.4
    X_U0_M2_T4  CAPMAX_U0_M2_T4  1
    X_U0_M2_T4  CAPMIN_U0_M2_T4  1
    X_U0_M2_T4  MBAL_U0_T4  -0.9
    X_U1_M0_T4  NET_COST  24.8
    X_U1_M0_T4  CAPMAX_U1_M0_T4  1
    X_U1_M0_T4  CAPMIN_U1_M0_T4  1
    X_U1_M0_T4  MBAL_U0_T4  1
    X_U1_M0_T4  MBAL_U1_T4  -0.9
    X_U1_M1_T4  NET_COST  32.1
    X_U1_M1_T4  CAPMAX_U1_M1_T4  1
    X_U1_M1_T4  CAPMIN_U1_M1_T4  1
    X_U1_M1_T4  MBAL_U0_T4  1
    X_U1_M1_T4  MBAL_U1_T4  -0.9
    X_U1_M2_T4  NET_COST  38.6
    X_U1_M2_T4  CAPMAX_U1_M2_T4  1
    X_U1_M2_T4  CAPMIN_U1_M2_T4  1
    X_U1_M2_T4  MBAL_U0_T4  1
    X_U1_M2_T4  MBAL_U1_T4  -0.9
    X_U2_M0_T4  NET_COST  16.2
    X_U2_M0_T4  CAPMAX_U2_M0_T4  1
    X_U2_M0_T4  CAPMIN_U2_M0_T4  1
    X_U2_M0_T4  MBAL_U1_T4  1
    X_U2_M0_T4  MBAL_U2_T4  -0.9
    X_U2_M1_T4  NET_COST  18.7
    X_U2_M1_T4  CAPMAX_U2_M1_T4  1
    X_U2_M1_T4  CAPMIN_U2_M1_T4  1
    X_U2_M1_T4  MBAL_U1_T4  1
    X_U2_M1_T4  MBAL_U2_T4  -0.9
    X_U2_M2_T4  NET_COST  18.6
    X_U2_M2_T4  CAPMAX_U2_M2_T4  1
    X_U2_M2_T4  CAPMIN_U2_M2_T4  1
    X_U2_M2_T4  MBAL_U1_T4  1
    X_U2_M2_T4  MBAL_U2_T4  -0.9
    X_U3_M0_T4  NET_COST  26.2
    X_U3_M0_T4  CAPMAX_U3_M0_T4  1
    X_U3_M0_T4  CAPMIN_U3_M0_T4  1
    X_U3_M0_T4  MBAL_U2_T4  1
    X_U3_M0_T4  MBAL_U3_T4  -0.9
    X_U3_M1_T4  NET_COST  33.6
    X_U3_M1_T4  CAPMAX_U3_M1_T4  1
    X_U3_M1_T4  CAPMIN_U3_M1_T4  1
    X_U3_M1_T4  MBAL_U2_T4  1
    X_U3_M1_T4  MBAL_U3_T4  -0.9
    X_U3_M2_T4  NET_COST  35.1
    X_U3_M2_T4  CAPMAX_U3_M2_T4  1
    X_U3_M2_T4  CAPMIN_U3_M2_T4  1
    X_U3_M2_T4  MBAL_U2_T4  1
    X_U3_M2_T4  MBAL_U3_T4  -0.9
    X_U4_M0_T4  NET_COST  -61.4
    X_U4_M0_T4  CAPMAX_U4_M0_T4  1
    X_U4_M0_T4  CAPMIN_U4_M0_T4  1
    X_U4_M0_T4  MBAL_U3_T4  1
    X_U4_M0_T4  DEMAND_T4  1
    X_U4_M1_T4  NET_COST  -79.5
    X_U4_M1_T4  CAPMAX_U4_M1_T4  1
    X_U4_M1_T4  CAPMIN_U4_M1_T4  1
    X_U4_M1_T4  MBAL_U3_T4  1
    X_U4_M1_T4  DEMAND_T4  1
    X_U4_M2_T4  NET_COST  -66.6
    X_U4_M2_T4  CAPMAX_U4_M2_T4  1
    X_U4_M2_T4  CAPMIN_U4_M2_T4  1
    X_U4_M2_T4  MBAL_U3_T4  1
    X_U4_M2_T4  DEMAND_T4  1
    S_U0_T4   NET_COST  2
    S_U0_T4   MBAL_U0_T4  1
    S_U0_T4   MBAL_U0_T5  -1
    S_U1_T4   NET_COST  2
    S_U1_T4   MBAL_U1_T4  1
    S_U1_T4   MBAL_U1_T5  -1
    S_U2_T4   NET_COST  2
    S_U2_T4   MBAL_U2_T4  1
    S_U2_T4   MBAL_U2_T5  -1
    S_U3_T4   NET_COST  2
    S_U3_T4   MBAL_U3_T4  1
    S_U3_T4   MBAL_U3_T5  -1
    S_U4_T4   NET_COST  2
    MARK1500  'MARKER'                 'INTORG'
    Z_U0_M0_T5  NET_COST  228
    Z_U0_M0_T5  MODE_U0_T5  1
    Z_U0_M0_T5  CAPMAX_U0_M0_T5  -300
    Z_U0_M0_T5  CAPMIN_U0_M0_T5  -90
    MARK1510  'MARKER'                 'INTEND'
    MARK1520  'MARKER'                 'INTORG'
    Z_U0_M1_T5  NET_COST  281
    Z_U0_M1_T5  MODE_U0_T5  1
    Z_U0_M1_T5  CAPMAX_U0_M1_T5  -169
    Z_U0_M1_T5  CAPMIN_U0_M1_T5  -50.7
    MARK1530  'MARKER'                 'INTEND'
    MARK1540  'MARKER'                 'INTORG'
    Z_U0_M2_T5  NET_COST  175
    Z_U0_M2_T5  MODE_U0_T5  1
    Z_U0_M2_T5  CAPMAX_U0_M2_T5  -205
    Z_U0_M2_T5  CAPMIN_U0_M2_T5  -61.5
    MARK1550  'MARKER'                 'INTEND'
    MARK1560  'MARKER'                 'INTORG'
    Z_U1_M0_T5  NET_COST  102
    Z_U1_M0_T5  MODE_U1_T5  1
    Z_U1_M0_T5  CAPMAX_U1_M0_T5  -255
    Z_U1_M0_T5  CAPMIN_U1_M0_T5  -76.5
    MARK1570  'MARKER'                 'INTEND'
    MARK1580  'MARKER'                 'INTORG'
    Z_U1_M1_T5  NET_COST  227
    Z_U1_M1_T5  MODE_U1_T5  1
    Z_U1_M1_T5  CAPMAX_U1_M1_T5  -315
    Z_U1_M1_T5  CAPMIN_U1_M1_T5  -94.5
    MARK1590  'MARKER'                 'INTEND'
    MARK1600  'MARKER'                 'INTORG'
    Z_U1_M2_T5  NET_COST  251
    Z_U1_M2_T5  MODE_U1_T5  1
    Z_U1_M2_T5  CAPMAX_U1_M2_T5  -240
    Z_U1_M2_T5  CAPMIN_U1_M2_T5  -72
    MARK1610  'MARKER'                 'INTEND'
    MARK1620  'MARKER'                 'INTORG'
    Z_U2_M0_T5  NET_COST  113
    Z_U2_M0_T5  MODE_U2_T5  1
    Z_U2_M0_T5  CAPMAX_U2_M0_T5  -300
    Z_U2_M0_T5  CAPMIN_U2_M0_T5  -90
    MARK1630  'MARKER'                 'INTEND'
    MARK1640  'MARKER'                 'INTORG'
    Z_U2_M1_T5  NET_COST  185
    Z_U2_M1_T5  MODE_U2_T5  1
    Z_U2_M1_T5  CAPMAX_U2_M1_T5  -170
    Z_U2_M1_T5  CAPMIN_U2_M1_T5  -51
    MARK1650  'MARKER'                 'INTEND'
    MARK1660  'MARKER'                 'INTORG'
    Z_U2_M2_T5  NET_COST  119
    Z_U2_M2_T5  MODE_U2_T5  1
    Z_U2_M2_T5  CAPMAX_U2_M2_T5  -256
    Z_U2_M2_T5  CAPMIN_U2_M2_T5  -76.8
    MARK1670  'MARKER'                 'INTEND'
    MARK1680  'MARKER'                 'INTORG'
    Z_U3_M0_T5  NET_COST  255
    Z_U3_M0_T5  MODE_U3_T5  1
    Z_U3_M0_T5  CAPMAX_U3_M0_T5  -175
    Z_U3_M0_T5  CAPMIN_U3_M0_T5  -52.5
    MARK1690  'MARKER'                 'INTEND'
    MARK1700  'MARKER'                 'INTORG'
    Z_U3_M1_T5  NET_COST  165
    Z_U3_M1_T5  MODE_U3_T5  1
    Z_U3_M1_T5  CAPMAX_U3_M1_T5  -300
    Z_U3_M1_T5  CAPMIN_U3_M1_T5  -90
    MARK1710  'MARKER'                 'INTEND'
    MARK1720  'MARKER'                 'INTORG'
    Z_U3_M2_T5  NET_COST  109
    Z_U3_M2_T5  MODE_U3_T5  1
    Z_U3_M2_T5  CAPMAX_U3_M2_T5  -335
    Z_U3_M2_T5  CAPMIN_U3_M2_T5  -100.5
    MARK1730  'MARKER'                 'INTEND'
    MARK1740  'MARKER'                 'INTORG'
    Z_U4_M0_T5  NET_COST  183
    Z_U4_M0_T5  MODE_U4_T5  1
    Z_U4_M0_T5  CAPMAX_U4_M0_T5  -210
    Z_U4_M0_T5  CAPMIN_U4_M0_T5  -63
    MARK1750  'MARKER'                 'INTEND'
    MARK1760  'MARKER'                 'INTORG'
    Z_U4_M1_T5  NET_COST  240
    Z_U4_M1_T5  MODE_U4_T5  1
    Z_U4_M1_T5  CAPMAX_U4_M1_T5  -242
    Z_U4_M1_T5  CAPMIN_U4_M1_T5  -72.6
    MARK1770  'MARKER'                 'INTEND'
    MARK1780  'MARKER'                 'INTORG'
    Z_U4_M2_T5  NET_COST  198
    Z_U4_M2_T5  MODE_U4_T5  1
    Z_U4_M2_T5  CAPMAX_U4_M2_T5  -192
    Z_U4_M2_T5  CAPMIN_U4_M2_T5  -57.6
    MARK1790  'MARKER'                 'INTEND'
    X_U0_M0_T5  NET_COST  33.9
    X_U0_M0_T5  CAPMAX_U0_M0_T5  1
    X_U0_M0_T5  CAPMIN_U0_M0_T5  1
    X_U0_M0_T5  MBAL_U0_T5  -0.9
    X_U0_M1_T5  NET_COST  18.4
    X_U0_M1_T5  CAPMAX_U0_M1_T5  1
    X_U0_M1_T5  CAPMIN_U0_M1_T5  1
    X_U0_M1_T5  MBAL_U0_T5  -0.9
    X_U0_M2_T5  NET_COST  29.4
    X_U0_M2_T5  CAPMAX_U0_M2_T5  1
    X_U0_M2_T5  CAPMIN_U0_M2_T5  1
    X_U0_M2_T5  MBAL_U0_T5  -0.9
    X_U1_M0_T5  NET_COST  24.8
    X_U1_M0_T5  CAPMAX_U1_M0_T5  1
    X_U1_M0_T5  CAPMIN_U1_M0_T5  1
    X_U1_M0_T5  MBAL_U0_T5  1
    X_U1_M0_T5  MBAL_U1_T5  -0.9
    X_U1_M1_T5  NET_COST  32.1
    X_U1_M1_T5  CAPMAX_U1_M1_T5  1
    X_U1_M1_T5  CAPMIN_U1_M1_T5  1
    X_U1_M1_T5  MBAL_U0_T5  1
    X_U1_M1_T5  MBAL_U1_T5  -0.9
    X_U1_M2_T5  NET_COST  38.6
    X_U1_M2_T5  CAPMAX_U1_M2_T5  1
    X_U1_M2_T5  CAPMIN_U1_M2_T5  1
    X_U1_M2_T5  MBAL_U0_T5  1
    X_U1_M2_T5  MBAL_U1_T5  -0.9
    X_U2_M0_T5  NET_COST  16.2
    X_U2_M0_T5  CAPMAX_U2_M0_T5  1
    X_U2_M0_T5  CAPMIN_U2_M0_T5  1
    X_U2_M0_T5  MBAL_U1_T5  1
    X_U2_M0_T5  MBAL_U2_T5  -0.9
    X_U2_M1_T5  NET_COST  18.7
    X_U2_M1_T5  CAPMAX_U2_M1_T5  1
    X_U2_M1_T5  CAPMIN_U2_M1_T5  1
    X_U2_M1_T5  MBAL_U1_T5  1
    X_U2_M1_T5  MBAL_U2_T5  -0.9
    X_U2_M2_T5  NET_COST  18.6
    X_U2_M2_T5  CAPMAX_U2_M2_T5  1
    X_U2_M2_T5  CAPMIN_U2_M2_T5  1
    X_U2_M2_T5  MBAL_U1_T5  1
    X_U2_M2_T5  MBAL_U2_T5  -0.9
    X_U3_M0_T5  NET_COST  26.2
    X_U3_M0_T5  CAPMAX_U3_M0_T5  1
    X_U3_M0_T5  CAPMIN_U3_M0_T5  1
    X_U3_M0_T5  MBAL_U2_T5  1
    X_U3_M0_T5  MBAL_U3_T5  -0.9
    X_U3_M1_T5  NET_COST  33.6
    X_U3_M1_T5  CAPMAX_U3_M1_T5  1
    X_U3_M1_T5  CAPMIN_U3_M1_T5  1
    X_U3_M1_T5  MBAL_U2_T5  1
    X_U3_M1_T5  MBAL_U3_T5  -0.9
    X_U3_M2_T5  NET_COST  35.1
    X_U3_M2_T5  CAPMAX_U3_M2_T5  1
    X_U3_M2_T5  CAPMIN_U3_M2_T5  1
    X_U3_M2_T5  MBAL_U2_T5  1
    X_U3_M2_T5  MBAL_U3_T5  -0.9
    X_U4_M0_T5  NET_COST  -61.4
    X_U4_M0_T5  CAPMAX_U4_M0_T5  1
    X_U4_M0_T5  CAPMIN_U4_M0_T5  1
    X_U4_M0_T5  MBAL_U3_T5  1
    X_U4_M0_T5  DEMAND_T5  1
    X_U4_M1_T5  NET_COST  -79.5
    X_U4_M1_T5  CAPMAX_U4_M1_T5  1
    X_U4_M1_T5  CAPMIN_U4_M1_T5  1
    X_U4_M1_T5  MBAL_U3_T5  1
    X_U4_M1_T5  DEMAND_T5  1
    X_U4_M2_T5  NET_COST  -66.6
    X_U4_M2_T5  CAPMAX_U4_M2_T5  1
    X_U4_M2_T5  CAPMIN_U4_M2_T5  1
    X_U4_M2_T5  MBAL_U3_T5  1
    X_U4_M2_T5  DEMAND_T5  1
    S_U0_T5   NET_COST  2
    S_U0_T5   MBAL_U0_T5  1
    S_U0_T5   MBAL_U0_T6  -1
    S_U1_T5   NET_COST  2
    S_U1_T5   MBAL_U1_T5  1
    S_U1_T5   MBAL_U1_T6  -1
    S_U2_T5   NET_COST  2
    S_U2_T5   MBAL_U2_T5  1
    S_U2_T5   MBAL_U2_T6  -1
    S_U3_T5   NET_COST  2
    S_U3_T5   MBAL_U3_T5  1
    S_U3_T5   MBAL_U3_T6  -1
    S_U4_T5   NET_COST  2
    MARK1800  'MARKER'                 'INTORG'
    Z_U0_M0_T6  NET_COST  228
    Z_U0_M0_T6  MODE_U0_T6  1
    Z_U0_M0_T6  CAPMAX_U0_M0_T6  -300
    Z_U0_M0_T6  CAPMIN_U0_M0_T6  -90
    MARK1810  'MARKER'                 'INTEND'
    MARK1820  'MARKER'                 'INTORG'
    Z_U0_M1_T6  NET_COST  281
    Z_U0_M1_T6  MODE_U0_T6  1
    Z_U0_M1_T6  CAPMAX_U0_M1_T6  -169
    Z_U0_M1_T6  CAPMIN_U0_M1_T6  -50.7
    MARK1830  'MARKER'                 'INTEND'
    MARK1840  'MARKER'                 'INTORG'
    Z_U0_M2_T6  NET_COST  175
    Z_U0_M2_T6  MODE_U0_T6  1
    Z_U0_M2_T6  CAPMAX_U0_M2_T6  -205
    Z_U0_M2_T6  CAPMIN_U0_M2_T6  -61.5
    MARK1850  'MARKER'                 'INTEND'
    MARK1860  'MARKER'                 'INTORG'
    Z_U1_M0_T6  NET_COST  102
    Z_U1_M0_T6  MODE_U1_T6  1
    Z_U1_M0_T6  CAPMAX_U1_M0_T6  -255
    Z_U1_M0_T6  CAPMIN_U1_M0_T6  -76.5
    MARK1870  'MARKER'                 'INTEND'
    MARK1880  'MARKER'                 'INTORG'
    Z_U1_M1_T6  NET_COST  227
    Z_U1_M1_T6  MODE_U1_T6  1
    Z_U1_M1_T6  CAPMAX_U1_M1_T6  -315
    Z_U1_M1_T6  CAPMIN_U1_M1_T6  -94.5
    MARK1890  'MARKER'                 'INTEND'
    MARK1900  'MARKER'                 'INTORG'
    Z_U1_M2_T6  NET_COST  251
    Z_U1_M2_T6  MODE_U1_T6  1
    Z_U1_M2_T6  CAPMAX_U1_M2_T6  -240
    Z_U1_M2_T6  CAPMIN_U1_M2_T6  -72
    MARK1910  'MARKER'                 'INTEND'
    MARK1920  'MARKER'                 'INTORG'
    Z_U2_M0_T6  NET_COST  113
    Z_U2_M0_T6  MODE_U2_T6  1
    Z_U2_M0_T6  CAPMAX_U2_M0_T6  -300
    Z_U2_M0_T6  CAPMIN_U2_M0_T6  -90
    MARK1930  'MARKER'                 'INTEND'
    MARK1940  'MARKER'                 'INTORG'
    Z_U2_M1_T6  NET_COST  185
    Z_U2_M1_T6  MODE_U2_T6  1
    Z_U2_M1_T6  CAPMAX_U2_M1_T6  -170
    Z_U2_M1_T6  CAPMIN_U2_M1_T6  -51
    MARK1950  'MARKER'                 'INTEND'
    MARK1960  'MARKER'                 'INTORG'
    Z_U2_M2_T6  NET_COST  119
    Z_U2_M2_T6  MODE_U2_T6  1
    Z_U2_M2_T6  CAPMAX_U2_M2_T6  -256
    Z_U2_M2_T6  CAPMIN_U2_M2_T6  -76.8
    MARK1970  'MARKER'                 'INTEND'
    MARK1980  'MARKER'                 'INTORG'
    Z_U3_M0_T6  NET_COST  255
    Z_U3_M0_T6  MODE_U3_T6  1
    Z_U3_M0_T6  CAPMAX_U3_M0_T6  -175
    Z_U3_M0_T6  CAPMIN_U3_M0_T6  -52.5
    MARK1990  'MARKER'                 'INTEND'
    MARK2000  'MARKER'                 'INTORG'
    Z_U3_M1_T6  NET_COST  165
    Z_U3_M1_T6  MODE_U3_T6  1
    Z_U3_M1_T6  CAPMAX_U3_M1_T6  -300
    Z_U3_M1_T6  CAPMIN_U3_M1_T6  -90
    MARK2010  'MARKER'                 'INTEND'
    MARK2020  'MARKER'                 'INTORG'
    Z_U3_M2_T6  NET_COST  109
    Z_U3_M2_T6  MODE_U3_T6  1
    Z_U3_M2_T6  CAPMAX_U3_M2_T6  -335
    Z_U3_M2_T6  CAPMIN_U3_M2_T6  -100.5
    MARK2030  'MARKER'                 'INTEND'
    MARK2040  'MARKER'                 'INTORG'
    Z_U4_M0_T6  NET_COST  183
    Z_U4_M0_T6  MODE_U4_T6  1
    Z_U4_M0_T6  CAPMAX_U4_M0_T6  -210
    Z_U4_M0_T6  CAPMIN_U4_M0_T6  -63
    MARK2050  'MARKER'                 'INTEND'
    MARK2060  'MARKER'                 'INTORG'
    Z_U4_M1_T6  NET_COST  240
    Z_U4_M1_T6  MODE_U4_T6  1
    Z_U4_M1_T6  CAPMAX_U4_M1_T6  -242
    Z_U4_M1_T6  CAPMIN_U4_M1_T6  -72.6
    MARK2070  'MARKER'                 'INTEND'
    MARK2080  'MARKER'                 'INTORG'
    Z_U4_M2_T6  NET_COST  198
    Z_U4_M2_T6  MODE_U4_T6  1
    Z_U4_M2_T6  CAPMAX_U4_M2_T6  -192
    Z_U4_M2_T6  CAPMIN_U4_M2_T6  -57.6
    MARK2090  'MARKER'                 'INTEND'
    X_U0_M0_T6  NET_COST  33.9
    X_U0_M0_T6  CAPMAX_U0_M0_T6  1
    X_U0_M0_T6  CAPMIN_U0_M0_T6  1
    X_U0_M0_T6  MBAL_U0_T6  -0.9
    X_U0_M1_T6  NET_COST  18.4
    X_U0_M1_T6  CAPMAX_U0_M1_T6  1
    X_U0_M1_T6  CAPMIN_U0_M1_T6  1
    X_U0_M1_T6  MBAL_U0_T6  -0.9
    X_U0_M2_T6  NET_COST  29.4
    X_U0_M2_T6  CAPMAX_U0_M2_T6  1
    X_U0_M2_T6  CAPMIN_U0_M2_T6  1
    X_U0_M2_T6  MBAL_U0_T6  -0.9
    X_U1_M0_T6  NET_COST  24.8
    X_U1_M0_T6  CAPMAX_U1_M0_T6  1
    X_U1_M0_T6  CAPMIN_U1_M0_T6  1
    X_U1_M0_T6  MBAL_U0_T6  1
    X_U1_M0_T6  MBAL_U1_T6  -0.9
    X_U1_M1_T6  NET_COST  32.1
    X_U1_M1_T6  CAPMAX_U1_M1_T6  1
    X_U1_M1_T6  CAPMIN_U1_M1_T6  1
    X_U1_M1_T6  MBAL_U0_T6  1
    X_U1_M1_T6  MBAL_U1_T6  -0.9
    X_U1_M2_T6  NET_COST  38.6
    X_U1_M2_T6  CAPMAX_U1_M2_T6  1
    X_U1_M2_T6  CAPMIN_U1_M2_T6  1
    X_U1_M2_T6  MBAL_U0_T6  1
    X_U1_M2_T6  MBAL_U1_T6  -0.9
    X_U2_M0_T6  NET_COST  16.2
    X_U2_M0_T6  CAPMAX_U2_M0_T6  1
    X_U2_M0_T6  CAPMIN_U2_M0_T6  1
    X_U2_M0_T6  MBAL_U1_T6  1
    X_U2_M0_T6  MBAL_U2_T6  -0.9
    X_U2_M1_T6  NET_COST  18.7
    X_U2_M1_T6  CAPMAX_U2_M1_T6  1
    X_U2_M1_T6  CAPMIN_U2_M1_T6  1
    X_U2_M1_T6  MBAL_U1_T6  1
    X_U2_M1_T6  MBAL_U2_T6  -0.9
    X_U2_M2_T6  NET_COST  18.6
    X_U2_M2_T6  CAPMAX_U2_M2_T6  1
    X_U2_M2_T6  CAPMIN_U2_M2_T6  1
    X_U2_M2_T6  MBAL_U1_T6  1
    X_U2_M2_T6  MBAL_U2_T6  -0.9
    X_U3_M0_T6  NET_COST  26.2
    X_U3_M0_T6  CAPMAX_U3_M0_T6  1
    X_U3_M0_T6  CAPMIN_U3_M0_T6  1
    X_U3_M0_T6  MBAL_U2_T6  1
    X_U3_M0_T6  MBAL_U3_T6  -0.9
    X_U3_M1_T6  NET_COST  33.6
    X_U3_M1_T6  CAPMAX_U3_M1_T6  1
    X_U3_M1_T6  CAPMIN_U3_M1_T6  1
    X_U3_M1_T6  MBAL_U2_T6  1
    X_U3_M1_T6  MBAL_U3_T6  -0.9
    X_U3_M2_T6  NET_COST  35.1
    X_U3_M2_T6  CAPMAX_U3_M2_T6  1
    X_U3_M2_T6  CAPMIN_U3_M2_T6  1
    X_U3_M2_T6  MBAL_U2_T6  1
    X_U3_M2_T6  MBAL_U3_T6  -0.9
    X_U4_M0_T6  NET_COST  -61.4
    X_U4_M0_T6  CAPMAX_U4_M0_T6  1
    X_U4_M0_T6  CAPMIN_U4_M0_T6  1
    X_U4_M0_T6  MBAL_U3_T6  1
    X_U4_M0_T6  DEMAND_T6  1
    X_U4_M1_T6  NET_COST  -79.5
    X_U4_M1_T6  CAPMAX_U4_M1_T6  1
    X_U4_M1_T6  CAPMIN_U4_M1_T6  1
    X_U4_M1_T6  MBAL_U3_T6  1
    X_U4_M1_T6  DEMAND_T6  1
    X_U4_M2_T6  NET_COST  -66.6
    X_U4_M2_T6  CAPMAX_U4_M2_T6  1
    X_U4_M2_T6  CAPMIN_U4_M2_T6  1
    X_U4_M2_T6  MBAL_U3_T6  1
    X_U4_M2_T6  DEMAND_T6  1
    S_U0_T6   NET_COST  2
    S_U0_T6   MBAL_U0_T6  1
    S_U0_T6   MBAL_U0_T7  -1
    S_U1_T6   NET_COST  2
    S_U1_T6   MBAL_U1_T6  1
    S_U1_T6   MBAL_U1_T7  -1
    S_U2_T6   NET_COST  2
    S_U2_T6   MBAL_U2_T6  1
    S_U2_T6   MBAL_U2_T7  -1
    S_U3_T6   NET_COST  2
    S_U3_T6   MBAL_U3_T6  1
    S_U3_T6   MBAL_U3_T7  -1
    S_U4_T6   NET_COST  2
    MARK2100  'MARKER'                 'INTORG'
    Z_U0_M0_T7  NET_COST  228
    Z_U0_M0_T7  MODE_U0_T7  1
    Z_U0_M0_T7  CAPMAX_U0_M0_T7  -300
    Z_U0_M0_T7  CAPMIN_U0_M0_T7  -90
    MARK2110  'MARKER'                 'INTEND'
    MARK2120  'MARKER'                 'INTORG'
    Z_U0_M1_T7  NET_COST  281
    Z_U0_M1_T7  MODE_U0_T7  1
    Z_U0_M1_T7  CAPMAX_U0_M1_T7  -169
    Z_U0_M1_T7  CAPMIN_U0_M1_T7  -50.7
    MARK2130  'MARKER'                 'INTEND'
    MARK2140  'MARKER'                 'INTORG'
    Z_U0_M2_T7  NET_COST  175
    Z_U0_M2_T7  MODE_U0_T7  1
    Z_U0_M2_T7  CAPMAX_U0_M2_T7  -205
    Z_U0_M2_T7  CAPMIN_U0_M2_T7  -61.5
    MARK2150  'MARKER'                 'INTEND'
    MARK2160  'MARKER'                 'INTORG'
    Z_U1_M0_T7  NET_COST  102
    Z_U1_M0_T7  MODE_U1_T7  1
    Z_U1_M0_T7  CAPMAX_U1_M0_T7  -255
    Z_U1_M0_T7  CAPMIN_U1_M0_T7  -76.5
    MARK2170  'MARKER'                 'INTEND'
    MARK2180  'MARKER'                 'INTORG'
    Z_U1_M1_T7  NET_COST  227
    Z_U1_M1_T7  MODE_U1_T7  1
    Z_U1_M1_T7  CAPMAX_U1_M1_T7  -315
    Z_U1_M1_T7  CAPMIN_U1_M1_T7  -94.5
    MARK2190  'MARKER'                 'INTEND'
    MARK2200  'MARKER'                 'INTORG'
    Z_U1_M2_T7  NET_COST  251
    Z_U1_M2_T7  MODE_U1_T7  1
    Z_U1_M2_T7  CAPMAX_U1_M2_T7  -240
    Z_U1_M2_T7  CAPMIN_U1_M2_T7  -72
    MARK2210  'MARKER'                 'INTEND'
    MARK2220  'MARKER'                 'INTORG'
    Z_U2_M0_T7  NET_COST  113
    Z_U2_M0_T7  MODE_U2_T7  1
    Z_U2_M0_T7  CAPMAX_U2_M0_T7  -300
    Z_U2_M0_T7  CAPMIN_U2_M0_T7  -90
    MARK2230  'MARKER'                 'INTEND'
    MARK2240  'MARKER'                 'INTORG'
    Z_U2_M1_T7  NET_COST  185
    Z_U2_M1_T7  MODE_U2_T7  1
    Z_U2_M1_T7  CAPMAX_U2_M1_T7  -170
    Z_U2_M1_T7  CAPMIN_U2_M1_T7  -51
    MARK2250  'MARKER'                 'INTEND'
    MARK2260  'MARKER'                 'INTORG'
    Z_U2_M2_T7  NET_COST  119
    Z_U2_M2_T7  MODE_U2_T7  1
    Z_U2_M2_T7  CAPMAX_U2_M2_T7  -256
    Z_U2_M2_T7  CAPMIN_U2_M2_T7  -76.8
    MARK2270  'MARKER'                 'INTEND'
    MARK2280  'MARKER'                 'INTORG'
    Z_U3_M0_T7  NET_COST  255
    Z_U3_M0_T7  MODE_U3_T7  1
    Z_U3_M0_T7  CAPMAX_U3_M0_T7  -175
    Z_U3_M0_T7  CAPMIN_U3_M0_T7  -52.5
    MARK2290  'MARKER'                 'INTEND'
    MARK2300  'MARKER'                 'INTORG'
    Z_U3_M1_T7  NET_COST  165
    Z_U3_M1_T7  MODE_U3_T7  1
    Z_U3_M1_T7  CAPMAX_U3_M1_T7  -300
    Z_U3_M1_T7  CAPMIN_U3_M1_T7  -90
    MARK2310  'MARKER'                 'INTEND'
    MARK2320  'MARKER'                 'INTORG'
    Z_U3_M2_T7  NET_COST  109
    Z_U3_M2_T7  MODE_U3_T7  1
    Z_U3_M2_T7  CAPMAX_U3_M2_T7  -335
    Z_U3_M2_T7  CAPMIN_U3_M2_T7  -100.5
    MARK2330  'MARKER'                 'INTEND'
    MARK2340  'MARKER'                 'INTORG'
    Z_U4_M0_T7  NET_COST  183
    Z_U4_M0_T7  MODE_U4_T7  1
    Z_U4_M0_T7  CAPMAX_U4_M0_T7  -210
    Z_U4_M0_T7  CAPMIN_U4_M0_T7  -63
    MARK2350  'MARKER'                 'INTEND'
    MARK2360  'MARKER'                 'INTORG'
    Z_U4_M1_T7  NET_COST  240
    Z_U4_M1_T7  MODE_U4_T7  1
    Z_U4_M1_T7  CAPMAX_U4_M1_T7  -242
    Z_U4_M1_T7  CAPMIN_U4_M1_T7  -72.6
    MARK2370  'MARKER'                 'INTEND'
    MARK2380  'MARKER'                 'INTORG'
    Z_U4_M2_T7  NET_COST  198
    Z_U4_M2_T7  MODE_U4_T7  1
    Z_U4_M2_T7  CAPMAX_U4_M2_T7  -192
    Z_U4_M2_T7  CAPMIN_U4_M2_T7  -57.6
    MARK2390  'MARKER'                 'INTEND'
    X_U0_M0_T7  NET_COST  33.9
    X_U0_M0_T7  CAPMAX_U0_M0_T7  1
    X_U0_M0_T7  CAPMIN_U0_M0_T7  1
    X_U0_M0_T7  MBAL_U0_T7  -0.9
    X_U0_M1_T7  NET_COST  18.4
    X_U0_M1_T7  CAPMAX_U0_M1_T7  1
    X_U0_M1_T7  CAPMIN_U0_M1_T7  1
    X_U0_M1_T7  MBAL_U0_T7  -0.9
    X_U0_M2_T7  NET_COST  29.4
    X_U0_M2_T7  CAPMAX_U0_M2_T7  1
    X_U0_M2_T7  CAPMIN_U0_M2_T7  1
    X_U0_M2_T7  MBAL_U0_T7  -0.9
    X_U1_M0_T7  NET_COST  24.8
    X_U1_M0_T7  CAPMAX_U1_M0_T7  1
    X_U1_M0_T7  CAPMIN_U1_M0_T7  1
    X_U1_M0_T7  MBAL_U0_T7  1
    X_U1_M0_T7  MBAL_U1_T7  -0.9
    X_U1_M1_T7  NET_COST  32.1
    X_U1_M1_T7  CAPMAX_U1_M1_T7  1
    X_U1_M1_T7  CAPMIN_U1_M1_T7  1
    X_U1_M1_T7  MBAL_U0_T7  1
    X_U1_M1_T7  MBAL_U1_T7  -0.9
    X_U1_M2_T7  NET_COST  38.6
    X_U1_M2_T7  CAPMAX_U1_M2_T7  1
    X_U1_M2_T7  CAPMIN_U1_M2_T7  1
    X_U1_M2_T7  MBAL_U0_T7  1
    X_U1_M2_T7  MBAL_U1_T7  -0.9
    X_U2_M0_T7  NET_COST  16.2
    X_U2_M0_T7  CAPMAX_U2_M0_T7  1
    X_U2_M0_T7  CAPMIN_U2_M0_T7  1
    X_U2_M0_T7  MBAL_U1_T7  1
    X_U2_M0_T7  MBAL_U2_T7  -0.9
    X_U2_M1_T7  NET_COST  18.7
    X_U2_M1_T7  CAPMAX_U2_M1_T7  1
    X_U2_M1_T7  CAPMIN_U2_M1_T7  1
    X_U2_M1_T7  MBAL_U1_T7  1
    X_U2_M1_T7  MBAL_U2_T7  -0.9
    X_U2_M2_T7  NET_COST  18.6
    X_U2_M2_T7  CAPMAX_U2_M2_T7  1
    X_U2_M2_T7  CAPMIN_U2_M2_T7  1
    X_U2_M2_T7  MBAL_U1_T7  1
    X_U2_M2_T7  MBAL_U2_T7  -0.9
    X_U3_M0_T7  NET_COST  26.2
    X_U3_M0_T7  CAPMAX_U3_M0_T7  1
    X_U3_M0_T7  CAPMIN_U3_M0_T7  1
    X_U3_M0_T7  MBAL_U2_T7  1
    X_U3_M0_T7  MBAL_U3_T7  -0.9
    X_U3_M1_T7  NET_COST  33.6
    X_U3_M1_T7  CAPMAX_U3_M1_T7  1
    X_U3_M1_T7  CAPMIN_U3_M1_T7  1
    X_U3_M1_T7  MBAL_U2_T7  1
    X_U3_M1_T7  MBAL_U3_T7  -0.9
    X_U3_M2_T7  NET_COST  35.1
    X_U3_M2_T7  CAPMAX_U3_M2_T7  1
    X_U3_M2_T7  CAPMIN_U3_M2_T7  1
    X_U3_M2_T7  MBAL_U2_T7  1
    X_U3_M2_T7  MBAL_U3_T7  -0.9
    X_U4_M0_T7  NET_COST  -61.4
    X_U4_M0_T7  CAPMAX_U4_M0_T7  1
    X_U4_M0_T7  CAPMIN_U4_M0_T7  1
    X_U4_M0_T7  MBAL_U3_T7  1
    X_U4_M0_T7  DEMAND_T7  1
    X_U4_M1_T7  NET_COST  -79.5
    X_U4_M1_T7  CAPMAX_U4_M1_T7  1
    X_U4_M1_T7  CAPMIN_U4_M1_T7  1
    X_U4_M1_T7  MBAL_U3_T7  1
    X_U4_M1_T7  DEMAND_T7  1
    X_U4_M2_T7  NET_COST  -66.6
    X_U4_M2_T7  CAPMAX_U4_M2_T7  1
    X_U4_M2_T7  CAPMIN_U4_M2_T7  1
    X_U4_M2_T7  MBAL_U3_T7  1
    X_U4_M2_T7  DEMAND_T7  1
    S_U0_T7   NET_COST  2
    S_U0_T7   MBAL_U0_T7  1
    S_U0_T7   MBAL_U0_T8  -1
    S_U1_T7   NET_COST  2
    S_U1_T7   MBAL_U1_T7  1
    S_U1_T7   MBAL_U1_T8  -1
    S_U2_T7   NET_COST  2
    S_U2_T7   MBAL_U2_T7  1
    S_U2_T7   MBAL_U2_T8  -1
    S_U3_T7   NET_COST  2
    S_U3_T7   MBAL_U3_T7  1
    S_U3_T7   MBAL_U3_T8  -1
    S_U4_T7   NET_COST  2
    MARK2400  'MARKER'                 'INTORG'
    Z_U0_M0_T8  NET_COST  228
    Z_U0_M0_T8  MODE_U0_T8  1
    Z_U0_M0_T8  CAPMAX_U0_M0_T8  -300
    Z_U0_M0_T8  CAPMIN_U0_M0_T8  -90
    MARK2410  'MARKER'                 'INTEND'
    MARK2420  'MARKER'                 'INTORG'
    Z_U0_M1_T8  NET_COST  281
    Z_U0_M1_T8  MODE_U0_T8  1
    Z_U0_M1_T8  CAPMAX_U0_M1_T8  -169
    Z_U0_M1_T8  CAPMIN_U0_M1_T8  -50.7
    MARK2430  'MARKER'                 'INTEND'
    MARK2440  'MARKER'                 'INTORG'
    Z_U0_M2_T8  NET_COST  175
    Z_U0_M2_T8  MODE_U0_T8  1
    Z_U0_M2_T8  CAPMAX_U0_M2_T8  -205
    Z_U0_M2_T8  CAPMIN_U0_M2_T8  -61.5
    MARK2450  'MARKER'                 'INTEND'
    MARK2460  'MARKER'                 'INTORG'
    Z_U1_M0_T8  NET_COST  102
    Z_U1_M0_T8  MODE_U1_T8  1
    Z_U1_M0_T8  CAPMAX_U1_M0_T8  -255
    Z_U1_M0_T8  CAPMIN_U1_M0_T8  -76.5
    MARK2470  'MARKER'                 'INTEND'
    MARK2480  'MARKER'                 'INTORG'
    Z_U1_M1_T8  NET_COST  227
    Z_U1_M1_T8  MODE_U1_T8  1
    Z_U1_M1_T8  CAPMAX_U1_M1_T8  -315
    Z_U1_M1_T8  CAPMIN_U1_M1_T8  -94.5
    MARK2490  'MARKER'                 'INTEND'
    MARK2500  'MARKER'                 'INTORG'
    Z_U1_M2_T8  NET_COST  251
    Z_U1_M2_T8  MODE_U1_T8  1
    Z_U1_M2_T8  CAPMAX_U1_M2_T8  -240
    Z_U1_M2_T8  CAPMIN_U1_M2_T8  -72
    MARK2510  'MARKER'                 'INTEND'
    MARK2520  'MARKER'                 'INTORG'
    Z_U2_M0_T8  NET_COST  113
    Z_U2_M0_T8  MODE_U2_T8  1
    Z_U2_M0_T8  CAPMAX_U2_M0_T8  -300
    Z_U2_M0_T8  CAPMIN_U2_M0_T8  -90
    MARK2530  'MARKER'                 'INTEND'
    MARK2540  'MARKER'                 'INTORG'
    Z_U2_M1_T8  NET_COST  185
    Z_U2_M1_T8  MODE_U2_T8  1
    Z_U2_M1_T8  CAPMAX_U2_M1_T8  -170
    Z_U2_M1_T8  CAPMIN_U2_M1_T8  -51
    MARK2550  'MARKER'                 'INTEND'
    MARK2560  'MARKER'                 'INTORG'
    Z_U2_M2_T8  NET_COST  119
    Z_U2_M2_T8  MODE_U2_T8  1
    Z_U2_M2_T8  CAPMAX_U2_M2_T8  -256
    Z_U2_M2_T8  CAPMIN_U2_M2_T8  -76.8
    MARK2570  'MARKER'                 'INTEND'
    MARK2580  'MARKER'                 'INTORG'
    Z_U3_M0_T8  NET_COST  255
    Z_U3_M0_T8  MODE_U3_T8  1
    Z_U3_M0_T8  CAPMAX_U3_M0_T8  -175
    Z_U3_M0_T8  CAPMIN_U3_M0_T8  -52.5
    MARK2590  'MARKER'                 'INTEND'
    MARK2600  'MARKER'                 'INTORG'
    Z_U3_M1_T8  NET_COST  165
    Z_U3_M1_T8  MODE_U3_T8  1
    Z_U3_M1_T8  CAPMAX_U3_M1_T8  -300
    Z_U3_M1_T8  CAPMIN_U3_M1_T8  -90
    MARK2610  'MARKER'                 'INTEND'
    MARK2620  'MARKER'                 'INTORG'
    Z_U3_M2_T8  NET_COST  109
    Z_U3_M2_T8  MODE_U3_T8  1
    Z_U3_M2_T8  CAPMAX_U3_M2_T8  -335
    Z_U3_M2_T8  CAPMIN_U3_M2_T8  -100.5
    MARK2630  'MARKER'                 'INTEND'
    MARK2640  'MARKER'                 'INTORG'
    Z_U4_M0_T8  NET_COST  183
    Z_U4_M0_T8  MODE_U4_T8  1
    Z_U4_M0_T8  CAPMAX_U4_M0_T8  -210
    Z_U4_M0_T8  CAPMIN_U4_M0_T8  -63
    MARK2650  'MARKER'                 'INTEND'
    MARK2660  'MARKER'                 'INTORG'
    Z_U4_M1_T8  NET_COST  240
    Z_U4_M1_T8  MODE_U4_T8  1
    Z_U4_M1_T8  CAPMAX_U4_M1_T8  -242
    Z_U4_M1_T8  CAPMIN_U4_M1_T8  -72.6
    MARK2670  'MARKER'                 'INTEND'
    MARK2680  'MARKER'                 'INTORG'
    Z_U4_M2_T8  NET_COST  198
    Z_U4_M2_T8  MODE_U4_T8  1
    Z_U4_M2_T8  CAPMAX_U4_M2_T8  -192
    Z_U4_M2_T8  CAPMIN_U4_M2_T8  -57.6
    MARK2690  'MARKER'                 'INTEND'
    X_U0_M0_T8  NET_COST  33.9
    X_U0_M0_T8  CAPMAX_U0_M0_T8  1
    X_U0_M0_T8  CAPMIN_U0_M0_T8  1
    X_U0_M0_T8  MBAL_U0_T8  -0.9
    X_U0_M1_T8  NET_COST  18.4
    X_U0_M1_T8  CAPMAX_U0_M1_T8  1
    X_U0_M1_T8  CAPMIN_U0_M1_T8  1
    X_U0_M1_T8  MBAL_U0_T8  -0.9
    X_U0_M2_T8  NET_COST  29.4
    X_U0_M2_T8  CAPMAX_U0_M2_T8  1
    X_U0_M2_T8  CAPMIN_U0_M2_T8  1
    X_U0_M2_T8  MBAL_U0_T8  -0.9
    X_U1_M0_T8  NET_COST  24.8
    X_U1_M0_T8  CAPMAX_U1_M0_T8  1
    X_U1_M0_T8  CAPMIN_U1_M0_T8  1
    X_U1_M0_T8  MBAL_U0_T8  1
    X_U1_M0_T8  MBAL_U1_T8  -0.9
    X_U1_M1_T8  NET_COST  32.1
    X_U1_M1_T8  CAPMAX_U1_M1_T8  1
    X_U1_M1_T8  CAPMIN_U1_M1_T8  1
    X_U1_M1_T8  MBAL_U0_T8  1
    X_U1_M1_T8  MBAL_U1_T8  -0.9
    X_U1_M2_T8  NET_COST  38.6
    X_U1_M2_T8  CAPMAX_U1_M2_T8  1
    X_U1_M2_T8  CAPMIN_U1_M2_T8  1
    X_U1_M2_T8  MBAL_U0_T8  1
    X_U1_M2_T8  MBAL_U1_T8  -0.9
    X_U2_M0_T8  NET_COST  16.2
    X_U2_M0_T8  CAPMAX_U2_M0_T8  1
    X_U2_M0_T8  CAPMIN_U2_M0_T8  1
    X_U2_M0_T8  MBAL_U1_T8  1
    X_U2_M0_T8  MBAL_U2_T8  -0.9
    X_U2_M1_T8  NET_COST  18.7
    X_U2_M1_T8  CAPMAX_U2_M1_T8  1
    X_U2_M1_T8  CAPMIN_U2_M1_T8  1
    X_U2_M1_T8  MBAL_U1_T8  1
    X_U2_M1_T8  MBAL_U2_T8  -0.9
    X_U2_M2_T8  NET_COST  18.6
    X_U2_M2_T8  CAPMAX_U2_M2_T8  1
    X_U2_M2_T8  CAPMIN_U2_M2_T8  1
    X_U2_M2_T8  MBAL_U1_T8  1
    X_U2_M2_T8  MBAL_U2_T8  -0.9
    X_U3_M0_T8  NET_COST  26.2
    X_U3_M0_T8  CAPMAX_U3_M0_T8  1
    X_U3_M0_T8  CAPMIN_U3_M0_T8  1
    X_U3_M0_T8  MBAL_U2_T8  1
    X_U3_M0_T8  MBAL_U3_T8  -0.9
    X_U3_M1_T8  NET_COST  33.6
    X_U3_M1_T8  CAPMAX_U3_M1_T8  1
    X_U3_M1_T8  CAPMIN_U3_M1_T8  1
    X_U3_M1_T8  MBAL_U2_T8  1
    X_U3_M1_T8  MBAL_U3_T8  -0.9
    X_U3_M2_T8  NET_COST  35.1
    X_U3_M2_T8  CAPMAX_U3_M2_T8  1
    X_U3_M2_T8  CAPMIN_U3_M2_T8  1
    X_U3_M2_T8  MBAL_U2_T8  1
    X_U3_M2_T8  MBAL_U3_T8  -0.9
    X_U4_M0_T8  NET_COST  -61.4
    X_U4_M0_T8  CAPMAX_U4_M0_T8  1
    X_U4_M0_T8  CAPMIN_U4_M0_T8  1
    X_U4_M0_T8  MBAL_U3_T8  1
    X_U4_M0_T8  DEMAND_T8  1
    X_U4_M1_T8  NET_COST  -79.5
    X_U4_M1_T8  CAPMAX_U4_M1_T8  1
    X_U4_M1_T8  CAPMIN_U4_M1_T8  1
    X_U4_M1_T8  MBAL_U3_T8  1
    X_U4_M1_T8  DEMAND_T8  1
    X_U4_M2_T8  NET_COST  -66.6
    X_U4_M2_T8  CAPMAX_U4_M2_T8  1
    X_U4_M2_T8  CAPMIN_U4_M2_T8  1
    X_U4_M2_T8  MBAL_U3_T8  1
    X_U4_M2_T8  DEMAND_T8  1
    S_U0_T8   NET_COST  2
    S_U0_T8   MBAL_U0_T8  1
    S_U0_T8   MBAL_U0_T9  -1
    S_U1_T8   NET_COST  2
    S_U1_T8   MBAL_U1_T8  1
    S_U1_T8   MBAL_U1_T9  -1
    S_U2_T8   NET_COST  2
    S_U2_T8   MBAL_U2_T8  1
    S_U2_T8   MBAL_U2_T9  -1
    S_U3_T8   NET_COST  2
    S_U3_T8   MBAL_U3_T8  1
    S_U3_T8   MBAL_U3_T9  -1
    S_U4_T8   NET_COST  2
    MARK2700  'MARKER'                 'INTORG'
    Z_U0_M0_T9  NET_COST  228
    Z_U0_M0_T9  MODE_U0_T9  1
    Z_U0_M0_T9  CAPMAX_U0_M0_T9  -300
    Z_U0_M0_T9  CAPMIN_U0_M0_T9  -90
    MARK2710  'MARKER'                 'INTEND'
    MARK2720  'MARKER'                 'INTORG'
    Z_U0_M1_T9  NET_COST  281
    Z_U0_M1_T9  MODE_U0_T9  1
    Z_U0_M1_T9  CAPMAX_U0_M1_T9  -169
    Z_U0_M1_T9  CAPMIN_U0_M1_T9  -50.7
    MARK2730  'MARKER'                 'INTEND'
    MARK2740  'MARKER'                 'INTORG'
    Z_U0_M2_T9  NET_COST  175
    Z_U0_M2_T9  MODE_U0_T9  1
    Z_U0_M2_T9  CAPMAX_U0_M2_T9  -205
    Z_U0_M2_T9  CAPMIN_U0_M2_T9  -61.5
    MARK2750  'MARKER'                 'INTEND'
    MARK2760  'MARKER'                 'INTORG'
    Z_U1_M0_T9  NET_COST  102
    Z_U1_M0_T9  MODE_U1_T9  1
    Z_U1_M0_T9  CAPMAX_U1_M0_T9  -255
    Z_U1_M0_T9  CAPMIN_U1_M0_T9  -76.5
    MARK2770  'MARKER'                 'INTEND'
    MARK2780  'MARKER'                 'INTORG'
    Z_U1_M1_T9  NET_COST  227
    Z_U1_M1_T9  MODE_U1_T9  1
    Z_U1_M1_T9  CAPMAX_U1_M1_T9  -315
    Z_U1_M1_T9  CAPMIN_U1_M1_T9  -94.5
    MARK2790  'MARKER'                 'INTEND'
    MARK2800  'MARKER'                 'INTORG'
    Z_U1_M2_T9  NET_COST  251
    Z_U1_M2_T9  MODE_U1_T9  1
    Z_U1_M2_T9  CAPMAX_U1_M2_T9  -240
    Z_U1_M2_T9  CAPMIN_U1_M2_T9  -72
    MARK2810  'MARKER'                 'INTEND'
    MARK2820  'MARKER'                 'INTORG'
    Z_U2_M0_T9  NET_COST  113
    Z_U2_M0_T9  MODE_U2_T9  1
    Z_U2_M0_T9  CAPMAX_U2_M0_T9  -300
    Z_U2_M0_T9  CAPMIN_U2_M0_T9  -90
    MARK2830  'MARKER'                 'INTEND'
    MARK2840  'MARKER'                 'INTORG'
    Z_U2_M1_T9  NET_COST  185
    Z_U2_M1_T9  MODE_U2_T9  1
    Z_U2_M1_T9  CAPMAX_U2_M1_T9  -170
    Z_U2_M1_T9  CAPMIN_U2_M1_T9  -51
    MARK2850  'MARKER'                 'INTEND'
    MARK2860  'MARKER'                 'INTORG'
    Z_U2_M2_T9  NET_COST  119
    Z_U2_M2_T9  MODE_U2_T9  1
    Z_U2_M2_T9  CAPMAX_U2_M2_T9  -256
    Z_U2_M2_T9  CAPMIN_U2_M2_T9  -76.8
    MARK2870  'MARKER'                 'INTEND'
    MARK2880  'MARKER'                 'INTORG'
    Z_U3_M0_T9  NET_COST  255
    Z_U3_M0_T9  MODE_U3_T9  1
    Z_U3_M0_T9  CAPMAX_U3_M0_T9  -175
    Z_U3_M0_T9  CAPMIN_U3_M0_T9  -52.5
    MARK2890  'MARKER'                 'INTEND'
    MARK2900  'MARKER'                 'INTORG'
    Z_U3_M1_T9  NET_COST  165
    Z_U3_M1_T9  MODE_U3_T9  1
    Z_U3_M1_T9  CAPMAX_U3_M1_T9  -300
    Z_U3_M1_T9  CAPMIN_U3_M1_T9  -90
    MARK2910  'MARKER'                 'INTEND'
    MARK2920  'MARKER'                 'INTORG'
    Z_U3_M2_T9  NET_COST  109
    Z_U3_M2_T9  MODE_U3_T9  1
    Z_U3_M2_T9  CAPMAX_U3_M2_T9  -335
    Z_U3_M2_T9  CAPMIN_U3_M2_T9  -100.5
    MARK2930  'MARKER'                 'INTEND'
    MARK2940  'MARKER'                 'INTORG'
    Z_U4_M0_T9  NET_COST  183
    Z_U4_M0_T9  MODE_U4_T9  1
    Z_U4_M0_T9  CAPMAX_U4_M0_T9  -210
    Z_U4_M0_T9  CAPMIN_U4_M0_T9  -63
    MARK2950  'MARKER'                 'INTEND'
    MARK2960  'MARKER'                 'INTORG'
    Z_U4_M1_T9  NET_COST  240
    Z_U4_M1_T9  MODE_U4_T9  1
    Z_U4_M1_T9  CAPMAX_U4_M1_T9  -242
    Z_U4_M1_T9  CAPMIN_U4_M1_T9  -72.6
    MARK2970  'MARKER'                 'INTEND'
    MARK2980  'MARKER'                 'INTORG'
    Z_U4_M2_T9  NET_COST  198
    Z_U4_M2_T9  MODE_U4_T9  1
    Z_U4_M2_T9  CAPMAX_U4_M2_T9  -192
    Z_U4_M2_T9  CAPMIN_U4_M2_T9  -57.6
    MARK2990  'MARKER'                 'INTEND'
    X_U0_M0_T9  NET_COST  33.9
    X_U0_M0_T9  CAPMAX_U0_M0_T9  1
    X_U0_M0_T9  CAPMIN_U0_M0_T9  1
    X_U0_M0_T9  MBAL_U0_T9  -0.9
    X_U0_M1_T9  NET_COST  18.4
    X_U0_M1_T9  CAPMAX_U0_M1_T9  1
    X_U0_M1_T9  CAPMIN_U0_M1_T9  1
    X_U0_M1_T9  MBAL_U0_T9  -0.9
    X_U0_M2_T9  NET_COST  29.4
    X_U0_M2_T9  CAPMAX_U0_M2_T9  1
    X_U0_M2_T9  CAPMIN_U0_M2_T9  1
    X_U0_M2_T9  MBAL_U0_T9  -0.9
    X_U1_M0_T9  NET_COST  24.8
    X_U1_M0_T9  CAPMAX_U1_M0_T9  1
    X_U1_M0_T9  CAPMIN_U1_M0_T9  1
    X_U1_M0_T9  MBAL_U0_T9  1
    X_U1_M0_T9  MBAL_U1_T9  -0.9
    X_U1_M1_T9  NET_COST  32.1
    X_U1_M1_T9  CAPMAX_U1_M1_T9  1
    X_U1_M1_T9  CAPMIN_U1_M1_T9  1
    X_U1_M1_T9  MBAL_U0_T9  1
    X_U1_M1_T9  MBAL_U1_T9  -0.9
    X_U1_M2_T9  NET_COST  38.6
    X_U1_M2_T9  CAPMAX_U1_M2_T9  1
    X_U1_M2_T9  CAPMIN_U1_M2_T9  1
    X_U1_M2_T9  MBAL_U0_T9  1
    X_U1_M2_T9  MBAL_U1_T9  -0.9
    X_U2_M0_T9  NET_COST  16.2
    X_U2_M0_T9  CAPMAX_U2_M0_T9  1
    X_U2_M0_T9  CAPMIN_U2_M0_T9  1
    X_U2_M0_T9  MBAL_U1_T9  1
    X_U2_M0_T9  MBAL_U2_T9  -0.9
    X_U2_M1_T9  NET_COST  18.7
    X_U2_M1_T9  CAPMAX_U2_M1_T9  1
    X_U2_M1_T9  CAPMIN_U2_M1_T9  1
    X_U2_M1_T9  MBAL_U1_T9  1
    X_U2_M1_T9  MBAL_U2_T9  -0.9
    X_U2_M2_T9  NET_COST  18.6
    X_U2_M2_T9  CAPMAX_U2_M2_T9  1
    X_U2_M2_T9  CAPMIN_U2_M2_T9  1
    X_U2_M2_T9  MBAL_U1_T9  1
    X_U2_M2_T9  MBAL_U2_T9  -0.9
    X_U3_M0_T9  NET_COST  26.2
    X_U3_M0_T9  CAPMAX_U3_M0_T9  1
    X_U3_M0_T9  CAPMIN_U3_M0_T9  1
    X_U3_M0_T9  MBAL_U2_T9  1
    X_U3_M0_T9  MBAL_U3_T9  -0.9
    X_U3_M1_T9  NET_COST  33.6
    X_U3_M1_T9  CAPMAX_U3_M1_T9  1
    X_U3_M1_T9  CAPMIN_U3_M1_T9  1
    X_U3_M1_T9  MBAL_U2_T9  1
    X_U3_M1_T9  MBAL_U3_T9  -0.9
    X_U3_M2_T9  NET_COST  35.1
    X_U3_M2_T9  CAPMAX_U3_M2_T9  1
    X_U3_M2_T9  CAPMIN_U3_M2_T9  1
    X_U3_M2_T9  MBAL_U2_T9  1
    X_U3_M2_T9  MBAL_U3_T9  -0.9
    X_U4_M0_T9  NET_COST  -61.4
    X_U4_M0_T9  CAPMAX_U4_M0_T9  1
    X_U4_M0_T9  CAPMIN_U4_M0_T9  1
    X_U4_M0_T9  MBAL_U3_T9  1
    X_U4_M0_T9  DEMAND_T9  1
    X_U4_M1_T9  NET_COST  -79.5
    X_U4_M1_T9  CAPMAX_U4_M1_T9  1
    X_U4_M1_T9  CAPMIN_U4_M1_T9  1
    X_U4_M1_T9  MBAL_U3_T9  1
    X_U4_M1_T9  DEMAND_T9  1
    X_U4_M2_T9  NET_COST  -66.6
    X_U4_M2_T9  CAPMAX_U4_M2_T9  1
    X_U4_M2_T9  CAPMIN_U4_M2_T9  1
    X_U4_M2_T9  MBAL_U3_T9  1
    X_U4_M2_T9  DEMAND_T9  1
    S_U0_T9   NET_COST  2
    S_U0_T9   MBAL_U0_T9  1
    S_U0_T9   MBAL_U0_T10  -1
    S_U1_T9   NET_COST  2
    S_U1_T9   MBAL_U1_T9  1
    S_U1_T9   MBAL_U1_T10  -1
    S_U2_T9   NET_COST  2
    S_U2_T9   MBAL_U2_T9  1
    S_U2_T9   MBAL_U2_T10  -1
    S_U3_T9   NET_COST  2
    S_U3_T9   MBAL_U3_T9  1
    S_U3_T9   MBAL_U3_T10  -1
    S_U4_T9   NET_COST  2
    MARK3000  'MARKER'                 'INTORG'
    Z_U0_M0_T10  NET_COST  228
    Z_U0_M0_T10  MODE_U0_T10  1
    Z_U0_M0_T10  CAPMAX_U0_M0_T10  -300
    Z_U0_M0_T10  CAPMIN_U0_M0_T10  -90
    MARK3010  'MARKER'                 'INTEND'
    MARK3020  'MARKER'                 'INTORG'
    Z_U0_M1_T10  NET_COST  281
    Z_U0_M1_T10  MODE_U0_T10  1
    Z_U0_M1_T10  CAPMAX_U0_M1_T10  -169
    Z_U0_M1_T10  CAPMIN_U0_M1_T10  -50.7
    MARK3030  'MARKER'                 'INTEND'
    MARK3040  'MARKER'                 'INTORG'
    Z_U0_M2_T10  NET_COST  175
    Z_U0_M2_T10  MODE_U0_T10  1
    Z_U0_M2_T10  CAPMAX_U0_M2_T10  -205
    Z_U0_M2_T10  CAPMIN_U0_M2_T10  -61.5
    MARK3050  'MARKER'                 'INTEND'
    MARK3060  'MARKER'                 'INTORG'
    Z_U1_M0_T10  NET_COST  102
    Z_U1_M0_T10  MODE_U1_T10  1
    Z_U1_M0_T10  CAPMAX_U1_M0_T10  -255
    Z_U1_M0_T10  CAPMIN_U1_M0_T10  -76.5
    MARK3070  'MARKER'                 'INTEND'
    MARK3080  'MARKER'                 'INTORG'
    Z_U1_M1_T10  NET_COST  227
    Z_U1_M1_T10  MODE_U1_T10  1
    Z_U1_M1_T10  CAPMAX_U1_M1_T10  -315
    Z_U1_M1_T10  CAPMIN_U1_M1_T10  -94.5
    MARK3090  'MARKER'                 'INTEND'
    MARK3100  'MARKER'                 'INTORG'
    Z_U1_M2_T10  NET_COST  251
    Z_U1_M2_T10  MODE_U1_T10  1
    Z_U1_M2_T10  CAPMAX_U1_M2_T10  -240
    Z_U1_M2_T10  CAPMIN_U1_M2_T10  -72
    MARK3110  'MARKER'                 'INTEND'
    MARK3120  'MARKER'                 'INTORG'
    Z_U2_M0_T10  NET_COST  113
    Z_U2_M0_T10  MODE_U2_T10  1
    Z_U2_M0_T10  CAPMAX_U2_M0_T10  -300
    Z_U2_M0_T10  CAPMIN_U2_M0_T10  -90
    MARK3130  'MARKER'                 'INTEND'
    MARK3140  'MARKER'                 'INTORG'
    Z_U2_M1_T10  NET_COST  185
    Z_U2_M1_T10  MODE_U2_T10  1
    Z_U2_M1_T10  CAPMAX_U2_M1_T10  -170
    Z_U2_M1_T10  CAPMIN_U2_M1_T10  -51
    MARK3150  'MARKER'                 'INTEND'
    MARK3160  'MARKER'                 'INTORG'
    Z_U2_M2_T10  NET_COST  119
    Z_U2_M2_T10  MODE_U2_T10  1
    Z_U2_M2_T10  CAPMAX_U2_M2_T10  -256
    Z_U2_M2_T10  CAPMIN_U2_M2_T10  -76.8
    MARK3170  'MARKER'                 'INTEND'
    MARK3180  'MARKER'                 'INTORG'
    Z_U3_M0_T10  NET_COST  255
    Z_U3_M0_T10  MODE_U3_T10  1
    Z_U3_M0_T10  CAPMAX_U3_M0_T10  -175
    Z_U3_M0_T10  CAPMIN_U3_M0_T10  -52.5
    MARK3190  'MARKER'                 'INTEND'
    MARK3200  'MARKER'                 'INTORG'
    Z_U3_M1_T10  NET_COST  165
    Z_U3_M1_T10  MODE_U3_T10  1
    Z_U3_M1_T10  CAPMAX_U3_M1_T10  -300
    Z_U3_M1_T10  CAPMIN_U3_M1_T10  -90
    MARK3210  'MARKER'                 'INTEND'
    MARK3220  'MARKER'                 'INTORG'
    Z_U3_M2_T10  NET_COST  109
    Z_U3_M2_T10  MODE_U3_T10  1
    Z_U3_M2_T10  CAPMAX_U3_M2_T10  -335
    Z_U3_M2_T10  CAPMIN_U3_M2_T10  -100.5
    MARK3230  'MARKER'                 'INTEND'
    MARK3240  'MARKER'                 'INTORG'
    Z_U4_M0_T10  NET_COST  183
    Z_U4_M0_T10  MODE_U4_T10  1
    Z_U4_M0_T10  CAPMAX_U4_M0_T10  -210
    Z_U4_M0_T10  CAPMIN_U4_M0_T10  -63
    MARK3250  'MARKER'                 'INTEND'
    MARK3260  'MARKER'                 'INTORG'
    Z_U4_M1_T10  NET_COST  240
    Z_U4_M1_T10  MODE_U4_T10  1
    Z_U4_M1_T10  CAPMAX_U4_M1_T10  -242
    Z_U4_M1_T10  CAPMIN_U4_M1_T10  -72.6
    MARK3270  'MARKER'                 'INTEND'
    MARK3280  'MARKER'                 'INTORG'
    Z_U4_M2_T10  NET_COST  198
    Z_U4_M2_T10  MODE_U4_T10  1
    Z_U4_M2_T10  CAPMAX_U4_M2_T10  -192
    Z_U4_M2_T10  CAPMIN_U4_M2_T10  -57.6
    MARK3290  'MARKER'                 'INTEND'
    X_U0_M0_T10  NET_COST  33.9
    X_U0_M0_T10  CAPMAX_U0_M0_T10  1
    X_U0_M0_T10  CAPMIN_U0_M0_T10  1
    X_U0_M0_T10  MBAL_U0_T10  -0.9
    X_U0_M1_T10  NET_COST  18.4
    X_U0_M1_T10  CAPMAX_U0_M1_T10  1
    X_U0_M1_T10  CAPMIN_U0_M1_T10  1
    X_U0_M1_T10  MBAL_U0_T10  -0.9
    X_U0_M2_T10  NET_COST  29.4
    X_U0_M2_T10  CAPMAX_U0_M2_T10  1
    X_U0_M2_T10  CAPMIN_U0_M2_T10  1
    X_U0_M2_T10  MBAL_U0_T10  -0.9
    X_U1_M0_T10  NET_COST  24.8
    X_U1_M0_T10  CAPMAX_U1_M0_T10  1
    X_U1_M0_T10  CAPMIN_U1_M0_T10  1
    X_U1_M0_T10  MBAL_U0_T10  1
    X_U1_M0_T10  MBAL_U1_T10  -0.9
    X_U1_M1_T10  NET_COST  32.1
    X_U1_M1_T10  CAPMAX_U1_M1_T10  1
    X_U1_M1_T10  CAPMIN_U1_M1_T10  1
    X_U1_M1_T10  MBAL_U0_T10  1
    X_U1_M1_T10  MBAL_U1_T10  -0.9
    X_U1_M2_T10  NET_COST  38.6
    X_U1_M2_T10  CAPMAX_U1_M2_T10  1
    X_U1_M2_T10  CAPMIN_U1_M2_T10  1
    X_U1_M2_T10  MBAL_U0_T10  1
    X_U1_M2_T10  MBAL_U1_T10  -0.9
    X_U2_M0_T10  NET_COST  16.2
    X_U2_M0_T10  CAPMAX_U2_M0_T10  1
    X_U2_M0_T10  CAPMIN_U2_M0_T10  1
    X_U2_M0_T10  MBAL_U1_T10  1
    X_U2_M0_T10  MBAL_U2_T10  -0.9
    X_U2_M1_T10  NET_COST  18.7
    X_U2_M1_T10  CAPMAX_U2_M1_T10  1
    X_U2_M1_T10  CAPMIN_U2_M1_T10  1
    X_U2_M1_T10  MBAL_U1_T10  1
    X_U2_M1_T10  MBAL_U2_T10  -0.9
    X_U2_M2_T10  NET_COST  18.6
    X_U2_M2_T10  CAPMAX_U2_M2_T10  1
    X_U2_M2_T10  CAPMIN_U2_M2_T10  1
    X_U2_M2_T10  MBAL_U1_T10  1
    X_U2_M2_T10  MBAL_U2_T10  -0.9
    X_U3_M0_T10  NET_COST  26.2
    X_U3_M0_T10  CAPMAX_U3_M0_T10  1
    X_U3_M0_T10  CAPMIN_U3_M0_T10  1
    X_U3_M0_T10  MBAL_U2_T10  1
    X_U3_M0_T10  MBAL_U3_T10  -0.9
    X_U3_M1_T10  NET_COST  33.6
    X_U3_M1_T10  CAPMAX_U3_M1_T10  1
    X_U3_M1_T10  CAPMIN_U3_M1_T10  1
    X_U3_M1_T10  MBAL_U2_T10  1
    X_U3_M1_T10  MBAL_U3_T10  -0.9
    X_U3_M2_T10  NET_COST  35.1
    X_U3_M2_T10  CAPMAX_U3_M2_T10  1
    X_U3_M2_T10  CAPMIN_U3_M2_T10  1
    X_U3_M2_T10  MBAL_U2_T10  1
    X_U3_M2_T10  MBAL_U3_T10  -0.9
    X_U4_M0_T10  NET_COST  -61.4
    X_U4_M0_T10  CAPMAX_U4_M0_T10  1
    X_U4_M0_T10  CAPMIN_U4_M0_T10  1
    X_U4_M0_T10  MBAL_U3_T10  1
    X_U4_M0_T10  DEMAND_T10  1
    X_U4_M1_T10  NET_COST  -79.5
    X_U4_M1_T10  CAPMAX_U4_M1_T10  1
    X_U4_M1_T10  CAPMIN_U4_M1_T10  1
    X_U4_M1_T10  MBAL_U3_T10  1
    X_U4_M1_T10  DEMAND_T10  1
    X_U4_M2_T10  NET_COST  -66.6
    X_U4_M2_T10  CAPMAX_U4_M2_T10  1
    X_U4_M2_T10  CAPMIN_U4_M2_T10  1
    X_U4_M2_T10  MBAL_U3_T10  1
    X_U4_M2_T10  DEMAND_T10  1
    S_U0_T10  NET_COST  2
    S_U0_T10  MBAL_U0_T10  1
    S_U0_T10  MBAL_U0_T11  -1
    S_U1_T10  NET_COST  2
    S_U1_T10  MBAL_U1_T10  1
    S_U1_T10  MBAL_U1_T11  -1
    S_U2_T10  NET_COST  2
    S_U2_T10  MBAL_U2_T10  1
    S_U2_T10  MBAL_U2_T11  -1
    S_U3_T10  NET_COST  2
    S_U3_T10  MBAL_U3_T10  1
    S_U3_T10  MBAL_U3_T11  -1
    S_U4_T10  NET_COST  2
    MARK3300  'MARKER'                 'INTORG'
    Z_U0_M0_T11  NET_COST  228
    Z_U0_M0_T11  MODE_U0_T11  1
    Z_U0_M0_T11  CAPMAX_U0_M0_T11  -300
    Z_U0_M0_T11  CAPMIN_U0_M0_T11  -90
    MARK3310  'MARKER'                 'INTEND'
    MARK3320  'MARKER'                 'INTORG'
    Z_U0_M1_T11  NET_COST  281
    Z_U0_M1_T11  MODE_U0_T11  1
    Z_U0_M1_T11  CAPMAX_U0_M1_T11  -169
    Z_U0_M1_T11  CAPMIN_U0_M1_T11  -50.7
    MARK3330  'MARKER'                 'INTEND'
    MARK3340  'MARKER'                 'INTORG'
    Z_U0_M2_T11  NET_COST  175
    Z_U0_M2_T11  MODE_U0_T11  1
    Z_U0_M2_T11  CAPMAX_U0_M2_T11  -205
    Z_U0_M2_T11  CAPMIN_U0_M2_T11  -61.5
    MARK3350  'MARKER'                 'INTEND'
    MARK3360  'MARKER'                 'INTORG'
    Z_U1_M0_T11  NET_COST  102
    Z_U1_M0_T11  MODE_U1_T11  1
    Z_U1_M0_T11  CAPMAX_U1_M0_T11  -255
    Z_U1_M0_T11  CAPMIN_U1_M0_T11  -76.5
    MARK3370  'MARKER'                 'INTEND'
    MARK3380  'MARKER'                 'INTORG'
    Z_U1_M1_T11  NET_COST  227
    Z_U1_M1_T11  MODE_U1_T11  1
    Z_U1_M1_T11  CAPMAX_U1_M1_T11  -315
    Z_U1_M1_T11  CAPMIN_U1_M1_T11  -94.5
    MARK3390  'MARKER'                 'INTEND'
    MARK3400  'MARKER'                 'INTORG'
    Z_U1_M2_T11  NET_COST  251
    Z_U1_M2_T11  MODE_U1_T11  1
    Z_U1_M2_T11  CAPMAX_U1_M2_T11  -240
    Z_U1_M2_T11  CAPMIN_U1_M2_T11  -72
    MARK3410  'MARKER'                 'INTEND'
    MARK3420  'MARKER'                 'INTORG'
    Z_U2_M0_T11  NET_COST  113
    Z_U2_M0_T11  MODE_U2_T11  1
    Z_U2_M0_T11  CAPMAX_U2_M0_T11  -300
    Z_U2_M0_T11  CAPMIN_U2_M0_T11  -90
    MARK3430  'MARKER'                 'INTEND'
    MARK3440  'MARKER'                 'INTORG'
    Z_U2_M1_T11  NET_COST  185
    Z_U2_M1_T11  MODE_U2_T11  1
    Z_U2_M1_T11  CAPMAX_U2_M1_T11  -170
    Z_U2_M1_T11  CAPMIN_U2_M1_T11  -51
    MARK3450  'MARKER'                 'INTEND'
    MARK3460  'MARKER'                 'INTORG'
    Z_U2_M2_T11  NET_COST  119
    Z_U2_M2_T11  MODE_U2_T11  1
    Z_U2_M2_T11  CAPMAX_U2_M2_T11  -256
    Z_U2_M2_T11  CAPMIN_U2_M2_T11  -76.8
    MARK3470  'MARKER'                 'INTEND'
    MARK3480  'MARKER'                 'INTORG'
    Z_U3_M0_T11  NET_COST  255
    Z_U3_M0_T11  MODE_U3_T11  1
    Z_U3_M0_T11  CAPMAX_U3_M0_T11  -175
    Z_U3_M0_T11  CAPMIN_U3_M0_T11  -52.5
    MARK3490  'MARKER'                 'INTEND'
    MARK3500  'MARKER'                 'INTORG'
    Z_U3_M1_T11  NET_COST  165
    Z_U3_M1_T11  MODE_U3_T11  1
    Z_U3_M1_T11  CAPMAX_U3_M1_T11  -300
    Z_U3_M1_T11  CAPMIN_U3_M1_T11  -90
    MARK3510  'MARKER'                 'INTEND'
    MARK3520  'MARKER'                 'INTORG'
    Z_U3_M2_T11  NET_COST  109
    Z_U3_M2_T11  MODE_U3_T11  1
    Z_U3_M2_T11  CAPMAX_U3_M2_T11  -335
    Z_U3_M2_T11  CAPMIN_U3_M2_T11  -100.5
    MARK3530  'MARKER'                 'INTEND'
    MARK3540  'MARKER'                 'INTORG'
    Z_U4_M0_T11  NET_COST  183
    Z_U4_M0_T11  MODE_U4_T11  1
    Z_U4_M0_T11  CAPMAX_U4_M0_T11  -210
    Z_U4_M0_T11  CAPMIN_U4_M0_T11  -63
    MARK3550  'MARKER'                 'INTEND'
    MARK3560  'MARKER'                 'INTORG'
    Z_U4_M1_T11  NET_COST  240
    Z_U4_M1_T11  MODE_U4_T11  1
    Z_U4_M1_T11  CAPMAX_U4_M1_T11  -242
    Z_U4_M1_T11  CAPMIN_U4_M1_T11  -72.6
    MARK3570  'MARKER'                 'INTEND'
    MARK3580  'MARKER'                 'INTORG'
    Z_U4_M2_T11  NET_COST  198
    Z_U4_M2_T11  MODE_U4_T11  1
    Z_U4_M2_T11  CAPMAX_U4_M2_T11  -192
    Z_U4_M2_T11  CAPMIN_U4_M2_T11  -57.6
    MARK3590  'MARKER'                 'INTEND'
    X_U0_M0_T11  NET_COST  33.9
    X_U0_M0_T11  CAPMAX_U0_M0_T11  1
    X_U0_M0_T11  CAPMIN_U0_M0_T11  1
    X_U0_M0_T11  MBAL_U0_T11  -0.9
    X_U0_M1_T11  NET_COST  18.4
    X_U0_M1_T11  CAPMAX_U0_M1_T11  1
    X_U0_M1_T11  CAPMIN_U0_M1_T11  1
    X_U0_M1_T11  MBAL_U0_T11  -0.9
    X_U0_M2_T11  NET_COST  29.4
    X_U0_M2_T11  CAPMAX_U0_M2_T11  1
    X_U0_M2_T11  CAPMIN_U0_M2_T11  1
    X_U0_M2_T11  MBAL_U0_T11  -0.9
    X_U1_M0_T11  NET_COST  24.8
    X_U1_M0_T11  CAPMAX_U1_M0_T11  1
    X_U1_M0_T11  CAPMIN_U1_M0_T11  1
    X_U1_M0_T11  MBAL_U0_T11  1
    X_U1_M0_T11  MBAL_U1_T11  -0.9
    X_U1_M1_T11  NET_COST  32.1
    X_U1_M1_T11  CAPMAX_U1_M1_T11  1
    X_U1_M1_T11  CAPMIN_U1_M1_T11  1
    X_U1_M1_T11  MBAL_U0_T11  1
    X_U1_M1_T11  MBAL_U1_T11  -0.9
    X_U1_M2_T11  NET_COST  38.6
    X_U1_M2_T11  CAPMAX_U1_M2_T11  1
    X_U1_M2_T11  CAPMIN_U1_M2_T11  1
    X_U1_M2_T11  MBAL_U0_T11  1
    X_U1_M2_T11  MBAL_U1_T11  -0.9
    X_U2_M0_T11  NET_COST  16.2
    X_U2_M0_T11  CAPMAX_U2_M0_T11  1
    X_U2_M0_T11  CAPMIN_U2_M0_T11  1
    X_U2_M0_T11  MBAL_U1_T11  1
    X_U2_M0_T11  MBAL_U2_T11  -0.9
    X_U2_M1_T11  NET_COST  18.7
    X_U2_M1_T11  CAPMAX_U2_M1_T11  1
    X_U2_M1_T11  CAPMIN_U2_M1_T11  1
    X_U2_M1_T11  MBAL_U1_T11  1
    X_U2_M1_T11  MBAL_U2_T11  -0.9
    X_U2_M2_T11  NET_COST  18.6
    X_U2_M2_T11  CAPMAX_U2_M2_T11  1
    X_U2_M2_T11  CAPMIN_U2_M2_T11  1
    X_U2_M2_T11  MBAL_U1_T11  1
    X_U2_M2_T11  MBAL_U2_T11  -0.9
    X_U3_M0_T11  NET_COST  26.2
    X_U3_M0_T11  CAPMAX_U3_M0_T11  1
    X_U3_M0_T11  CAPMIN_U3_M0_T11  1
    X_U3_M0_T11  MBAL_U2_T11  1
    X_U3_M0_T11  MBAL_U3_T11  -0.9
    X_U3_M1_T11  NET_COST  33.6
    X_U3_M1_T11  CAPMAX_U3_M1_T11  1
    X_U3_M1_T11  CAPMIN_U3_M1_T11  1
    X_U3_M1_T11  MBAL_U2_T11  1
    X_U3_M1_T11  MBAL_U3_T11  -0.9
    X_U3_M2_T11  NET_COST  35.1
    X_U3_M2_T11  CAPMAX_U3_M2_T11  1
    X_U3_M2_T11  CAPMIN_U3_M2_T11  1
    X_U3_M2_T11  MBAL_U2_T11  1
    X_U3_M2_T11  MBAL_U3_T11  -0.9
    X_U4_M0_T11  NET_COST  -61.4
    X_U4_M0_T11  CAPMAX_U4_M0_T11  1
    X_U4_M0_T11  CAPMIN_U4_M0_T11  1
    X_U4_M0_T11  MBAL_U3_T11  1
    X_U4_M0_T11  DEMAND_T11  1
    X_U4_M1_T11  NET_COST  -79.5
    X_U4_M1_T11  CAPMAX_U4_M1_T11  1
    X_U4_M1_T11  CAPMIN_U4_M1_T11  1
    X_U4_M1_T11  MBAL_U3_T11  1
    X_U4_M1_T11  DEMAND_T11  1
    X_U4_M2_T11  NET_COST  -66.6
    X_U4_M2_T11  CAPMAX_U4_M2_T11  1
    X_U4_M2_T11  CAPMIN_U4_M2_T11  1
    X_U4_M2_T11  MBAL_U3_T11  1
    X_U4_M2_T11  DEMAND_T11  1
    S_U0_T11  NET_COST  2
    S_U0_T11  MBAL_U0_T11  1
    S_U1_T11  NET_COST  2
    S_U1_T11  MBAL_U1_T11  1
    S_U2_T11  NET_COST  2
    S_U2_T11  MBAL_U2_T11  1
    S_U3_T11  NET_COST  2
    S_U3_T11  MBAL_U3_T11  1
    S_U4_T11  NET_COST  2
RHS
    RHS1      MODE_U0_T0  1
    RHS1      MODE_U1_T0  1
    RHS1      MODE_U2_T0  1
    RHS1      MODE_U3_T0  1
    RHS1      MODE_U4_T0  1
    RHS1      DEMAND_T0  153
    RHS1      MODE_U0_T1  1
    RHS1      MODE_U1_T1  1
    RHS1      MODE_U2_T1  1
    RHS1      MODE_U3_T1  1
    RHS1      MODE_U4_T1  1
    RHS1      DEMAND_T1  139
    RHS1      MODE_U0_T2  1
    RHS1      MODE_U1_T2  1
    RHS1      MODE_U2_T2  1
    RHS1      MODE_U3_T2  1
    RHS1      MODE_U4_T2  1
    RHS1      DEMAND_T2  126
    RHS1      MODE_U0_T3  1
    RHS1      MODE_U1_T3  1
    RHS1      MODE_U2_T3  1
    RHS1      MODE_U3_T3  1
    RHS1      MODE_U4_T3  1
    RHS1      DEMAND_T3  160
    RHS1      MODE_U0_T4  1
    RHS1      MODE_U1_T4  1
    RHS1      MODE_U2_T4  1
    RHS1      MODE_U3_T4  1
    RHS1      MODE_U4_T4  1
    RHS1      DEMAND_T4  130
    RHS1      MODE_U0_T5  1
    RHS1      MODE_U1_T5  1
    RHS1      MODE_U2_T5  1
    RHS1      MODE_U3_T5  1
    RHS1      MODE_U4_T5  1
    RHS1      DEMAND_T5  132
    RHS1      MODE_U0_T6  1
    RHS1      MODE_U1_T6  1
    RHS1      MODE_U2_T6  1
    RHS1      MODE_U3_T6  1
    RHS1      MODE_U4_T6  1
    RHS1      DEMAND_T6  91
    RHS1      MODE_U0_T7  1
    RHS1      MODE_U1_T7  1
    RHS1      MODE_U2_T7  1
    RHS1      MODE_U3_T7  1
    RHS1      MODE_U4_T7  1
    RHS1      DEMAND_T7  89
    RHS1      MODE_U0_T8  1
    RHS1      MODE_U1_T8  1
    RHS1      MODE_U2_T8  1
    RHS1      MODE_U3_T8  1
    RHS1      MODE_U4_T8  1
    RHS1      DEMAND_T8  178
    RHS1      MODE_U0_T9  1
    RHS1      MODE_U1_T9  1
    RHS1      MODE_U2_T9  1
    RHS1      MODE_U3_T9  1
    RHS1      MODE_U4_T9  1
    RHS1      DEMAND_T9  137
    RHS1      MODE_U0_T10  1
    RHS1      MODE_U1_T10  1
    RHS1      MODE_U2_T10  1
    RHS1      MODE_U3_T10  1
    RHS1      MODE_U4_T10  1
    RHS1      DEMAND_T10  133
    RHS1      MODE_U0_T11  1
    RHS1      MODE_U1_T11  1
    RHS1      MODE_U2_T11  1
    RHS1      MODE_U3_T11  1
    RHS1      MODE_U4_T11  1
    RHS1      DEMAND_T11  199
BOUNDS
 BV BND1      Z_U0_M0_T0
 BV BND1      Z_U0_M1_T0
 BV BND1      Z_U0_M2_T0
 BV BND1      Z_U1_M0_T0
 BV BND1      Z_U1_M1_T0
 BV BND1      Z_U1_M2_T0
 BV BND1      Z_U2_M0_T0
 BV BND1      Z_U2_M1_T0
 BV BND1      Z_U2_M2_T0
 BV BND1      Z_U3_M0_T0
 BV BND1      Z_U3_M1_T0
 BV BND1      Z_U3_M2_T0
 BV BND1      Z_U4_M0_T0
 BV BND1      Z_U4_M1_T0
 BV BND1      Z_U4_M2_T0
 UP BND1      X_U0_M0_T0  300
 UP BND1      X_U0_M1_T0  169
 UP BND1      X_U0_M2_T0  205
 UP BND1      X_U1_M0_T0  255
 UP BND1      X_U1_M1_T0  315
 UP BND1      X_U1_M2_T0  240
 UP BND1      X_U2_M0_T0  300
 UP BND1      X_U2_M1_T0  170
 UP BND1      X_U2_M2_T0  256
 UP BND1      X_U3_M0_T0  175
 UP BND1      X_U3_M1_T0  300
 UP BND1      X_U3_M2_T0  335
 UP BND1      X_U4_M0_T0  210
 UP BND1      X_U4_M1_T0  242
 UP BND1      X_U4_M2_T0  192
 UP BND1      S_U0_T0   500
 UP BND1      S_U1_T0   500
 UP BND1      S_U2_T0   500
 UP BND1      S_U3_T0   500
 UP BND1      S_U4_T0   500
 BV BND1      Z_U0_M0_T1
 BV BND1      Z_U0_M1_T1
 BV BND1      Z_U0_M2_T1
 BV BND1      Z_U1_M0_T1
 BV BND1      Z_U1_M1_T1
 BV BND1      Z_U1_M2_T1
 BV BND1      Z_U2_M0_T1
 BV BND1      Z_U2_M1_T1
 BV BND1      Z_U2_M2_T1
 BV BND1      Z_U3_M0_T1
 BV BND1      Z_U3_M1_T1
 BV BND1      Z_U3_M2_T1
 BV BND1      Z_U4_M0_T1
 BV BND1      Z_U4_M1_T1
 BV BND1      Z_U4_M2_T1
 UP BND1      X_U0_M0_T1  300
 UP BND1      X_U0_M1_T1  169
 UP BND1      X_U0_M2_T1  205
 UP BND1      X_U1_M0_T1  255
 UP BND1      X_U1_M1_T1  315
 UP BND1      X_U1_M2_T1  240
 UP BND1      X_U2_M0_T1  300
 UP BND1      X_U2_M1_T1  170
 UP BND1      X_U2_M2_T1  256
 UP BND1      X_U3_M0_T1  175
 UP BND1      X_U3_M1_T1  300
 UP BND1      X_U3_M2_T1  335
 UP BND1      X_U4_M0_T1  210
 UP BND1      X_U4_M1_T1  242
 UP BND1      X_U4_M2_T1  192
 UP BND1      S_U0_T1   500
 UP BND1      S_U1_T1   500
 UP BND1      S_U2_T1   500
 UP BND1      S_U3_T1   500
 UP BND1      S_U4_T1   500
 BV BND1      Z_U0_M0_T2
 BV BND1      Z_U0_M1_T2
 BV BND1      Z_U0_M2_T2
 BV BND1      Z_U1_M0_T2
 BV BND1      Z_U1_M1_T2
 BV BND1      Z_U1_M2_T2
 BV BND1      Z_U2_M0_T2
 BV BND1      Z_U2_M1_T2
 BV BND1      Z_U2_M2_T2
 BV BND1      Z_U3_M0_T2
 BV BND1      Z_U3_M1_T2
 BV BND1      Z_U3_M2_T2
 BV BND1      Z_U4_M0_T2
 BV BND1      Z_U4_M1_T2
 BV BND1      Z_U4_M2_T2
 UP BND1      X_U0_M0_T2  300
 UP BND1      X_U0_M1_T2  169
 UP BND1      X_U0_M2_T2  205
 UP BND1      X_U1_M0_T2  255
 UP BND1      X_U1_M1_T2  315
 UP BND1      X_U1_M2_T2  240
 UP BND1      X_U2_M0_T2  300
 UP BND1      X_U2_M1_T2  170
 UP BND1      X_U2_M2_T2  256
 UP BND1      X_U3_M0_T2  175
 UP BND1      X_U3_M1_T2  300
 UP BND1      X_U3_M2_T2  335
 UP BND1      X_U4_M0_T2  210
 UP BND1      X_U4_M1_T2  242
 UP BND1      X_U4_M2_T2  192
 UP BND1      S_U0_T2   500
 UP BND1      S_U1_T2   500
 UP BND1      S_U2_T2   500
 UP BND1      S_U3_T2   500
 UP BND1      S_U4_T2   500
 BV BND1      Z_U0_M0_T3
 BV BND1      Z_U0_M1_T3
 BV BND1      Z_U0_M2_T3
 BV BND1      Z_U1_M0_T3
 BV BND1      Z_U1_M1_T3
 BV BND1      Z_U1_M2_T3
 BV BND1      Z_U2_M0_T3
 BV BND1      Z_U2_M1_T3
 BV BND1      Z_U2_M2_T3
 BV BND1      Z_U3_M0_T3
 BV BND1      Z_U3_M1_T3
 BV BND1      Z_U3_M2_T3
 BV BND1      Z_U4_M0_T3
 BV BND1      Z_U4_M1_T3
 BV BND1      Z_U4_M2_T3
 UP BND1      X_U0_M0_T3  300
 UP BND1      X_U0_M1_T3  169
 UP BND1      X_U0_M2_T3  205
 UP BND1      X_U1_M0_T3  255
 UP BND1      X_U1_M1_T3  315
 UP BND1      X_U1_M2_T3  240
 UP BND1      X_U2_M0_T3  300
 UP BND1      X_U2_M1_T3  170
 UP BND1      X_U2_M2_T3  256
 UP BND1      X_U3_M0_T3  175
 UP BND1      X_U3_M1_T3  300
 UP BND1      X_U3_M2_T3  335
 UP BND1      X_U4_M0_T3  210
 UP BND1      X_U4_M1_T3  242
 UP BND1      X_U4_M2_T3  192
 UP BND1      S_U0_T3   500
 UP BND1      S_U1_T3   500
 UP BND1      S_U2_T3   500
 UP BND1      S_U3_T3   500
 UP BND1      S_U4_T3   500
 BV BND1      Z_U0_M0_T4
 BV BND1      Z_U0_M1_T4
 BV BND1      Z_U0_M2_T4
 BV BND1      Z_U1_M0_T4
 BV BND1      Z_U1_M1_T4
 BV BND1      Z_U1_M2_T4
 BV BND1      Z_U2_M0_T4
 BV BND1      Z_U2_M1_T4
 BV BND1      Z_U2_M2_T4
 BV BND1      Z_U3_M0_T4
 BV BND1      Z_U3_M1_T4
 BV BND1      Z_U3_M2_T4
 BV BND1      Z_U4_M0_T4
 BV BND1      Z_U4_M1_T4
 BV BND1      Z_U4_M2_T4
 UP BND1      X_U0_M0_T4  300
 UP BND1      X_U0_M1_T4  169
 UP BND1      X_U0_M2_T4  205
 UP BND1      X_U1_M0_T4  255
 UP BND1      X_U1_M1_T4  315
 UP BND1      X_U1_M2_T4  240
 UP BND1      X_U2_M0_T4  300
 UP BND1      X_U2_M1_T4  170
 UP BND1      X_U2_M2_T4  256
 UP BND1      X_U3_M0_T4  175
 UP BND1      X_U3_M1_T4  300
 UP BND1      X_U3_M2_T4  335
 UP BND1      X_U4_M0_T4  210
 UP BND1      X_U4_M1_T4  242
 UP BND1      X_U4_M2_T4  192
 UP BND1      S_U0_T4   500
 UP BND1      S_U1_T4   500
 UP BND1      S_U2_T4   500
 UP BND1      S_U3_T4   500
 UP BND1      S_U4_T4   500
 BV BND1      Z_U0_M0_T5
 BV BND1      Z_U0_M1_T5
 BV BND1      Z_U0_M2_T5
 BV BND1      Z_U1_M0_T5
 BV BND1      Z_U1_M1_T5
 BV BND1      Z_U1_M2_T5
 BV BND1      Z_U2_M0_T5
 BV BND1      Z_U2_M1_T5
 BV BND1      Z_U2_M2_T5
 BV BND1      Z_U3_M0_T5
 BV BND1      Z_U3_M1_T5
 BV BND1      Z_U3_M2_T5
 BV BND1      Z_U4_M0_T5
 BV BND1      Z_U4_M1_T5
 BV BND1      Z_U4_M2_T5
 UP BND1      X_U0_M0_T5  300
 UP BND1      X_U0_M1_T5  169
 UP BND1      X_U0_M2_T5  205
 UP BND1      X_U1_M0_T5  255
 UP BND1      X_U1_M1_T5  315
 UP BND1      X_U1_M2_T5  240
 UP BND1      X_U2_M0_T5  300
 UP BND1      X_U2_M1_T5  170
 UP BND1      X_U2_M2_T5  256
 UP BND1      X_U3_M0_T5  175
 UP BND1      X_U3_M1_T5  300
 UP BND1      X_U3_M2_T5  335
 UP BND1      X_U4_M0_T5  210
 UP BND1      X_U4_M1_T5  242
 UP BND1      X_U4_M2_T5  192
 UP BND1      S_U0_T5   500
 UP BND1      S_U1_T5   500
 UP BND1      S_U2_T5   500
 UP BND1      S_U3_T5   500
 UP BND1      S_U4_T5   500
 BV BND1      Z_U0_M0_T6
 BV BND1      Z_U0_M1_T6
 BV BND1      Z_U0_M2_T6
 BV BND1      Z_U1_M0_T6
 BV BND1      Z_U1_M1_T6
 BV BND1      Z_U1_M2_T6
 BV BND1      Z_U2_M0_T6
 BV BND1      Z_U2_M1_T6
 BV BND1      Z_U2_M2_T6
 BV BND1      Z_U3_M0_T6
 BV BND1      Z_U3_M1_T6
 BV BND1      Z_U3_M2_T6
 BV BND1      Z_U4_M0_T6
 BV BND1      Z_U4_M1_T6
 BV BND1      Z_U4_M2_T6
 UP BND1      X_U0_M0_T6  300
 UP BND1      X_U0_M1_T6  169
 UP BND1      X_U0_M2_T6  205
 UP BND1      X_U1_M0_T6  255
 UP BND1      X_U1_M1_T6  315
 UP BND1      X_U1_M2_T6  240
 UP BND1      X_U2_M0_T6  300
 UP BND1      X_U2_M1_T6  170
 UP BND1      X_U2_M2_T6  256
 UP BND1      X_U3_M0_T6  175
 UP BND1      X_U3_M1_T6  300
 UP BND1      X_U3_M2_T6  335
 UP BND1      X_U4_M0_T6  210
 UP BND1      X_U4_M1_T6  242
 UP BND1      X_U4_M2_T6  192
 UP BND1      S_U0_T6   500
 UP BND1      S_U1_T6   500
 UP BND1      S_U2_T6   500
 UP BND1      S_U3_T6   500
 UP BND1      S_U4_T6   500
 BV BND1      Z_U0_M0_T7
 BV BND1      Z_U0_M1_T7
 BV BND1      Z_U0_M2_T7
 BV BND1      Z_U1_M0_T7
 BV BND1      Z_U1_M1_T7
 BV BND1      Z_U1_M2_T7
 BV BND1      Z_U2_M0_T7
 BV BND1      Z_U2_M1_T7
 BV BND1      Z_U2_M2_T7
 BV BND1      Z_U3_M0_T7
 BV BND1      Z_U3_M1_T7
 BV BND1      Z_U3_M2_T7
 BV BND1      Z_U4_M0_T7
 BV BND1      Z_U4_M1_T7
 BV BND1      Z_U4_M2_T7
 UP BND1      X_U0_M0_T7  300
 UP BND1      X_U0_M1_T7  169
 UP BND1      X_U0_M2_T7  205
 UP BND1      X_U1_M0_T7  255
 UP BND1      X_U1_M1_T7  315
 UP BND1      X_U1_M2_T7  240
 UP BND1      X_U2_M0_T7  300
 UP BND1      X_U2_M1_T7  170
 UP BND1      X_U2_M2_T7  256
 UP BND1      X_U3_M0_T7  175
 UP BND1      X_U3_M1_T7  300
 UP BND1      X_U3_M2_T7  335
 UP BND1      X_U4_M0_T7  210
 UP BND1      X_U4_M1_T7  242
 UP BND1      X_U4_M2_T7  192
 UP BND1      S_U0_T7   500
 UP BND1      S_U1_T7   500
 UP BND1      S_U2_T7   500
 UP BND1      S_U3_T7   500
 UP BND1      S_U4_T7   500
 BV BND1      Z_U0_M0_T8
 BV BND1      Z_U0_M1_T8
 BV BND1      Z_U0_M2_T8
 BV BND1      Z_U1_M0_T8
 BV BND1      Z_U1_M1_T8
 BV BND1      Z_U1_M2_T8
 BV BND1      Z_U2_M0_T8
 BV BND1      Z_U2_M1_T8
 BV BND1      Z_U2_M2_T8
 BV BND1      Z_U3_M0_T8
 BV BND1      Z_U3_M1_T8
 BV BND1      Z_U3_M2_T8
 BV BND1      Z_U4_M0_T8
 BV BND1      Z_U4_M1_T8
 BV BND1      Z_U4_M2_T8
 UP BND1      X_U0_M0_T8  300
 UP BND1      X_U0_M1_T8  169
 UP BND1      X_U0_M2_T8  205
 UP BND1      X_U1_M0_T8  255
 UP BND1      X_U1_M1_T8  315
 UP BND1      X_U1_M2_T8  240
 UP BND1      X_U2_M0_T8  300
 UP BND1      X_U2_M1_T8  170
 UP BND1      X_U2_M2_T8  256
 UP BND1      X_U3_M0_T8  175
 UP BND1      X_U3_M1_T8  300
 UP BND1      X_U3_M2_T8  335
 UP BND1      X_U4_M0_T8  210
 UP BND1      X_U4_M1_T8  242
 UP BND1      X_U4_M2_T8  192
 UP BND1      S_U0_T8   500
 UP BND1      S_U1_T8   500
 UP BND1      S_U2_T8   500
 UP BND1      S_U3_T8   500
 UP BND1      S_U4_T8   500
 BV BND1      Z_U0_M0_T9
 BV BND1      Z_U0_M1_T9
 BV BND1      Z_U0_M2_T9
 BV BND1      Z_U1_M0_T9
 BV BND1      Z_U1_M1_T9
 BV BND1      Z_U1_M2_T9
 BV BND1      Z_U2_M0_T9
 BV BND1      Z_U2_M1_T9
 BV BND1      Z_U2_M2_T9
 BV BND1      Z_U3_M0_T9
 BV BND1      Z_U3_M1_T9
 BV BND1      Z_U3_M2_T9
 BV BND1      Z_U4_M0_T9
 BV BND1      Z_U4_M1_T9
 BV BND1      Z_U4_M2_T9
 UP BND1      X_U0_M0_T9  300
 UP BND1      X_U0_M1_T9  169
 UP BND1      X_U0_M2_T9  205
 UP BND1      X_U1_M0_T9  255
 UP BND1      X_U1_M1_T9  315
 UP BND1      X_U1_M2_T9  240
 UP BND1      X_U2_M0_T9  300
 UP BND1      X_U2_M1_T9  170
 UP BND1      X_U2_M2_T9  256
 UP BND1      X_U3_M0_T9  175
 UP BND1      X_U3_M1_T9  300
 UP BND1      X_U3_M2_T9  335
 UP BND1      X_U4_M0_T9  210
 UP BND1      X_U4_M1_T9  242
 UP BND1      X_U4_M2_T9  192
 UP BND1      S_U0_T9   500
 UP BND1      S_U1_T9   500
 UP BND1      S_U2_T9   500
 UP BND1      S_U3_T9   500
 UP BND1      S_U4_T9   500
 BV BND1      Z_U0_M0_T10
 BV BND1      Z_U0_M1_T10
 BV BND1      Z_U0_M2_T10
 BV BND1      Z_U1_M0_T10
 BV BND1      Z_U1_M1_T10
 BV BND1      Z_U1_M2_T10
 BV BND1      Z_U2_M0_T10
 BV BND1      Z_U2_M1_T10
 BV BND1      Z_U2_M2_T10
 BV BND1      Z_U3_M0_T10
 BV BND1      Z_U3_M1_T10
 BV BND1      Z_U3_M2_T10
 BV BND1      Z_U4_M0_T10
 BV BND1      Z_U4_M1_T10
 BV BND1      Z_U4_M2_T10
 UP BND1      X_U0_M0_T10  300
 UP BND1      X_U0_M1_T10  169
 UP BND1      X_U0_M2_T10  205
 UP BND1      X_U1_M0_T10  255
 UP BND1      X_U1_M1_T10  315
 UP BND1      X_U1_M2_T10  240
 UP BND1      X_U2_M0_T10  300
 UP BND1      X_U2_M1_T10  170
 UP BND1      X_U2_M2_T10  256
 UP BND1      X_U3_M0_T10  175
 UP BND1      X_U3_M1_T10  300
 UP BND1      X_U3_M2_T10  335
 UP BND1      X_U4_M0_T10  210
 UP BND1      X_U4_M1_T10  242
 UP BND1      X_U4_M2_T10  192
 UP BND1      S_U0_T10  500
 UP BND1      S_U1_T10  500
 UP BND1      S_U2_T10  500
 UP BND1      S_U3_T10  500
 UP BND1      S_U4_T10  500
 BV BND1      Z_U0_M0_T11
 BV BND1      Z_U0_M1_T11
 BV BND1      Z_U0_M2_T11
 BV BND1      Z_U1_M0_T11
 BV BND1      Z_U1_M1_T11
 BV BND1      Z_U1_M2_T11
 BV BND1      Z_U2_M0_T11
 BV BND1      Z_U2_M1_T11
 BV BND1      Z_U2_M2_T11
 BV BND1      Z_U3_M0_T11
 BV BND1      Z_U3_M1_T11
 BV BND1      Z_U3_M2_T11
 BV BND1      Z_U4_M0_T11
 BV BND1      Z_U4_M1_T11
 BV BND1      Z_U4_M2_T11
 UP BND1      X_U0_M0_T11  300
 UP BND1      X_U0_M1_T11  169
 UP BND1      X_U0_M2_T11  205
 UP BND1      X_U1_M0_T11  255
 UP BND1      X_U1_M1_T11  315
 UP BND1      X_U1_M2_T11  240
 UP BND1      X_U2_M0_T11  300
 UP BND1      X_U2_M1_T11  170
 UP BND1      X_U2_M2_T11  256
 UP BND1      X_U3_M0_T11  175
 UP BND1      X_U3_M1_T11  300
 UP BND1      X_U3_M2_T11  335
 UP BND1      X_U4_M0_T11  210
 UP BND1      X_U4_M1_T11  242
 UP BND1      X_U4_M2_T11  192
 UP BND1      S_U0_T11  500
 UP BND1      S_U1_T11  500
 UP BND1      S_U2_T11  500
 UP BND1      S_U3_T11  500
 UP BND1      S_U4_T11  500
ENDATA
