NAME          REFINERY_SCHED_Small
OBJSENSE
  MIN
ROWS
 N  NET_COST
 L  MODE_U0_T0
 L  MODE_U1_T0
 L  MODE_U2_T0
 L  CAPMAX_U0_M0_T0
 G  CAPMIN_U0_M0_T0
 L  CAPMAX_U0_M1_T0
 G  CAPMIN_U0_M1_T0
 L  CAPMAX_U1_M0_T0
 G  CAPMIN_U1_M0_T0
 L  CAPMAX_U1_M1_T0
 G  CAPMIN_U1_M1_T0
 L  CAPMAX_U2_M0_T0
 G  CAPMIN_U2_M0_T0
 L  CAPMAX_U2_M1_T0
 G  CAPMIN_U2_M1_T0
 E  MBAL_U0_T0
 E  MBAL_U1_T0
 G  DEMAND_T0
 L  MODE_U0_T1
 L  MODE_U1_T1
 L  MODE_U2_T1
 L  CAPMAX_U0_M0_T1
 G  CAPMIN_U0_M0_T1
 L  CAPMAX_U0_M1_T1
 G  CAPMIN_U0_M1_T1
 L  CAPMAX_U1_M0_T1
 G  CAPMIN_U1_M0_T1
 L  CAPMAX_U1_M1_T1
 G  CAPMIN_U1_M1_T1
 L  CAPMAX_U2_M0_T1
 G  CAPMIN_U2_M0_T1
 L  CAPMAX_U2_M1_T1
 G  CAPMIN_U2_M1_T1
 E  MBAL_U0_T1
 E  MBAL_U1_T1
 G  DEMAND_T1
 L  MODE_U0_T2
 L  MODE_U1_T2
 L  MODE_U2_T2
 L  CAPMAX_U0_M0_T2
 G  CAPMIN_U0_M0_T2
 L  CAPMAX_U0_M1_T2
 G  CAPMIN_U0_M1_T2
 L  CAPMAX_U1_M0_T2
 G  CAPMIN_U1_M0_T2
 L  CAPMAX_U1_M1_T2
 G  CAPMIN_U1_M1_T2
 L  CAPMAX_U2_M0_T2
 G  CAPMIN_U2_M0_T2
 L  CAPMAX_U2_M1_T2
 G  CAPMIN_U2_M1_T2
 E  MBAL_U0_T2
 E  MBAL_U1_T2
 G  DEMAND_T2
 L  MODE_U0_T3
 L  MODE_U1_T3
 L  MODE_U2_T3
 L  CAPMAX_U0_M0_T3
 G  CAPMIN_U0_M0_T3
 L  CAPMAX_U0_M1_T3
 G  CAPMIN_U0_M1_T3
 L  CAPMAX_U1_M0_T3
 G  CAPMIN_U1_M0_T3
 L  CAPMAX_U1_M1_T3
 G  CAPMIN_U1_M1_T3
 L  CAPMAX_U2_M0_T3
 G  CAPMIN_U2_M0_T3
 L  CAPMAX_U2_M1_T3
 G  CAPMIN_U2_M1_T3
 E  MBAL_U0_T3
 E  MBAL_U1_T3
 G  DEMAND_T3
 L  MODE_U0_T4
 L  MODE_U1_T4
 L  MODE_U2_T4
 L  CAPMAX_U0_M0_T4
 G  CAPMIN_U0_M0_T4
 L  CAPMAX_U0_M1_T4
 G  CAPMIN_U0_M1_T4
 L  CAPMAX_U1_M0_T4
 G  CAPMIN_U1_M0_T4
 L  CAPMAX_U1_M1_T4
 G  CAPMIN_U1_M1_T4
 L  CAPMAX_U2_M0_T4
 G  CAPMIN_U2_M0_T4
 L  CAPMAX_U2_M1_T4
 G  CAPMIN_U2_M1_T4
 E  MBAL_U0_T4
 E  MBAL_U1_T4
 G  DEMAND_T4
 L  MODE_U0_T5
 L  MODE_U1_T5
 L  MODE_U2_T5
 L  CAPMAX_U0_M0_T5
 G  CAPMIN_U0_M0_T5
 L  CAPMAX_U0_M1_T5
 G  CAPMIN_U0_M1_T5
 L  CAPMAX_U1_M0_T5
 G  CAPMIN_U1_M0_T5
 L  CAPMAX_U1_M1_T5
 G  CAPMIN_U1_M1_T5
 L  CAPMAX_U2_M0_T5
 G  CAPMIN_U2_M0_T5
 L  CAPMAX_U2_M1_T5
 G  CAPMIN_U2_M1_T5
 E  MBAL_U0_T5
 E  MBAL_U1_T5
 G  DEMAND_T5
COLUMNS
    MARK0000  'MARKER'                 'INTORG'
    Z_U0_M0_T0  NET_COST  228
    Z_U0_M0_T0  MODE_U0_T0  1
    Z_U0_M0_T0  CAPMAX_U0_M0_T0  -300
    Z_U0_M0_T0  CAPMIN_U0_M0_T0  -90
    MARK1000  'MARKER'                 'INTEND'
    MARK2000  'MARKER'                 'INTORG'
    Z_U0_M1_T0  NET_COST  281
    Z_U0_M1_T0  MODE_U0_T0  1
    Z_U0_M1_T0  CAPMAX_U0_M1_T0  -169
    Z_U0_M1_T0  CAPMIN_U0_M1_T0  -50.7
    MARK3000  'MARKER'                 'INTEND'
    MARK4000  'MARKER'                 'INTORG'
    Z_U1_M0_T0  NET_COST  175
    Z_U1_M0_T0  MODE_U1_T0  1
    Z_U1_M0_T0  CAPMAX_U1_M0_T0  -205
    Z_U1_M0_T0  CAPMIN_U1_M0_T0  -61.5
    MARK5000  'MARKER'                 'INTEND'
    MARK6000  'MARKER'                 'INTORG'
    Z_U1_M1_T0  NET_COST  102
    Z_U1_M1_T0  MODE_U1_T0  1
    Z_U1_M1_T0  CAPMAX_U1_M1_T0  -255
    Z_U1_M1_T0  CAPMIN_U1_M1_T0  -76.5
    MARK7000  'MARKER'                 'INTEND'
    MARK8000  'MARKER'                 'INTORG'
    Z_U2_M0_T0  NET_COST  227
    Z_U2_M0_T0  MODE_U2_T0  1
    Z_U2_M0_T0  CAPMAX_U2_M0_T0  -315
    Z_U2_M0_T0  CAPMIN_U2_M0_T0  -94.5
    MARK9000  'MARKER'                 'INTEND'
    MARK1000  'MARKER'                 'INTORG'
    Z_U2_M1_T0  NET_COST  251
    Z_U2_M1_T0  MODE_U2_T0  1
    Z_U2_M1_T0  CAPMAX_U2_M1_T0  -240
    Z_U2_M1_T0  CAPMIN_U2_M1_T0  -72
    MARK1100  'MARKER'                 'INTEND'
    X_U0_M0_T0  NET_COST  33.9
    X_U0_M0_T0  CAPMAX_U0_M0_T0  1
    X_U0_M0_T0  CAPMIN_U0_M0_T0  1
    X_U0_M0_T0  MBAL_U0_T0  -0.9
    X_U0_M1_T0  NET_COST  18.4
    X_U0_M1_T0  CAPMAX_U0_M1_T0  1
    X_U0_M1_T0  CAPMIN_U0_M1_T0  1
    X_U0_M1_T0  MBAL_U0_T0  -0.9
    X_U1_M0_T0  NET_COST  29.4
    X_U1_M0_T0  CAPMAX_U1_M0_T0  1
    X_U1_M0_T0  CAPMIN_U1_M0_T0  1
    X_U1_M0_T0  MBAL_U0_T0  1
    X_U1_M0_T0  MBAL_U1_T0  -0.9
    X_U1_M1_T0  NET_COST  24.8
    X_U1_M1_T0  CAPMAX_U1_M1_T0  1
    X_U1_M1_T0  CAPMIN_U1_M1_T0  1
    X_U1_M1_T0  MBAL_U0_T0  1
    X_U1_M1_T0  MBAL_U1_T0  -0.9
    X_U2_M0_T0  NET_COST  -62.9
    X_U2_M0_T0  CAPMAX_U2_M0_T0  1
    X_U2_M0_T0  CAPMIN_U2_M0_T0  1
    X_U2_M0_T0  MBAL_U1_T0  1
    X_U2_M0_T0  DEMAND_T0  1
    X_U2_M1_T0  NET_COST  -56.4
    X_U2_M1_T0  CAPMAX_U2_M1_T0  1
    X_U2_M1_T0  CAPMIN_U2_M1_T0  1
    X_U2_M1_T0  MBAL_U1_T0  1
    X_U2_M1_T0  DEMAND_T0  1
    S_U0_T0   NET_COST  2
    S_U0_T0   MBAL_U0_T0  1
    S_U0_T0   MBAL_U0_T1  -1
    S_U1_T0   NET_COST  2
    S_U1_T0   MBAL_U1_T0  1
    S_U1_T0   MBAL_U1_T1  -1
    S_U2_T0   NET_COST  2
    MARK1200  'MARKER'                 'INTORG'
    Z_U0_M0_T1  NET_COST  228
    Z_U0_M0_T1  MODE_U0_T1  1
    Z_U0_M0_T1  CAPMAX_U0_M0_T1  -300
    Z_U0_M0_T1  CAPMIN_U0_M0_T1  -90
    MARK1300  'MARKER'                 'INTEND'
    MARK1400  'MARKER'                 'INTORG'
    Z_U0_M1_T1  NET_COST  281
    Z_U0_M1_T1  MODE_U0_T1  1
    Z_U0_M1_T1  CAPMAX_U0_M1_T1  -169
    Z_U0_M1_T1  CAPMIN_U0_M1_T1  -50.7
    MARK1500  'MARKER'                 'INTEND'
    MARK1600  'MARKER'                 'INTORG'
    Z_U1_M0_T1  NET_COST  175
    Z_U1_M0_T1  MODE_U1_T1  1
    Z_U1_M0_T1  CAPMAX_U1_M0_T1  -205
    Z_U1_M0_T1  CAPMIN_U1_M0_T1  -61.5
    MARK1700  'MARKER'                 'INTEND'
    MARK1800  'MARKER'                 'INTORG'
    Z_U1_M1_T1  NET_COST  102
    Z_U1_M1_T1  MODE_U1_T1  1
    Z_U1_M1_T1  CAPMAX_U1_M1_T1  -255
    Z_U1_M1_T1  CAPMIN_U1_M1_T1  -76.5
    MARK1900  'MARKER'                 'INTEND'
    MARK2000  'MARKER'                 'INTORG'
    Z_U2_M0_T1  NET_COST  227
    Z_U2_M0_T1  MODE_U2_T1  1
    Z_U2_M0_T1  CAPMAX_U2_M0_T1  -315
    Z_U2_M0_T1  CAPMIN_U2_M0_T1  -94.5
    MARK2100  'MARKER'                 'INTEND'
    MARK2200  'MARKER'                 'INTORG'
    Z_U2_M1_T1  NET_COST  251
    Z_U2_M1_T1  MODE_U2_T1  1
    Z_U2_M1_T1  CAPMAX_U2_M1_T1  -240
    Z_U2_M1_T1  CAPMIN_U2_M1_T1  -72
    MARK2300  'MARKER'                 'INTEND'
    X_U0_M0_T1  NET_COST  33.9
    X_U0_M0_T1  CAPMAX_U0_M0_T1  1
    X_U0_M0_T1  CAPMIN_U0_M0_T1  1
    X_U0_M0_T1  MBAL_U0_T1  -0.9
    X_U0_M1_T1  NET_COST  18.4
    X_U0_M1_T1  CAPMAX_U0_M1_T1  1
    X_U0_M1_T1  CAPMIN_U0_M1_T1  1
    X_U0_M1_T1  MBAL_U0_T1  -0.9
    X_U1_M0_T1  NET_COST  29.4
    X_U1_M0_T1  CAPMAX_U1_M0_T1  1
    X_U1_M0_T1  CAPMIN_U1_M0_T1  1
    X_U1_M0_T1  MBAL_U0_T1  1
    X_U1_M0_T1  MBAL_U1_T1  -0.9
    X_U1_M1_T1  NET_COST  24.8
    X_U1_M1_T1  CAPMAX_U1_M1_T1  1
    X_U1_M1_T1  CAPMIN_U1_M1_T1  1
    X_U1_M1_T1  MBAL_U0_T1  1
    X_U1_M1_T1  MBAL_U1_T1  -0.9
    X_U2_M0_T1  NET_COST  -62.9
    X_U2_M0_T1  CAPMAX_U2_M0_T1  1
    X_U2_M0_T1  CAPMIN_U2_M0_T1  1
    X_U2_M0_T1  MBAL_U1_T1  1
    X_U2_M0_T1  DEMAND_T1  1
    X_U2_M1_T1  NET_COST  -56.4
    X_U2_M1_T1  CAPMAX_U2_M1_T1  1
    X_U2_M1_T1  CAPMIN_U2_M1_T1  1
    X_U2_M1_T1  MBAL_U1_T1  1
    X_U2_M1_T1  DEMAND_T1  1
    S_U0_T1   NET_COST  2
    S_U0_T1   MBAL_U0_T1  1
    S_U0_T1   MBAL_U0_T2  -1
    S_U1_T1   NET_COST  2
    S_U1_T1   MBAL_U1_T1  1
    S_U1_T1   MBAL_U1_T2  -1
    S_U2_T1   NET_COST  2
    MARK2400  'MARKER'                 'INTORG'
    Z_U0_M0_T2  NET_COST  228
    Z_U0_M0_T2  MODE_U0_T2  1
    Z_U0_M0_T2  CAPMAX_U0_M0_T2  -300
    Z_U0_M0_T2  CAPMIN_U0_M0_T2  -90
    MARK2500  'MARKER'                 'INTEND'
    MARK2600  'MARKER'                 'INTORG'
    Z_U0_M1_T2  NET_COST  281
    Z_U0_M1_T2  MODE_U0_T2  1
    Z_U0_M1_T2  CAPMAX_U0_M1_T2  -169
    Z_U0_M1_T2  CAPMIN_U0_M1_T2  -50.7
    MARK2700  'MARKER'                 'INTEND'
    MARK2800  'MARKER'                 'INTORG'
    Z_U1_M0_T2  NET_COST  175
    Z_U1_M0_T2  MODE_U1_T2  1
    Z_U1_M0_T2  CAPMAX_U1_M0_T2  -205
    Z_U1_M0_T2  CAPMIN_U1_M0_T2  -61.5
    MARK2900  'MARKER'                 'INTEND'
    MARK3000  'MARKER'                 'INTORG'
    Z_U1_M1_T2  NET_COST  102
    Z_U1_M1_T2  MODE_U1_T2  1
    Z_U1_M1_T2  CAPMAX_U1_M1_T2  -255
    Z_U1_M1_T2  CAPMIN_U1_M1_T2  -76.5
    MARK3100  'MARKER'                 'INTEND'
    MARK3200  'MARKER'                 'INTORG'
    Z_U2_M0_T2  NET_COST  227
    Z_U2_M0_T2  MODE_U2_T2  1
    Z_U2_M0_T2  CAPMAX_U2_M0_T2  -315
    Z_U2_M0_T2  CAPMIN_U2_M0_T2  -94.5
    MARK3300  'MARKER'                 'INTEND'
    MARK3400  'MARKER'                 'INTORG'
    Z_U2_M1_T2  NET_COST  251
    Z_U2_M1_T2  MODE_U2_T2  1
    Z_U2_M1_T2  CAPMAX_U2_M1_T2  -240
    Z_U2_M1_T2  CAPMIN_U2_M1_T2  -72
    MARK3500  'MARKER'                 'INTEND'
    X_U0_M0_T2  NET_COST  33.9
    X_U0_M0_T2  CAPMAX_U0_M0_T2  1
    X_U0_M0_T2  CAPMIN_U0_M0_T2  1
    X_U0_M0_T2  MBAL_U0_T2  -0.9
    X_U0_M1_T2  NET_COST  18.4
    X_U0_M1_T2  CAPMAX_U0_M1_T2  1
    X_U0_M1_T2  CAPMIN_U0_M1_T2  1
    X_U0_M1_T2  MBAL_U0_T2  -0.9
    X_U1_M0_T2  NET_COST  29.4
    X_U1_M0_T2  CAPMAX_U1_M0_T2  1
    X_U1_M0_T2  CAPMIN_U1_M0_T2  1
    X_U1_M0_T2  MBAL_U0_T2  1
    X_U1_M0_T2  MBAL_U1_T2  -0.9
    X_U1_M1_T2  NET_COST  24.8
    X_U1_M1_T2  CAPMAX_U1_M1_T2  1
    X_U1_M1_T2  CAPMIN_U1_M1_T2  1
    X_U1_M1_T2  MBAL_U0_T2  1
    X_U1_M1_T2  MBAL_U1_T2  -0.9
    X_U2_M0_T2  NET_COST  -62.9
    X_U2_M0_T2  CAPMAX_U2_M0_T2  1
    X_U2_M0_T2  CAPMIN_U2_M0_T2  1
    X_U2_M0_T2  MBAL_U1_T2  1
    X_U2_M0_T2  DEMAND_T2  1
    X_U2_M1_T2  NET_COST  -56.4
    X_U2_M1_T2  CAPMAX_U2_M1_T2  1
    X_U2_M1_T2  CAPMIN_U2_M1_T2  1
    X_U2_M1_T2  MBAL_U1_T2  1
    X_U2_M1_T2  DEMAND_T2  1
    S_U0_T2   NET_COST  2
    S_U0_T2   MBAL_U0_T2  1
    S_U0_T2   MBAL_U0_T3  -1
    S_U1_T2   NET_COST  2
    S_U1_T2   MBAL_U1_T2  1
    S_U1_T2   MBAL_U1_T3  -1
    S_U2_T2   NET_COST  2
    MARK3600  'MARKER'                 'INTORG'
    Z_U0_M0_T3  NET_COST  228
    Z_U0_M0_T3  MODE_U0_T3  1
    Z_U0_M0_T3  CAPMAX_U0_M0_T3  -300
    Z_U0_M0_T3  CAPMIN_U0_M0_T3  -90
    MARK3700  'MARKER'                 'INTEND'
    MARK3800  'MARKER'                 'INTORG'
    Z_U0_M1_T3  NET_COST  281
    Z_U0_M1_T3  MODE_U0_T3  1
    Z_U0_M1_T3  CAPMAX_U0_M1_T3  -169
    Z_U0_M1_T3  CAPMIN_U0_M1_T3  -50.7
    MARK3900  'MARKER'                 'INTEND'
    MARK4000  'MARKER'                 'INTORG'
    Z_U1_M0_T3  NET_COST  175
    Z_U1_M0_T3  MODE_U1_T3  1
    Z_U1_M0_T3  CAPMAX_U1_M0_T3  -205
    Z_U1_M0_T3  CAPMIN_U1_M0_T3  -61.5
    MARK4100  'MARKER'                 'INTEND'
    MARK4200  'MARKER'                 'INTORG'
    Z_U1_M1_T3  NET_COST  102
    Z_U1_M1_T3  MODE_U1_T3  1
    Z_U1_M1_T3  CAPMAX_U1_M1_T3  -255
    Z_U1_M1_T3  CAPMIN_U1_M1_T3  -76.5
    MARK4300  'MARKER'                 'INTEND'
    MARK4400  'MARKER'                 'INTORG'
    Z_U2_M0_T3  NET_COST  227
    Z_U2_M0_T3  MODE_U2_T3  1
    Z_U2_M0_T3  CAPMAX_U2_M0_T3  -315
    Z_U2_M0_T3  CAPMIN_U2_M0_T3  -94.5
    MARK4500  'MARKER'                 'INTEND'
    MARK4600  'MARKER'                 'INTORG'
    Z_U2_M1_T3  NET_COST  251
    Z_U2_M1_T3  MODE_U2_T3  1
    Z_U2_M1_T3  CAPMAX_U2_M1_T3  -240
    Z_U2_M1_T3  CAPMIN_U2_M1_T3  -72
    MARK4700  'MARKER'                 'INTEND'
    X_U0_M0_T3  NET_COST  33.9
    X_U0_M0_T3  CAPMAX_U0_M0_T3  1
    X_U0_M0_T3  CAPMIN_U0_M0_T3  1
    X_U0_M0_T3  MBAL_U0_T3  -0.9
    X_U0_M1_T3  NET_COST  18.4
    X_U0_M1_T3  CAPMAX_U0_M1_T3  1
    X_U0_M1_T3  CAPMIN_U0_M1_T3  1
    X_U0_M1_T3  MBAL_U0_T3  -0.9
    X_U1_M0_T3  NET_COST  29.4
    X_U1_M0_T3  CAPMAX_U1_M0_T3  1
    X_U1_M0_T3  CAPMIN_U1_M0_T3  1
    X_U1_M0_T3  MBAL_U0_T3  1
    X_U1_M0_T3  MBAL_U1_T3  -0.9
    X_U1_M1_T3  NET_COST  24.8
    X_U1_M1_T3  CAPMAX_U1_M1_T3  1
    X_U1_M1_T3  CAPMIN_U1_M1_T3  1
    X_U1_M1_T3  MBAL_U0_T3  1
    X_U1_M1_T3  MBAL_U1_T3  -0.9
    X_U2_M0_T3  NET_COST  -62.9
    X_U2_M0_T3  CAPMAX_U2_M0_T3  1
    X_U2_M0_T3  CAPMIN_U2_M0_T3  1
    X_U2_M0_T3  MBAL_U1_T3  1
    X_U2_M0_T3  DEMAND_T3  1
    X_U2_M1_T3  NET_COST  -56.4
    X_U2_M1_T3  CAPMAX_U2_M1_T3  1
    X_U2_M1_T3  CAPMIN_U2_M1_T3  1
    X_U2_M1_T3  MBAL_U1_T3  1
    X_U2_M1_T3  DEMAND_T3  1
    S_U0_T3   NET_COST  2
    S_U0_T3   MBAL_U0_T3  1
    S_U0_T3   MBAL_U0_T4  -1
    S_U1_T3   NET_COST  2
    S_U1_T3   MBAL_U1_T3  1
    S_U1_T3   MBAL_U1_T4  -1
    S_U2_T3   NET_COST  2
    MARK4800  'MARKER'                 'INTORG'
    Z_U0_M0_T4  NET_COST  228
    Z_U0_M0_T4  MODE_U0_T4  1
    Z_U0_M0_T4  CAPMAX_U0_M0_T4  -300
    Z_U0_M0_T4  CAPMIN_U0_M0_T4  -90
    MARK4900  'MARKER'                 'INTEND'
    MARK5000  'MARKER'                 'INTORG'
    Z_U0_M1_T4  NET_COST  281
    Z_U0_M1_T4  MODE_U0_T4  1
    Z_U0_M1_T4  CAPMAX_U0_M1_T4  -169
    Z_U0_M1_T4  CAPMIN_U0_M1_T4  -50.7
    MARK5100  'MARKER'                 'INTEND'
    MARK5200  'MARKER'                 'INTORG'
    Z_U1_M0_T4  NET_COST  175
    Z_U1_M0_T4  MODE_U1_T4  1
    Z_U1_M0_T4  CAPMAX_U1_M0_T4  -205
    Z_U1_M0_T4  CAPMIN_U1_M0_T4  -61.5
    MARK5300  'MARKER'                 'INTEND'
    MARK5400  'MARKER'                 'INTORG'
    Z_U1_M1_T4  NET_COST  102
    Z_U1_M1_T4  MODE_U1_T4  1
    Z_U1_M1_T4  CAPMAX_U1_M1_T4  -255
    Z_U1_M1_T4  CAPMIN_U1_M1_T4  -76.5
    MARK5500  'MARKER'                 'INTEND'
    MARK5600  'MARKER'                 'INTORG'
    Z_U2_M0_T4  NET_COST  227
    Z_U2_M0_T4  MODE_U2_T4  1
    Z_U2_M0_T4  CAPMAX_U2_M0_T4  -315
    Z_U2_M0_T4  CAPMIN_U2_M0_T4  -94.5
    MARK5700  'MARKER'                 'INTEND'
    MARK5800  'MARKER'                 'INTORG'
    Z_U2_M1_T4  NET_COST  251
    Z_U2_M1_T4  MODE_U2_T4  1
    Z_U2_M1_T4  CAPMAX_U2_M1_T4  -240
    Z_U2_M1_T4  CAPMIN_U2_M1_T4  -72
    MARK5900  'MARKER'                 'INTEND'
    X_U0_M0_T4  NET_COST  33.9
    X_U0_M0_T4  CAPMAX_U0_M0_T4  1
    X_U0_M0_T4  CAPMIN_U0_M0_T4  1
    X_U0_M0_T4  MBAL_U0_T4  -0.9
    X_U0_M1_T4  NET_COST  18.4
    X_U0_M1_T4  CAPMAX_U0_M1_T4  1
    X_U0_M1_T4  CAPMIN_U0_M1_T4  1
    X_U0_M1_T4  MBAL_U0_T4  -0.9
    X_U1_M0_T4  NET_COST  29.4
    X_U1_M0_T4  CAPMAX_U1_M0_T4  1
    X_U1_M0_T4  CAPMIN_U1_M0_T4  1
    X_U1_M0_T4  MBAL_U0_T4  1
    X_U1_M0_T4  MBAL_U1_T4  -0.9
    X_U1_M1_T4  NET_COST  24.8
    X_U1_M1_T4  CAPMAX_U1_M1_T4  1
    X_U1_M1_T4  CAPMIN_U1_M1_T4  1
    X_U1_M1_T4  MBAL_U0_T4  1
    X_U1_M1_T4  MBAL_U1_T4  -0.9
    X_U2_M0_T4  NET_COST  -62.9
    X_U2_M0_T4  CAPMAX_U2_M0_T4  1
    X_U2_M0_T4  CAPMIN_U2_M0_T4  1
    X_U2_M0_T4  MBAL_U1_T4  1
    X_U2_M0_T4  DEMAND_T4  1
    X_U2_M1_T4  NET_COST  -56.4
    X_U2_M1_T4  CAPMAX_U2_M1_T4  1
    X_U2_M1_T4  CAPMIN_U2_M1_T4  1
    X_U2_M1_T4  MBAL_U1_T4  1
    X_U2_M1_T4  DEMAND_T4  1
    S_U0_T4   NET_COST  2
    S_U0_T4   MBAL_U0_T4  1
    S_U0_T4   MBAL_U0_T5  -1
    S_U1_T4   NET_COST  2
    S_U1_T4   MBAL_U1_T4  1
    S_U1_T4   MBAL_U1_T5  -1
    S_U2_T4   NET_COST  2
    MARK6000  'MARKER'                 'INTORG'
    Z_U0_M0_T5  NET_COST  228
    Z_U0_M0_T5  MODE_U0_T5  1
    Z_U0_M0_T5  CAPMAX_U0_M0_T5  -300
    Z_U0_M0_T5  CAPMIN_U0_M0_T5  -90
    MARK6100  'MARKER'                 'INTEND'
    MARK6200  'MARKER'                 'INTORG'
    Z_U0_M1_T5  NET_COST  281
    Z_U0_M1_T5  MODE_U0_T5  1
    Z_U0_M1_T5  CAPMAX_U0_M1_T5  -169
    Z_U0_M1_T5  CAPMIN_U0_M1_T5  -50.7
    MARK6300  'MARKER'                 'INTEND'
    MARK6400  'MARKER'                 'INTORG'
    Z_U1_M0_T5  NET_COST  175
    Z_U1_M0_T5  MODE_U1_T5  1
    Z_U1_M0_T5  CAPMAX_U1_M0_T5  -205
    Z_U1_M0_T5  CAPMIN_U1_M0_T5  -61.5
    MARK6500  'MARKER'                 'INTEND'
    MARK6600  'MARKER'                 'INTORG'
    Z_U1_M1_T5  NET_COST  102
    Z_U1_M1_T5  MODE_U1_T5  1
    Z_U1_M1_T5  CAPMAX_U1_M1_T5  -255
    Z_U1_M1_T5  CAPMIN_U1_M1_T5  -76.5
    MARK6700  'MARKER'                 'INTEND'
    MARK6800  'MARKER'                 'INTORG'
    Z_U2_M0_T5  NET_COST  227
    Z_U2_M0_T5  MODE_U2_T5  1
    Z_U2_M0_T5  CAPMAX_U2_M0_T5  -315
    Z_U2_M0_T5  CAPMIN_U2_M0_T5  -94.5
    MARK6900  'MARKER'                 'INTEND'
    MARK7000  'MARKER'                 'INTORG'
    Z_U2_M1_T5  NET_COST  251
    Z_U2_M1_T5  MODE_U2_T5  1
    Z_U2_M1_T5  CAPMAX_U2_M1_T5  -240
    Z_U2_M1_T5  CAPMIN_U2_M1_T5  -72
    MARK7100  'MARKER'                 'INTEND'
    X_U0_M0_T5  NET_COST  33.9
    X_U0_M0_T5  CAPMAX_U0_M0_T5  1
    X_U0_M0_T5  CAPMIN_U0_M0_T5  1
    X_U0_M0_T5  MBAL_U0_T5  -0.9
    X_U0_M1_T5  NET_COST  18.4
    X_U0_M1_T5  CAPMAX_U0_M1_T5  1
    X_U0_M1_T5  CAPMIN_U0_M1_T5  1
    X_U0_M1_T5  MBAL_U0_T5  -0.9
    X_U1_M0_T5  NET_COST  29.4
    X_U1_M0_T5  CAPMAX_U1_M0_T5  1
    X_U1_M0_T5  CAPMIN_U1_M0_T5  1
    X_U1_M0_T5  MBAL_U0_T5  1
    X_U1_M0_T5  MBAL_U1_T5  -0.9
    X_U1_M1_T5  NET_COST  24.8
    X_U1_M1_T5  CAPMAX_U1_M1_T5  1
    X_U1_M1_T5  CAPMIN_U1_M1_T5  1
    X_U1_M1_T5  MBAL_U0_T5  1
    X_U1_M1_T5  MBAL_U1_T5  -0.9
    X_U2_M0_T5  NET_COST  -62.9
    X_U2_M0_T5  CAPMAX_U2_M0_T5  1
    X_U2_M0_T5  CAPMIN_U2_M0_T5  1
    X_U2_M0_T5  MBAL_U1_T5  1
    X_U2_M0_T5  DEMAND_T5  1
    X_U2_M1_T5  NET_COST  -56.4
    X_U2_M1_T5  CAPMAX_U2_M1_T5  1
    X_U2_M1_T5  CAPMIN_U2_M1_T5  1
    X_U2_M1_T5  MBAL_U1_T5  1
    X_U2_M1_T5  DEMAND_T5  1
    S_U0_T5   NET_COST  2
    S_U0_T5   MBAL_U0_T5  1
    S_U1_T5   NET_COST  2
    S_U1_T5   MBAL_U1_T5  1
    S_U2_T5   NET_COST  2
RHS
    RHS1      MODE_U0_T0  1
    RHS1      MODE_U1_T0  1
    RHS1      MODE_U2_T0  1
    RHS1      DEMAND_T0  86
    RHS1      MODE_U0_T1  1
    RHS1      MODE_U1_T1  1
    RHS1      MODE_U2_T1  1
    RHS1      DEMAND_T1  88
    RHS1      MODE_U0_T2  1
    RHS1      MODE_U1_T2  1
    RHS1      MODE_U2_T2  1
    RHS1      DEMAND_T2  170
    RHS1      MODE_U0_T3  1
    RHS1      MODE_U1_T3  1
    RHS1      MODE_U2_T3  1
    RHS1      DEMAND_T3  98
    RHS1      MODE_U0_T4  1
    RHS1      MODE_U1_T4  1
    RHS1      MODE_U2_T4  1
    RHS1      DEMAND_T4  131
    RHS1      MODE_U0_T5  1
    RHS1      MODE_U1_T5  1
    RHS1      MODE_U2_T5  1
    RHS1      DEMAND_T5  92
BOUNDS
 BV BND1      Z_U0_M0_T0
 BV BND1      Z_U0_M1_T0
 BV BND1      Z_U1_M0_T0
 BV BND1      Z_U1_M1_T0
 BV BND1      Z_U2_M0_T0
 BV BND1      Z_U2_M1_T0
 UP BND1      X_U0_M0_T0  300
 UP BND1      X_U0_M1_T0  169
 UP BND1      X_U1_M0_T0  205
 UP BND1      X_U1_M1_T0  255
 UP BND1      X_U2_M0_T0  315
 UP BND1      X_U2_M1_T0  240
 UP BND1      S_U0_T0   500
 UP BND1      S_U1_T0   500
 UP BND1      S_U2_T0   500
 BV BND1      Z_U0_M0_T1
 BV BND1      Z_U0_M1_T1
 BV BND1      Z_U1_M0_T1
 BV BND1      Z_U1_M1_T1
 BV BND1      Z_U2_M0_T1
 BV BND1      Z_U2_M1_T1
 UP BND1      X_U0_M0_T1  300
 UP BND1      X_U0_M1_T1  169
 UP BND1      X_U1_M0_T1  205
 UP BND1      X_U1_M1_T1  255
 UP BND1      X_U2_M0_T1  315
 UP BND1      X_U2_M1_T1  240
 UP BND1      S_U0_T1   500
 UP BND1      S_U1_T1   500
 UP BND1      S_U2_T1   500
 BV BND1      Z_U0_M0_T2
 BV BND1      Z_U0_M1_T2
 BV BND1      Z_U1_M0_T2
 BV BND1      Z_U1_M1_T2
 BV BND1      Z_U2_M0_T2
 BV BND1      Z_U2_M1_T2
 UP BND1      X_U0_M0_T2  300
 UP BND1      X_U0_M1_T2  169
 UP BND1      X_U1_M0_T2  205
 UP BND1      X_U1_M1_T2  255
 UP BND1      X_U2_M0_T2  315
 UP BND1      X_U2_M1_T2  240
 UP BND1      S_U0_T2   500
 UP BND1      S_U1_T2   500
 UP BND1      S_U2_T2   500
 BV BND1      Z_U0_M0_T3
 BV BND1      Z_U0_M1_T3
 BV BND1      Z_U1_M0_T3
 BV BND1      Z_U1_M1_T3
 BV BND1      Z_U2_M0_T3
 BV BND1      Z_U2_M1_T3
 UP BND1      X_U0_M0_T3  300
 UP BND1      X_U0_M1_T3  169
 UP BND1      X_U1_M0_T3  205
 UP BND1      X_U1_M1_T3  255
 UP BND1      X_U2_M0_T3  315
 UP BND1      X_U2_M1_T3  240
 UP BND1      S_U0_T3   500
 UP BND1      S_U1_T3   500
 UP BND1      S_U2_T3   500
 BV BND1      Z_U0_M0_T4
 BV BND1      Z_U0_M1_T4
 BV BND1      Z_U1_M0_T4
 BV BND1      Z_U1_M1_T4
 BV BND1      Z_U2_M0_T4
 BV BND1      Z_U2_M1_T4
 UP BND1      X_U0_M0_T4  300
 UP BND1      X_U0_M1_T4  169
 UP BND1      X_U1_M0_T4  205
 UP BND1      X_U1_M1_T4  255
 UP BND1      X_U2_M0_T4  315
 UP BND1      X_U2_M1_T4  240
 UP BND1      S_U0_T4   500
 UP BND1      S_U1_T4   500
 UP BND1      S_U2_T4   500
 BV BND1      Z_U0_M0_T5
 BV BND1      Z_U0_M1_T5
 BV BND1      Z_U1_M0_T5
 BV BND1      Z_U1_M1_T5
 BV BND1      Z_U2_M0_T5
 BV BND1      Z_U2_M1_T5
 UP BND1      X_U0_M0_T5  300
 UP BND1      X_U0_M1_T5  169
 UP BND1      X_U1_M0_T5  205
 UP BND1      X_U1_M1_T5  255
 UP BND1      X_U2_M0_T5  315
 UP BND1      X_U2_M1_T5  240
 UP BND1      S_U0_T5   500
 UP BND1      S_U1_T5   500
 UP BND1      S_U2_T5   500
ENDATA
